160
Lattice="14.874162066633875 0.0 0.0 -9.284215191822401 16.368510628880134 0.0 -8.069781929740929 -8.22118773315991 22.87853069897419" Properties=species:S:1:pos:R:3 pbc="T T T"
Cs      -0.65571832       7.25768386       2.85981628
Cs      -1.64662071       3.16591689       2.85981628
Cs       1.65287472      -1.70789397       8.57944895
Cs       2.64388796       2.38459437       8.57944895
Pb       1.11851638       0.73832336      -0.00000376
Pb       1.39748672       4.09212766       0.00000000
Pb      -0.89892910      -1.31697358       5.71963631
Pb       0.49859093       2.77496837       5.71964642
I       -0.85417068       6.28706512       0.47522690
I        2.30707449       2.19490851       0.47556753
I        6.87316656      -0.21203898       2.85981628
I        1.85135179      -0.73691087      10.96358957
I       -1.30988480       3.35518783      10.96393020
I        2.09342179       3.87971939       2.85981628
I       -2.53621101       4.57346624       5.24440565
I        0.62503417       0.48130963       5.24406502
I       -5.87607966       5.76255986       8.57944895
I        3.53339211       0.97668800       6.19530833
I        0.37215553       5.06878671       6.19496770
I       -1.09630620       1.67006292       8.57944895
Cs      -4.69060929       3.14708999      14.29908163
Cs      -5.68151167      -0.94467698      14.29908163
Cs      -2.38201624      -5.81848784      20.01871430
Cs      -1.39100300      -1.72599950      20.01871430
Pb      -2.91637459      -3.37227051      11.43926159
Pb      -2.63740425      -0.01846621      11.43926535
Pb      -4.93382007      -5.42756744      17.15890166
Pb      -3.53630003      -1.33562550      17.15891177
I       -4.88906165       2.17647125      11.91449225
I       -1.72781647      -1.91568536      11.91483288
I        2.83827560      -4.32263285      14.29908163
I       -2.18353918      -4.84750474      22.40285492
I       -5.34477576      -0.75540603      22.40319555
I       -1.94146918      -0.23087448      14.29908163
I       -6.57110197       0.46287237      16.68367100
I       -3.40985679      -3.62928423      16.68333037
I       -9.91097063       1.65196600      20.01871430
I       -0.50149886      -3.13390586      17.63457368
I       -3.66273544       0.95819284      17.63423305
I       -5.13119717      -2.44053095      20.01871430
Cs      -5.29782592      15.44193917       2.85981628
Cs      -6.28872830      11.35017220       2.85981628
Cs      -2.98923287       6.47636134       8.57944895
Cs      -1.99821964      10.56884969       8.57944895
Pb      -3.52359122       8.92257867      -0.00000376
Pb      -3.24462088      12.27638297       0.00000000
Pb      -5.54103670       6.86728174       5.71963631
Pb      -4.14351666      10.95922368       5.71964642
I       -5.49627828      14.47132043       0.47522690
I       -2.33503310      10.37916383       0.47556753
I        2.23105896       7.97221634       2.85981628
I       -2.79075581       7.44734444      10.96358957
I       -5.95199239      11.53944315      10.96393020
I       -2.54868581      12.06397470       2.85981628
I       -7.17831860      12.75772155       5.24440565
I       -4.01707342       8.66556495       5.24406502
I      -10.51818726      13.94681518       8.57944895
I       -1.10871549       9.16094332       6.19530833
I       -4.26995207      13.25304202       6.19496770
I       -5.73841380       9.85431823       8.57944895
Cs      -9.33271688      11.33134530      14.29908163
Cs     -10.32361927       7.23957833      14.29908163
Cs      -7.02412384       2.36576747      20.01871430
Cs      -6.03311060       6.45825582      20.01871430
Pb      -7.55848218       4.81198480      11.43926159
Pb      -7.27951184       8.16578911      11.43926535
Pb      -9.57592766       2.75668787      17.15890166
Pb      -8.17840763       6.84862981      17.15891177
I       -9.53116924      10.36072657      11.91449225
I       -6.36992407       6.26856996      11.91483288
I       -1.80383200       3.86162247      14.29908163
I       -6.82564677       3.33675057      22.40285492
I       -9.98688336       7.42884928      22.40319555
I       -6.58357677       7.95338084      14.29908163
I      -11.21320957       8.64712769      16.68367100
I       -8.05196439       4.55497108      16.68333037
I      -14.55307822       9.83622131      20.01871430
I       -5.14360645       5.05034945      17.63457368
I       -8.30484304       9.14244816      17.63423305
I       -9.77330476       5.74372437      20.01871430
Cs       6.78136271       7.25768386       2.85981628
Cs       5.79046033       3.16591689       2.85981628
Cs       9.08995576      -1.70789397       8.57944895
Cs      10.08096899       2.38459437       8.57944895
Pb       8.55559741       0.73832336      -0.00000376
Pb       8.83456775       4.09212766       0.00000000
Pb       6.53815193      -1.31697358       5.71963631
Pb       7.93567197       2.77496837       5.71964642
I        6.58291035       6.28706512       0.47522690
I        9.74415553       2.19490851       0.47556753
I       14.31024759      -0.21203898       2.85981628
I        9.28843282      -0.73691087      10.96358957
I        6.12719624       3.35518783      10.96393020
I        9.53050282       3.87971939       2.85981628
I        4.90087003       4.57346624       5.24440565
I        8.06211520       0.48130963       5.24406502
I        1.56100137       5.76255986       8.57944895
I       10.97047314       0.97668800       6.19530833
I        7.80923656       5.06878671       6.19496770
I        6.34077483       1.67006292       8.57944895
Cs       2.74647175       3.14708999      14.29908163
Cs       1.75556936      -0.94467698      14.29908163
Cs       5.05506479      -5.81848784      20.01871430
Cs       6.04607803      -1.72599950      20.01871430
Pb       4.52070645      -3.37227051      11.43926159
Pb       4.79967679      -0.01846621      11.43926535
Pb       2.50326097      -5.42756744      17.15890166
Pb       3.90078100      -1.33562550      17.15891177
I        2.54801938       2.17647125      11.91449225
I        5.70926456      -1.91568536      11.91483288
I       10.27535663      -4.32263285      14.29908163
I        5.25354186      -4.84750474      22.40285492
I        2.09230527      -0.75540603      22.40319555
I        5.49561186      -0.23087448      14.29908163
I        0.86597906       0.46287237      16.68367100
I        4.02722424      -3.62928423      16.68333037
I       -2.47388959       1.65196600      20.01871430
I        6.93558218      -3.13390586      17.63457368
I        3.77434559       0.95819284      17.63423305
I        2.30588387      -2.44053095      20.01871430
Cs       2.13925512      15.44193917       2.85981628
Cs       1.14835273      11.35017220       2.85981628
Cs       4.44784816       6.47636134       8.57944895
Cs       5.43886140      10.56884969       8.57944895
Pb       3.91348982       8.92257867      -0.00000376
Pb       4.19246016      12.27638297       0.00000000
Pb       1.89604433       6.86728174       5.71963631
Pb       3.29356437      10.95922368       5.71964642
I        1.94080275      14.47132043       0.47522690
I        5.10204793      10.37916383       0.47556753
I        9.66814000       7.97221634       2.85981628
I        4.64632522       7.44734444      10.96358957
I        1.48508864      11.53944315      10.96393020
I        4.88839522      12.06397470       2.85981628
I        0.25876243      12.75772155       5.24440565
I        3.42000761       8.66556495       5.24406502
I       -3.08110622      13.94681518       8.57944895
I        6.32836555       9.16094332       6.19530833
I        3.16712896      13.25304202       6.19496770
I        1.69866724       9.85431823       8.57944895
Cs      -1.89563585      11.33134530      14.29908163
Cs      -2.88653823       7.23957833      14.29908163
Cs       0.41295719       2.36576747      20.01871430
Cs       1.40397043       6.45825582      20.01871430
Pb      -0.12140115       4.81198480      11.43926159
Pb       0.15756919       8.16578911      11.43926535
Pb      -2.13884663       2.75668787      17.15890166
Pb      -0.74132659       6.84862981      17.15891177
I       -2.09408821      10.36072657      11.91449225
I        1.06715697       6.26856996      11.91483288
I        5.63324903       3.86162247      14.29908163
I        0.61143426       3.33675057      22.40285492
I       -2.54980232       7.42884928      22.40319555
I        0.85350426       7.95338084      14.29908163
I       -3.77612853       8.64712769      16.68367100
I       -0.61488336       4.55497108      16.68333037
I       -7.11599719       9.83622131      20.01871430
I        2.29347458       5.05034945      17.63457368
I       -0.86776200       9.14244816      17.63423305
I       -2.33622373       5.74372437      20.01871430
