160
Lattice="16.788561854556598 -0.31229332104602653 1.9199966923125942 -10.861286315824092 18.863470961295477 -1.2467687098789948 -5.772416741826338 -9.264114572299178 24.246307101075224" Properties=species:S:1:pos:R:3:spacegroup_kinds:I:1:forces:R:3 spacegroup="P 1" unit_cell=conventional occupancy="_JSON {\"0\": {\"Cs\": 1.0}, \"1\": {\"Cs\": 1.0}, \"2\": {\"Cs\": 1.0}, \"3\": {\"Cs\": 1.0}, \"4\": {\"Pb\": 1.0}, \"5\": {\"Pb\": 1.0}, \"6\": {\"Pb\": 1.0}, \"7\": {\"Pb\": 1.0}, \"8\": {\"I\": 1.0}, \"9\": {\"I\": 1.0}, \"10\": {\"I\": 1.0}, \"11\": {\"I\": 1.0}, \"12\": {\"I\": 1.0}, \"13\": {\"I\": 1.0}, \"14\": {\"I\": 1.0}, \"15\": {\"I\": 1.0}, \"16\": {\"I\": 1.0}, \"17\": {\"I\": 1.0}, \"18\": {\"I\": 1.0}, \"19\": {\"I\": 1.0}, \"20\": {\"Cs\": 1.0}, \"21\": {\"Cs\": 1.0}, \"22\": {\"Cs\": 1.0}, \"23\": {\"Cs\": 1.0}, \"24\": {\"Pb\": 1.0}, \"25\": {\"Pb\": 1.0}, \"26\": {\"Pb\": 1.0}, \"27\": {\"Pb\": 1.0}, \"28\": {\"I\": 1.0}, \"29\": {\"I\": 1.0}, \"30\": {\"I\": 1.0}, \"31\": {\"I\": 1.0}, \"32\": {\"I\": 1.0}, \"33\": {\"I\": 1.0}, \"34\": {\"I\": 1.0}, \"35\": {\"I\": 1.0}, \"36\": {\"I\": 1.0}, \"37\": {\"I\": 1.0}, \"38\": {\"I\": 1.0}, \"39\": {\"I\": 1.0}, \"40\": {\"Cs\": 1.0}, \"41\": {\"Cs\": 1.0}, \"42\": {\"Cs\": 1.0}, \"43\": {\"Cs\": 1.0}, \"44\": {\"Pb\": 1.0}, \"45\": {\"Pb\": 1.0}, \"46\": {\"Pb\": 1.0}, \"47\": {\"Pb\": 1.0}, \"48\": {\"I\": 1.0}, \"49\": {\"I\": 1.0}, \"50\": {\"I\": 1.0}, \"51\": {\"I\": 1.0}, \"52\": {\"I\": 1.0}, \"53\": {\"I\": 1.0}, \"54\": {\"I\": 1.0}, \"55\": {\"I\": 1.0}, \"56\": {\"I\": 1.0}, \"57\": {\"I\": 1.0}, \"58\": {\"I\": 1.0}, \"59\": {\"I\": 1.0}, \"60\": {\"Cs\": 1.0}, \"61\": {\"Cs\": 1.0}, \"62\": {\"Cs\": 1.0}, \"63\": {\"Cs\": 1.0}, \"64\": {\"Pb\": 1.0}, \"65\": {\"Pb\": 1.0}, \"66\": {\"Pb\": 1.0}, \"67\": {\"Pb\": 1.0}, \"68\": {\"I\": 1.0}, \"69\": {\"I\": 1.0}, \"70\": {\"I\": 1.0}, \"71\": {\"I\": 1.0}, \"72\": {\"I\": 1.0}, \"73\": {\"I\": 1.0}, \"74\": {\"I\": 1.0}, \"75\": {\"I\": 1.0}, \"76\": {\"I\": 1.0}, \"77\": {\"I\": 1.0}, \"78\": {\"I\": 1.0}, \"79\": {\"I\": 1.0}, \"80\": {\"Cs\": 1.0}, \"81\": {\"Cs\": 1.0}, \"82\": {\"Cs\": 1.0}, \"83\": {\"Cs\": 1.0}, \"84\": {\"Pb\": 1.0}, \"85\": {\"Pb\": 1.0}, \"86\": {\"Pb\": 1.0}, \"87\": {\"Pb\": 1.0}, \"88\": {\"I\": 1.0}, \"89\": {\"I\": 1.0}, \"90\": {\"I\": 1.0}, \"91\": {\"I\": 1.0}, \"92\": {\"I\": 1.0}, \"93\": {\"I\": 1.0}, \"94\": {\"I\": 1.0}, \"95\": {\"I\": 1.0}, \"96\": {\"I\": 1.0}, \"97\": {\"I\": 1.0}, \"98\": {\"I\": 1.0}, \"99\": {\"I\": 1.0}, \"100\": {\"Cs\": 1.0}, \"101\": {\"Cs\": 1.0}, \"102\": {\"Cs\": 1.0}, \"103\": {\"Cs\": 1.0}, \"104\": {\"Pb\": 1.0}, \"105\": {\"Pb\": 1.0}, \"106\": {\"Pb\": 1.0}, \"107\": {\"Pb\": 1.0}, \"108\": {\"I\": 1.0}, \"109\": {\"I\": 1.0}, \"110\": {\"I\": 1.0}, \"111\": {\"I\": 1.0}, \"112\": {\"I\": 1.0}, \"113\": {\"I\": 1.0}, \"114\": {\"I\": 1.0}, \"115\": {\"I\": 1.0}, \"116\": {\"I\": 1.0}, \"117\": {\"I\": 1.0}, \"118\": {\"I\": 1.0}, \"119\": {\"I\": 1.0}, \"120\": {\"Cs\": 1.0}, \"121\": {\"Cs\": 1.0}, \"122\": {\"Cs\": 1.0}, \"123\": {\"Cs\": 1.0}, \"124\": {\"Pb\": 1.0}, \"125\": {\"Pb\": 1.0}, \"126\": {\"Pb\": 1.0}, \"127\": {\"Pb\": 1.0}, \"128\": {\"I\": 1.0}, \"129\": {\"I\": 1.0}, \"130\": {\"I\": 1.0}, \"131\": {\"I\": 1.0}, \"132\": {\"I\": 1.0}, \"133\": {\"I\": 1.0}, \"134\": {\"I\": 1.0}, \"135\": {\"I\": 1.0}, \"136\": {\"I\": 1.0}, \"137\": {\"I\": 1.0}, \"138\": {\"I\": 1.0}, \"139\": {\"I\": 1.0}, \"140\": {\"Cs\": 1.0}, \"141\": {\"Cs\": 1.0}, \"142\": {\"Cs\": 1.0}, \"143\": {\"Cs\": 1.0}, \"144\": {\"Pb\": 1.0}, \"145\": {\"Pb\": 1.0}, \"146\": {\"Pb\": 1.0}, \"147\": {\"Pb\": 1.0}, \"148\": {\"I\": 1.0}, \"149\": {\"I\": 1.0}, \"150\": {\"I\": 1.0}, \"151\": {\"I\": 1.0}, \"152\": {\"I\": 1.0}, \"153\": {\"I\": 1.0}, \"154\": {\"I\": 1.0}, \"155\": {\"I\": 1.0}, \"156\": {\"I\": 1.0}, \"157\": {\"I\": 1.0}, \"158\": {\"I\": 1.0}, \"159\": {\"I\": 1.0}}" energy=-452.9597321116135 free_energy=-452.9597321116135 stress="7.511193316128237e-06 7.36220855970149e-06 4.036167717633686e-06 7.36220855970149e-06 -9.91595855675493e-06 7.585597169859668e-06 4.036167717633686e-06 7.585597169859668e-06 4.856846858540092e-07" pbc="T T T"
Cs      -0.52601493       9.66094737       3.05062395        0       0.00027692      -0.00038485      -0.00007752
Cs      -2.00742651       5.02278203       2.88210548        1       0.00012968       0.00020625      -0.00000647
Cs       3.41223560      -2.07005927       9.72975341        2      -0.00004020      -0.00007808      -0.00002678
Cs       4.89427845       2.56825945       9.89825217        3       0.00016903      -0.00064706      -0.00011072
Pb      -4.36770155      -7.79131681      24.40679368        4      -0.00009207       0.00020810       0.00005840
Pb       2.88641540       6.11088053       0.32875005        5       0.00011072       0.00009822       0.00040939
Pb      -0.77854170      -3.16159782       6.13762835        6       0.00003645      -0.00015782      -0.00012886
Pb       0.70350519       1.47632385       6.30569996        7      -0.00011217       0.00011978       0.00037259
I       -2.78352077       7.92460974       0.22731721        8      -0.00026768      -0.00037743       0.00018201
I        4.12843013       3.13057508       1.01967821        9       0.00011574      -0.00011504      -0.00007276
I        8.52890023       1.61593309       4.08771468       10      -0.00000248      -0.00010762      -0.00000137
I        5.67123715      -0.33435471      12.55219096       11       0.00008472      -0.00005705      -0.00010726
I       -1.24137798       4.45942183      11.76152776       12       0.00001367      -0.00006385      -0.00010799
I        1.61553655       6.40942815       3.29651476       13       0.00000395       0.00013030      -0.00028414
I       -4.84354616       3.28922928       5.12330000       14      -0.00022338       0.00008659       0.00001425
I        2.06888661      -1.50451268       5.91420736       15       0.00014758      -0.00022810       0.00032932
I       -5.63929053       5.97485725       8.69238765       16      -0.00035894       0.00004456       0.00021405
I        6.24987061      -0.33721875       7.48916244       17       0.00002902       0.00027744       0.00002314
I       -0.66205577       4.45687868       6.69721423       18      -0.00011768       0.00008201      -0.00001510
I        1.27150311       1.18128058       9.48422863       19       0.00014788      -0.00014053      -0.00019199
Cs      -3.41197818       5.02878244      15.17378844       20       0.00032133      -0.00026715      -0.00000920
Cs      -4.89342776       0.39059780      15.00527778       21       0.00005647       0.00029835       0.00002574
Cs       0.52585952      -6.70238756      21.85274954       22       0.00003679      -0.00004816       0.00010949
Cs       2.00784490      -2.06417274      22.02137642       23       0.00025514      -0.00052610      -0.00003150
Pb      -1.48125826      -3.15899245      12.28366554       24      -0.00008906      -0.00004648       0.00007538
Pb       0.00048539       1.47902096      12.45202208       25       0.00019802       0.00000688       0.00007548
Pb      -3.66478787      -7.79381972      18.26083379       26      -0.00000679      -0.00009880      -0.00026732
Pb      -2.18272804      -3.15592801      18.42888055       27      -0.00031178       0.00007895       0.00026540
I       -5.66946290       3.29271797      12.35056282       28      -0.00025802      -0.00045654       0.00011894
I        1.24255097      -1.50133933      13.14281074       29       0.00010112      -0.00011164      -0.00000654
I        5.64293948      -3.01609465      16.21078070       30      -0.00012117      -0.00014918      -0.00003579
I        2.78467895      -4.96663056      24.67535824       31       0.00012064       0.00009000      -0.00011642
I       -4.12794265      -0.17278145      23.88460731       32       0.00011915      -0.00007702      -0.00008140
I       -1.27047863       1.77730205      15.41959803       33      -0.00002441       0.00012149       0.00002749
I       -7.72980806      -1.34297639      17.24636533       34      -0.00030740       0.00011220       0.00006546
I       -0.81727773      -6.13674235      18.03749103       35       0.00008692      -0.00016541       0.00024537
I       -8.52573459       1.34259591      20.81548710       36      -0.00042299       0.00003572       0.00032962
I        3.36364454      -4.96947530      19.61225405       37      -0.00005419       0.00025753      -0.00003610
I       -3.54831284      -0.17537949      18.82032591       38      -0.00005504       0.00009093      -0.00001817
I       -1.61489004      -3.45109991      21.60740004       39       0.00013715      -0.00010289      -0.00022965
Cs       4.90634185       0.22901800       3.67350614       40      -0.00031814      -0.00018495       0.00008983
Cs      -7.43698712      14.45455472       2.25922742       41      -0.00000085       0.00000447      -0.00019994
Cs      -2.01629720       7.36077213       9.10703290       42      -0.00010256      -0.00000638      -0.00031792
Cs      -0.53536667      11.99855809       9.27467501       43       0.00010875       0.00009369       0.00012221
Pb      -9.79785401       1.64069258      23.78303574       44       0.00048992      -0.00006147      -0.00038732
Pb      -2.54355720      15.54217810      -0.29508865       45      -0.00007895       0.00023364      -0.00000879
Pb      -6.20911670       6.27023779       5.51460402       46       0.00000279       0.00002439       0.00014351
Pb      -4.72715330      10.90793765       5.68298739       47      -0.00004049      -0.00037309      -0.00006420
I       -8.21466189      17.35594219      -0.39536350       48       0.00031985       0.00033389       0.00008803
I       -1.30142975      12.56240109       0.39596541       49      -0.00029375      -0.00011901      -0.00000202
I        3.09694557      11.04733820       3.46479053       50       0.00002943       0.00000443       0.00019453
I        0.24014853       9.09726075      11.92996186       51       0.00045336      -0.00011214      -0.00003044
I       -6.67147731      13.89079515      11.13662454       52      -0.00004382       0.00042210       0.00019692
I       -3.81378542      15.84154647       2.67267464       53      -0.00040057      -0.00021194       0.00020808
I      -10.27387569      12.72089078       4.49973483       54      -0.00014289       0.00018647      -0.00011871
I       -3.36150496       7.92700722       5.29166510       55      -0.00032062       0.00029914      -0.00000636
I       -0.21062161      -3.45759620       9.31588978       56       0.00041325       0.00009562      -0.00019568
I        0.81978527       9.09464887       6.86559019       57      -0.00019555      -0.00003636       0.00002157
I       -6.09312529      13.88860263       6.07457765       58       0.00014235      -0.00007106      -0.00029382
I       -4.15796109      10.61143684       8.86061476       59      -0.00007143       0.00014990       0.00010917
Cs       2.02024986      -4.40305864      15.79658134       60      -0.00029563      -0.00016081       0.00012156
Cs     -10.32300184       9.82252616      14.38238829       61      -0.00011707      -0.00001417      -0.00023173
Cs      -4.90285494       2.72847999      21.22992836       62       0.00000902      -0.00000967      -0.00019333
Cs      -3.42176228       7.36619568      21.39782771       63       0.00010670       0.00020487       0.00011853
Pb      -6.91142504       6.27289408      11.65994415       64       0.00044122      -0.00001964      -0.00038460
Pb      -5.42948616      10.91024666      11.82814527       65      -0.00012019       0.00009452      -0.00029748
Pb      -9.09545210       1.63802620      17.63762779       66       0.00009228       0.00001351       0.00021594
Pb      -7.61337878       6.27568950      17.80608712       67      -0.00014960      -0.00036988      -0.00013235
I      -11.10053032      12.72405009      11.72775570       68       0.00019835       0.00037436       0.00003127
I       -4.18734643       7.93047473      12.51922379       69      -0.00033439      -0.00018961       0.00002710
I        0.21119169       6.41523886      15.58799199       70      -0.00016163       0.00001802       0.00006462
I       -2.64636654       4.46503233      24.05300905       71       0.00047682      -0.00011388       0.00001500
I       -9.55806642       9.25869926      23.25992200       72      -0.00002421       0.00024992       0.00010842
I       -6.69989213      11.20949149      14.79572632       73      -0.00039649      -0.00018468       0.00045122
I      -13.16007090       8.08865963      16.62285019       74      -0.00019133       0.00026742      -0.00001563
I       -6.24776893       3.29482247      17.41478574       75      -0.00027928       0.00027405      -0.00005607
I       -3.09688398      -8.08987371      21.43907638       76       0.00033701       0.00007723      -0.00004824
I       -2.06639255       4.46234762      18.98887557       77      -0.00025277       0.00000703      -0.00008515
I       -8.97937292       9.25637863      18.19766165       78       0.00017316      -0.00006440      -0.00031271
I       -7.04439816       5.97918866      20.98374031       79      -0.00009975       0.00019207       0.00015775
Cs       7.87016462       9.50408125       4.01047692       80      -0.00013921       0.00017292       0.00006407
Cs       6.38744743       4.86664435       3.84216749       81       0.00001600       0.00011374       0.00001025
Cs      11.80778444      -2.22668768      10.68966399       82       0.00022743      -0.00004674       0.00006221
Cs      -3.49918467       2.72334784       8.93807254       83       0.00036847       0.00001224       0.00006344
Pb       4.02658994      -7.94719460      25.36596588       84       0.00034540       0.00012558       0.00027054
Pb      11.28104066       5.95462915       1.28822286       85       0.00027543       0.00007641       0.00016335
Pb       7.61540833      -3.31767583       7.09796940       86       0.00021269      -0.00004944      -0.00023833
Pb       9.09742810       1.32029168       7.26610696       87      -0.00044432       0.00009829      -0.00015092
I        5.61041072       7.76833659       1.18811656       88      -0.00004295       0.00017618       0.00005415
I       12.52309018       2.97465169       1.97878752       89      -0.00014221      -0.00038837       0.00016849
I        0.13342921       1.77144645       3.12788817       90       0.00007473       0.00009170      -0.00009348
I       -2.72316698      -0.17826388      11.59296910       91       0.00012354      -0.00031086      -0.00018486
I        7.15343080       4.30336853      12.72058331       92      -0.00001368       0.00017340       0.00008827
I       10.01077057       6.25292125       4.25614511       93      -0.00013524      -0.00006785       0.00003932
I        3.55100579       3.13303533       6.08307366       94      -0.00000399       0.00025339      -0.00004379
I       10.46274917      -1.66036695       6.87467433       95       0.00030931      -0.00014631       0.00016628
I        2.75318745       5.81885591       9.65278205       96       0.00016984       0.00019328      -0.00001925
I       -2.14370525      -0.18107434       6.52901501       97      -0.00069006       0.00012388       0.00005127
I        7.73180113       4.30109076       7.65778734       98       0.00014732      -0.00014499      -0.00023760
I        9.66671523       1.02458869      10.44387867       99      -0.00003162      -0.00011030       0.00013172
Cs       4.98391692       4.87208089      16.13365641      100      -0.00008047       0.00014459       0.00004011
Cs       3.50140316       0.23453945      15.96532656      101       0.00004073       0.00018104       0.00001943
Cs       8.92117831      -6.85899017      22.81285566      102       0.00026617       0.00004326       0.00002719
Cs      -6.38564072      -1.90894337      21.06120801      103       0.00034388       0.00000793      -0.00000487
Pb       6.91314267      -3.31502592      13.24278789      104       0.00026346       0.00010547       0.00012348
Pb       8.39517477       1.32266763      13.41126170      105       0.00012426       0.00029020       0.00042053
Pb       4.72918164      -7.94993708      19.22105581      106       0.00026204      -0.00008052      -0.00009535
Pb       6.21106856      -3.31190971      19.38917746      107      -0.00013914       0.00009521       0.00012337
I        2.72453891       3.13645404      13.31117169      108       0.00000907       0.00005722       0.00016899
I        9.63721065      -1.65723937      14.10189565      109      -0.00017296      -0.00044947       0.00016283
I       -2.75275518      -2.86074674      15.25100232      110       0.00017733       0.00010778       0.00004016
I       -5.60970904      -4.81051899      23.71611929      111       0.00021932      -0.00034788      -0.00019752
I        4.26695771      -0.32890144      24.84379340      112      -0.00008653       0.00032132       0.00000951
I        7.12476080       1.62096810      16.37930819      113      -0.00019761      -0.00007729      -0.00027253
I        0.66475715      -1.49920341      18.20632894      114       0.00006697       0.00019591      -0.00013748
I        7.57652350      -6.29262720      18.99788741      115       0.00022158      -0.00006059       0.00013667
I       -0.13330983       1.18640532      21.77604480      116       0.00028058       0.00023910      -0.00025526
I       -5.03008369      -4.81330556      18.65213145      117      -0.00047026       0.00011608       0.00010886
I        4.84549021      -0.33111866      19.78082785      118       0.00008398      -0.00015996      -0.00018811
I        6.78015361      -3.60760953      22.56703642      119      -0.00000775      -0.00010806       0.00001967
Cs      13.29886903       0.07337537       4.63380678      120       0.00004951      -0.00023773      -0.00015732
Cs       0.95628098      14.29884534       3.21935550      121       0.00000579      -0.00003486      -0.00035195
Cs       6.37648107       7.20530183      10.06682474      122      -0.00011739      -0.00013088      -0.00008456
Cs      -8.93019457      12.15493775       8.31471267      123      -0.00015068       0.00008005       0.00010292
Pb      -1.40422701       1.48454571      24.74401630      124       0.00019084       0.00003068      -0.00023688
Pb       5.85008866      15.38632519       0.66563975      125      -0.00002991       0.00004653      -0.00006655
Pb       2.18540585       6.11421345       6.47443491      126      -0.00014159      -0.00031142      -0.00013316
Pb       3.66719784      10.75181476       6.64269811      127      -0.00000372      -0.00019740       0.00008871
I        0.17974841      17.20021026       0.56377284      128       0.00025692      -0.00008962       0.00033636
I        7.09199741      12.40613415       1.35707192      129       0.00007633       0.00001277      -0.00019661
I       -5.29546588      11.20381157       2.50453309      130      -0.00031834      -0.00019371       0.00013121
I       -8.15360334       9.25308049      10.96893797      131       0.00015176       0.00028205       0.00016163
I        1.72228729      13.73491738      12.09779168      132      -0.00000956       0.00011421      -0.00020425
I        4.57898739      15.68605541       3.63289995      133      -0.00000277      -0.00029451       0.00023538
I       -1.87975058      12.56483494       5.45983398      134      -0.00046493       0.00024423       0.00021526
I        5.03303853       7.77102851       6.25142106      135      -0.00026722       0.00006204       0.00004357
I        8.18538704      -3.61345192      10.27568342      136      -0.00029885       0.00003452       0.00003003
I       -7.57488219       9.25078407       5.90583019      137       0.00031569      -0.00000924      -0.00016496
I        2.30125356      13.73227091       7.03390183      138       0.00013504       0.00026135       0.00000549
I        4.23529328      10.45605083       9.82097913      139       0.00004627       0.00010785      -0.00013731
Cs      10.41270074      -4.55865774      16.75701831      140       0.00006658      -0.00030858      -0.00016776
Cs      -1.92966062       9.66685485      15.34259508      141       0.00005728      -0.00016670      -0.00034191
Cs       3.48999793       2.57308491      22.19006541      142      -0.00010897      -0.00015874      -0.00016069
Cs     -11.81641335       7.52272668      20.43790132      143      -0.00023992       0.00002986       0.00003668
Pb       1.48234723       6.11670709      12.62084854      144       0.00019690       0.00024491      -0.00025544
Pb       2.96420125      10.75444155      12.78865417      145      -0.00011977       0.00009902       0.00032730
Pb      -0.70076556       1.48198882      18.59765208      146      -0.00029293      -0.00033657      -0.00004590
Pb       0.78100171       6.11960792      18.76594492      147       0.00002587      -0.00008134       0.00013256
I       -2.70613878      12.56822426      12.68688160      148       0.00025010       0.00004383       0.00039590
I        4.20612415       7.77430285      13.48018082      149       0.00003574      -0.00007866      -0.00022703
I       -8.18167724       6.57167399      14.62763174      150      -0.00029536      -0.00016648       0.00021928
I      -11.04009780       4.62088738      23.09213420      151       0.00012903       0.00028802       0.00012164
I       -1.16423995       9.10264268      24.22094738      152       0.00006162       0.00013073      -0.00018529
I        1.69308105      11.05413281      15.75616488      153      -0.00000264      -0.00031700      -0.00005729
I       -4.76594879       7.93253855      17.58304278      154      -0.00047889       0.00032009       0.00014309
I        2.14675573       3.13880286      18.37463368      155      -0.00013890      -0.00001240       0.00004492
I        5.29878996      -8.24582243      22.39885640      156      -0.00023758       0.00003193      -0.00013752
I      -10.46118997       4.61854214      18.02894916      157       0.00034912       0.00005417      -0.00013862
I       -0.58502569       9.10003632      19.15704976      158       0.00018878       0.00027947       0.00004508
I        1.34893846       5.82390311      21.94419498      159       0.00010422       0.00010389      -0.00006205
