40
Lattice="12.376908696944971 -3.229217343696281 0.587155618453852 3.0960940538601114 12.236272810940472 2.078074759718333 -0.8843075087371516 -1.9196976340403247 12.633971470446268" Properties=species:S:1:pos:R:3:spacegroup_kinds:I:1:forces:R:3 spacegroup="P 1" unit_cell=conventional occupancy="_JSON {\"0\": {\"Cs\": 1.0}, \"1\": {\"Pb\": 1.0}, \"2\": {\"I\": 1.0}, \"3\": {\"I\": 1.0}, \"4\": {\"I\": 1.0}, \"5\": {\"Cs\": 1.0}, \"6\": {\"Pb\": 1.0}, \"7\": {\"I\": 1.0}, \"8\": {\"I\": 1.0}, \"9\": {\"I\": 1.0}, \"10\": {\"Cs\": 1.0}, \"11\": {\"Pb\": 1.0}, \"12\": {\"I\": 1.0}, \"13\": {\"I\": 1.0}, \"14\": {\"I\": 1.0}, \"15\": {\"Cs\": 1.0}, \"16\": {\"Pb\": 1.0}, \"17\": {\"I\": 1.0}, \"18\": {\"I\": 1.0}, \"19\": {\"I\": 1.0}, \"20\": {\"Cs\": 1.0}, \"21\": {\"Pb\": 1.0}, \"22\": {\"I\": 1.0}, \"23\": {\"I\": 1.0}, \"24\": {\"I\": 1.0}, \"25\": {\"Cs\": 1.0}, \"26\": {\"Pb\": 1.0}, \"27\": {\"I\": 1.0}, \"28\": {\"I\": 1.0}, \"29\": {\"I\": 1.0}, \"30\": {\"Cs\": 1.0}, \"31\": {\"Pb\": 1.0}, \"32\": {\"I\": 1.0}, \"33\": {\"I\": 1.0}, \"34\": {\"I\": 1.0}, \"35\": {\"Cs\": 1.0}, \"36\": {\"Pb\": 1.0}, \"37\": {\"I\": 1.0}, \"38\": {\"I\": 1.0}, \"39\": {\"I\": 1.0}}" energy=-111.8747228331743 free_energy=-111.8747228331743 stress="-3.4241634223071518e-06 2.929153674846319e-06 1.6417296186929756e-06 2.929153674846319e-06 4.288357263581066e-06 2.9425668435207856e-06 1.6417296186929756e-06 2.9425668435207856e-06 -1.635297218392922e-06" pbc="T T T"
Cs       3.86452895       1.67147152       4.10329221        0      -0.00015344      -0.00017642       0.00041931
Pb      -0.00208213       0.00068279      -0.00192840        1      -0.00029972       0.00025135       0.00022421
I       -0.35758695      -0.43892684       3.11138857        2       0.00011965       0.00008238      -0.00009828
I        3.06853025      -0.77629572       0.00113900        3      -0.00025122      -0.00000061       0.00012411
I       13.09795107      -0.14276495       1.02232348        4       0.00023540      -0.00016572      -0.00020596
Cs       3.42246292       0.71168960      10.42075037        5      -0.00022392      -0.00015904       0.00011611
Pb      -0.44431759      -0.95909198       6.31520402        6      -0.00017028      -0.00000325      -0.00022322
I       -0.79985333      -1.39847038       9.42847725        7       0.00010953       0.00004334      -0.00013272
I        2.62637616      -1.73600319       6.31842412        8      -0.00016684      -0.00007832      -0.00001921
I       12.65590147      -1.10277609       7.33931945        9       0.00023501       0.00015645      -0.00027083
Cs       5.41258786       7.78957512       5.14233677       10      -0.00014617      -0.00016093       0.00043323
Pb      13.92284957       2.88965424       1.62435001       11      -0.00034132       0.00003638       0.00012266
I       13.56734193       2.45008269       4.73759105       12       0.00012183       0.00008659      -0.00008904
I        4.61661288       5.34181937       1.04019580       13      -0.00039593       0.00002165       0.00013268
I       14.64606185       5.97529465       2.06129674       14       0.00030010       0.00015661      -0.00018135
Cs       4.97051621       6.82976580      11.45974700       15      -0.00020010      -0.00012382       0.00011383
Pb      13.48070708       1.92976103       7.94147295       16      -0.00033915       0.00020083      -0.00032261
I       13.12510367       1.49039650      11.05462632       17       0.00011770       0.00000445       0.00001744
I        4.17440549       4.38213304       7.35739701       18      -0.00005229      -0.00012373      -0.00000058
I       14.20394592       5.01533068       8.37841286       19       0.00025670       0.00026475      -0.00023169
Cs      10.05306263       0.05678094       4.39690029       20      -0.00023808      -0.00011523       0.00037471
Pb       6.18626679      -1.61378228       0.29170793       21       0.00020305      -0.00013523       0.00008833
I        5.83092536      -2.05358333       3.40493509       22       0.00000868       0.00013344      -0.00010900
I        9.25690837      -2.39082486       0.29479589       23       0.00016472      -0.00013592       0.00012249
I        6.90958479       1.47175686       0.72875023       24       0.00018841       0.00004739      -0.00021920
Cs       9.61097379      -0.90297746      10.71435215       25      -0.00030180      -0.00011116       0.00012126
Pb       5.74406960      -2.57364732       6.60879101       26       0.00015009      -0.00017584      -0.00023304
I        5.38861158      -3.01311117       9.72195603       27       0.00005673       0.00000514       0.00010934
I        8.81479508      -3.35059453       6.61192496       28       0.00007915      -0.00015111       0.00003683
I        6.46750203       0.51176919       7.04580730       29       0.00017246       0.00027385      -0.00028761
Cs      11.60111937       6.17490059       5.43595746       30      -0.00026280      -0.00013482       0.00038999
Pb       7.73425598       4.50436441       1.33070064       31       0.00032585      -0.00011430       0.00024725
I        7.37899072       4.06457409       4.44404555       32       0.00002406       0.00013950      -0.00030353
I       10.80496420       3.72732325       1.33380103       33       0.00017814      -0.00012330       0.00011581
I        8.45762954       7.58985682       1.76778272       34       0.00022562       0.00022887      -0.00019587
Cs      11.15901917       5.21512760      11.75333486       35      -0.00030884      -0.00010750       0.00011017
Pb       7.29212078       3.54443163       7.64780100       36       0.00031485       0.00002854      -0.00020092
I        6.93663269       3.10504639      10.76101179       37       0.00004887      -0.00001039       0.00012846
I       10.36284799       2.76753449       7.65097090       38       0.00003546      -0.00015067       0.00004700
I        8.01554525       6.62990408       8.08484002       39       0.00017986       0.00029581      -0.00027054
