40
Lattice="11.894104302795188 0.0 0.0 5.397442612235603 10.088839454376641 0.0 -2.099356331317908 -3.228406959525307 10.087899002056533" Properties=species:S:1:pos:R:3:oxi_states:R:1 pbc="T T T"
Cs       3.79813153       1.71502423       2.52197475       1.00000000
Pb      -0.00000000      -0.00000000       0.00000000       2.00000000
I       -0.52483908      -0.80710174       2.52197475      -1.00000000
I        2.97352608       0.00000000      -0.00000000      -1.00000000
I        1.34936065       2.52220986       0.00000000      -1.00000000
Cs       2.74845337       0.10082076       7.56592425       1.00000000
Pb      -1.04967817      -1.61420348       5.04394950       2.00000000
I       -1.57451725      -2.42130522       7.56592425      -1.00000000
I        1.92384791      -1.61420348       5.04394950      -1.00000000
I        0.29968249       0.90800638       5.04394950      -1.00000000
Cs       6.49685284       6.75944396       2.52197475       1.00000000
Pb       2.69872131       5.04441973       0.00000000       2.00000000
I        2.17388222       4.23731799       2.52197475      -1.00000000
I        5.67224738       5.04441973      -0.00000000      -1.00000000
I        4.04808196       7.56662959       0.00000000      -1.00000000
Cs       5.44717467       5.14524048       7.56592425       1.00000000
Pb       1.64904314       3.43021625       5.04394950       2.00000000
I        1.12420406       2.62311451       7.56592425      -1.00000000
I        4.62256922       3.43021625       5.04394950      -1.00000000
I        2.99840379       5.95242611       5.04394950      -1.00000000
Cs       9.74518369       1.71502423       2.52197475       1.00000000
Pb       5.94705215      -0.00000000       0.00000000       2.00000000
I        5.42221307      -0.80710174       2.52197475      -1.00000000
I        8.92057823       0.00000000      -0.00000000      -1.00000000
I        7.29641280       2.52220986       0.00000000      -1.00000000
Cs       8.69550552       0.10082076       7.56592425       1.00000000
Pb       4.89737399      -1.61420348       5.04394950       2.00000000
I        4.37253490      -2.42130522       7.56592425      -1.00000000
I        7.87090006      -1.61420348       5.04394950      -1.00000000
I        6.24673464       0.90800638       5.04394950      -1.00000000
Cs      12.44390499       6.75944396       2.52197475       1.00000000
Pb       8.64577346       5.04441973       0.00000000       2.00000000
I        8.12093437       4.23731799       2.52197475      -1.00000000
I       11.61929953       5.04441973      -0.00000000      -1.00000000
I        9.99513411       7.56662959       0.00000000      -1.00000000
Cs      11.39422683       5.14524048       7.56592425       1.00000000
Pb       7.59609529       3.43021625       5.04394950       2.00000000
I        7.07125621       2.62311451       7.56592425      -1.00000000
I       10.56962137       3.43021625       5.04394950      -1.00000000
I        8.94545594       5.95242611       5.04394950      -1.00000000
