20
Lattice="18.592710664350335 0.35821107704855853 -0.23151518216903208 -4.827057667948627 7.64097183495336 -2.195431435613959 0.0574428834299834 2.472409082839609 8.473523513018042" Properties=species:S:1:pos:R:3:spacegroup_kinds:I:1:forces:R:3 spacegroup="P 1" unit_cell=conventional occupancy="_JSON {\"0\": {\"Cs\": 1.0}, \"1\": {\"Cs\": 1.0}, \"2\": {\"K\": 1.0}, \"3\": {\"In\": 1.0}, \"4\": {\"I\": 1.0}, \"5\": {\"I\": 1.0}, \"6\": {\"I\": 1.0}, \"7\": {\"I\": 1.0}, \"8\": {\"I\": 1.0}, \"9\": {\"I\": 1.0}, \"10\": {\"Cs\": 1.0}, \"11\": {\"Cs\": 1.0}, \"12\": {\"K\": 1.0}, \"13\": {\"In\": 1.0}, \"14\": {\"I\": 1.0}, \"15\": {\"I\": 1.0}, \"16\": {\"I\": 1.0}, \"17\": {\"I\": 1.0}, \"18\": {\"I\": 1.0}, \"19\": {\"I\": 1.0}}" energy=-51.58762869509195 free_energy=-51.58762869509195 stress="6.433882641681576e-07 -2.6194892194402844e-06 4.36001696672962e-07 -2.6194892194402844e-06 2.186796678593307e-06 -3.958492802957827e-06 4.36001696672962e-07 -3.958492802957827e-06 -1.3114966313543282e-05" pbc="T T T"
Cs       0.03333037       7.66890533       6.94189335        0      -0.00061640       0.00053224       0.00028196
Cs       4.74215606       5.19030781       7.66346162        1      -0.00072957       0.00061899       0.00023154
K        0.12297373       1.28369498       4.22254937        2       0.00048871       0.00000242      -0.00026523
In       0.09502989       0.04805185      -0.01409057        3       0.00007237      -0.00052689      -0.00036638
I        1.27044847       2.59719043       1.07363402        4       0.00003217       0.00028841       0.00001979
I        3.44675723       7.79068488       5.06002083        5      -0.00007540       0.00027158       0.00012360
I        2.57820091       2.08221767       6.73077016        6       0.00027984      -0.00054017      -0.00012093
I        6.96494381       0.66565099       1.59803192        7       0.00050827      -0.00059874      -0.00007838
I       -3.44693747       6.18497436       0.05993567        8       0.00006707      -0.00025537      -0.00015557
I       -1.13258195       4.02378248       6.18901060        9      -0.00002807       0.00020859       0.00033035
Cs       9.32968579       7.84801079       6.82613573       10      -0.00061728       0.00053337       0.00028278
Cs      14.03851127       5.36941344       7.54770404       11      -0.00072856       0.00061780       0.00023076
K        9.41932888       1.46280060       4.10679199       12       0.00048968       0.00000002      -0.00026744
In       9.39138397       0.22715935      -0.12985134       13       0.00008007      -0.00053729      -0.00034816
I       10.56680386       2.77629601       0.95787638       14       0.00003199       0.00028851       0.00001993
I       12.74311244       7.96979027       4.94426332       15      -0.00007501       0.00027202       0.00012354
I       11.87455629       2.26132319       6.61501256       16       0.00028051      -0.00053991      -0.00012147
I       16.26129896       0.84475648       1.48227448       17       0.00050816      -0.00059901      -0.00007835
I        5.84941827       6.36407896      -0.05582043       18       0.00006347      -0.00025057      -0.00016369
I        8.16377386       4.20288687       6.07325482       19      -0.00003202       0.00021402       0.00032132
