80
Lattice="18.405462479362104 0.3240170513820813 0.3787903279696969 -9.11675344945053 17.66070145577933 0.41549310606500656 0.36473887295265944 7.788328151926957 15.345749562836632" Properties=species:S:1:pos:R:3:spacegroup_kinds:I:1:forces:R:3 spacegroup="P 1" unit_cell=conventional occupancy="_JSON {\"0\": {\"Cs\": 1.0}, \"1\": {\"Cs\": 1.0}, \"2\": {\"K\": 1.0}, \"3\": {\"In\": 1.0}, \"4\": {\"I\": 1.0}, \"5\": {\"I\": 1.0}, \"6\": {\"I\": 1.0}, \"7\": {\"I\": 1.0}, \"8\": {\"I\": 1.0}, \"9\": {\"I\": 1.0}, \"10\": {\"Cs\": 1.0}, \"11\": {\"Cs\": 1.0}, \"12\": {\"K\": 1.0}, \"13\": {\"In\": 1.0}, \"14\": {\"I\": 1.0}, \"15\": {\"I\": 1.0}, \"16\": {\"I\": 1.0}, \"17\": {\"I\": 1.0}, \"18\": {\"I\": 1.0}, \"19\": {\"I\": 1.0}, \"20\": {\"Cs\": 1.0}, \"21\": {\"Cs\": 1.0}, \"22\": {\"K\": 1.0}, \"23\": {\"In\": 1.0}, \"24\": {\"I\": 1.0}, \"25\": {\"I\": 1.0}, \"26\": {\"I\": 1.0}, \"27\": {\"I\": 1.0}, \"28\": {\"I\": 1.0}, \"29\": {\"I\": 1.0}, \"30\": {\"Cs\": 1.0}, \"31\": {\"Cs\": 1.0}, \"32\": {\"K\": 1.0}, \"33\": {\"In\": 1.0}, \"34\": {\"I\": 1.0}, \"35\": {\"I\": 1.0}, \"36\": {\"I\": 1.0}, \"37\": {\"I\": 1.0}, \"38\": {\"I\": 1.0}, \"39\": {\"I\": 1.0}, \"40\": {\"Cs\": 1.0}, \"41\": {\"Cs\": 1.0}, \"42\": {\"K\": 1.0}, \"43\": {\"In\": 1.0}, \"44\": {\"I\": 1.0}, \"45\": {\"I\": 1.0}, \"46\": {\"I\": 1.0}, \"47\": {\"I\": 1.0}, \"48\": {\"I\": 1.0}, \"49\": {\"I\": 1.0}, \"50\": {\"Cs\": 1.0}, \"51\": {\"Cs\": 1.0}, \"52\": {\"K\": 1.0}, \"53\": {\"In\": 1.0}, \"54\": {\"I\": 1.0}, \"55\": {\"I\": 1.0}, \"56\": {\"I\": 1.0}, \"57\": {\"I\": 1.0}, \"58\": {\"I\": 1.0}, \"59\": {\"I\": 1.0}, \"60\": {\"Cs\": 1.0}, \"61\": {\"Cs\": 1.0}, \"62\": {\"K\": 1.0}, \"63\": {\"In\": 1.0}, \"64\": {\"I\": 1.0}, \"65\": {\"I\": 1.0}, \"66\": {\"I\": 1.0}, \"67\": {\"I\": 1.0}, \"68\": {\"I\": 1.0}, \"69\": {\"I\": 1.0}, \"70\": {\"Cs\": 1.0}, \"71\": {\"Cs\": 1.0}, \"72\": {\"K\": 1.0}, \"73\": {\"In\": 1.0}, \"74\": {\"I\": 1.0}, \"75\": {\"I\": 1.0}, \"76\": {\"I\": 1.0}, \"77\": {\"I\": 1.0}, \"78\": {\"I\": 1.0}, \"79\": {\"I\": 1.0}}" energy=-205.22817689045456 free_energy=-205.22817689045456 stress="2.0995594367888268e-07 1.086371440673762e-06 -2.3599618479256597e-06 1.086371440673762e-06 1.0096133960337409e-06 -8.242310991409409e-07 -2.3599618479256597e-06 -8.242310991409409e-07 1.08163155430257e-06" pbc="T T T"
Cs       5.49304895       6.17379042       6.51188709        0      -0.00022916       0.00001335       0.00012081
Cs       0.78766941       6.14392022       1.56775156        1      -0.00021538       0.00000380       0.00008066
K       -8.29905185      19.32326736       4.25692266        2       0.00015676       0.00012090      -0.00021743
In      -8.38989543      17.37640050       0.42042906        3       0.00008735       0.00001506      -0.00004462
I       -1.66879375      18.28879460       2.12322664        4       0.00013026       0.00005330       0.00003959
I       -1.16769928      11.68960279       6.37212639        5       0.00006278       0.00005706      -0.00010331
I        1.88334095       2.42958682       0.59360728        6       0.00000228      -0.00026654       0.00003701
I        4.39694850       9.88837469       7.48624345        7       0.00010966      -0.00024007       0.00003272
I        6.55444362       7.59335346       2.93311297        8      -0.00004036       0.00003874      -0.00004713
I       -0.27393876       4.72445509       5.14669106        9       0.00001971       0.00001964       0.00001713
Cs       5.67542276      10.06794896      14.18476515       10      -0.00026036       0.00004892       0.00010340
Cs       0.97004449      10.03808037       9.24061879       11      -0.00026029       0.00002690       0.00012910
K       -8.11668209      23.21742727      11.92978887       12       0.00015172       0.00013529      -0.00018470
In      -8.20749497      21.27055242       8.09326801       13      -0.00015950      -0.00001186       0.00013855
I       -1.48642722      22.18296477       9.79611671       14       0.00016516       0.00002114      -0.00005366
I       -0.98532124      15.58376335      14.04499207       15      -0.00000979       0.00007628      -0.00004881
I        2.06570393       6.32373923       8.26648515       16       0.00005296      -0.00017463       0.00002354
I        4.57928663      13.78245292      15.15909441       17       0.00030843       0.00024792       0.00014061
I        6.73680735      11.48752518      10.60598706       18      -0.00001964       0.00001222      -0.00009223
I       -0.09157282       8.61862487      12.81955721       19       0.00004091      -0.00001300       0.00005720
Cs       0.93467036      15.00414216       6.71963501       20      -0.00021780       0.00000497       0.00011525
Cs      -3.77070198      14.97426790       1.77549560       21      -0.00025177       0.00002427       0.00009936
K       -3.74067289      10.49291210       4.04916369       22       0.00013843       0.00013549      -0.00014217
In      -3.83149178       8.54609730       0.21270032       23      -0.00008239      -0.00031214      -0.00015327
I        2.88958084       9.45844304       1.91548239       24       0.00013811       0.00006920       0.00003359
I       -5.72608003      20.51995503       6.57987426       25       0.00009523       0.00004532      -0.00011293
I       -2.67505098      11.25990037       0.80134663       26       0.00009902      -0.00004899       0.00006150
I       -0.16142239      18.71873760       7.69399107       27       0.00007486      -0.00030404       0.00003578
I        1.99607050      16.42370034       3.14086570       28      -0.00005797       0.00005449      -0.00008472
I       -4.83231973      13.55481065       5.35443404       29       0.00004496      -0.00000507       0.00003450
Cs       1.11704206      18.89830260      14.39251386       30      -0.00022817       0.00002576       0.00008839
Cs      -3.58833064      18.86843106       9.44836381       31      -0.00027060       0.00002834       0.00013803
K       -3.55830327      14.38707738      11.72203639       32       0.00013744       0.00013056      -0.00013444
In      -3.64911429      12.44021998       7.88554716       33      -0.00017284      -0.00013153       0.00000048
I        3.07194278      13.35261617       9.58837617       34       0.00020543       0.00001238      -0.00008546
I       -5.54368654      24.41411254      14.25273167       35      -0.00006036       0.00006998      -0.00002228
I       -2.49267709      15.15407586       8.47422754       36       0.00008114      -0.00009446       0.00003648
I        0.02092332      22.61284180      15.36685001       37       0.00021562       0.00001858       0.00010350
I        2.17843073      20.31787707      10.81372689       38      -0.00002326       0.00000704      -0.00005764
I       -4.64994697      17.44897137      13.02731264       39       0.00002673       0.00000745       0.00002819
Cs      14.69578279       6.33579623       6.70128082       40      -0.00025143       0.00003062       0.00013107
Cs       9.99040395       6.30592588       1.75714456       41      -0.00024079       0.00002266       0.00009300
K        0.90367851      19.48527388       4.44631567       42       0.00015991       0.00013137      -0.00020761
In       0.81284794      17.53846060       0.60983960       43      -0.00002008      -0.00031459      -0.00016021
I        7.53393460      18.45080726       2.31262942       44       0.00014272       0.00003186       0.00000025
I        8.03503043      11.85161576       6.56152733       45       0.00007566       0.00003135      -0.00014101
I       11.08606021       2.59156304       0.78299429       46       0.00008301      -0.00007299       0.00007321
I       13.59966949      10.05035441       7.67563060       47       0.00018451      -0.00005383       0.00007250
I       -2.64828813       7.43134687       2.74371654       48      -0.00004402       0.00003363      -0.00006466
I        8.92879159       4.88646624       5.33608743       49       0.00002302       0.00000678       0.00000678
Cs      14.87815017      10.22996128      14.37416158       50      -0.00023313       0.00002546       0.00009513
Cs      10.17277269      10.20009276       9.43001557       51      -0.00023611       0.00000270       0.00012045
K        1.08604895      23.37943383      12.11918321       52       0.00015463       0.00014516      -0.00017871
In       0.99521573      21.43250672       8.28266632       53       0.00000860       0.00033155       0.00014954
I        7.71629446      22.34497481       9.98551586       54       0.00022783       0.00001798      -0.00006787
I        8.21741135      15.74576890      14.23438096       55      -0.00001769       0.00009476      -0.00001131
I       11.26844241       6.48576287       8.45588315       56      -0.00000997      -0.00030328       0.00000278
I       13.78203278      13.94450036      15.34849949       57       0.00021162       0.00002090       0.00009696
I       -2.46592048      11.32551158      10.41659536       58      -0.00003185       0.00003318      -0.00008822
I        9.11116129       8.78062909      13.00896113       59       0.00003190       0.00000495       0.00003537
Cs      10.13740514      15.16614680       6.90902912       60      -0.00024470       0.00002949       0.00012276
Cs       5.43203122      15.13627280       1.96488926       61      -0.00027043       0.00004723       0.00010783
K        5.46205869      10.65491988       4.23855937       62       0.00013527       0.00013936      -0.00014394
In       5.37126206       8.70816824       0.40212340       63      -0.00024465      -0.00069941      -0.00033751
I       12.09231595       9.62045339       2.10487910       64       0.00012033       0.00005403       0.00001560
I        3.47665350      20.68196576       6.76927316       65       0.00007147       0.00003369      -0.00013085
I        6.52767171      11.42188638       0.99073525       66       0.00016883       0.00011693       0.00009743
I        9.04129512      18.88070938       7.88337603       67       0.00016369      -0.00009616       0.00007769
I       -7.20666058      16.26169256       2.95147413       68      -0.00006281       0.00005435      -0.00011377
I        4.37041095      13.71682160       5.54382864       69       0.00004505      -0.00001456       0.00002131
Cs      10.31977044      19.06031354      14.58191087       70      -0.00020532       0.00000848       0.00007714
Cs       5.61439635      19.03044251       9.63776143       71      -0.00024037       0.00000957       0.00012432
K        5.64442908      14.54908496      11.91143001       72       0.00013162       0.00013543      -0.00012834
In       5.55360518      12.60216338       8.07491919       73      -0.00007395       0.00027523       0.00016219
I       12.27467533      13.51462149       9.77776431       74       0.00019507       0.00003366      -0.00004320
I        3.65904108      24.57612027      14.44212644       75      -0.00004040       0.00007982      -0.00001099
I        6.71006524      15.31611436       8.66363139       76       0.00000055      -0.00029095      -0.00000627
I        9.22366099      22.77486562      15.55624856       77       0.00015839      -0.00010625       0.00008242
I       -7.02429510      20.15586132      10.62434754       78      -0.00004572       0.00004213      -0.00011161
I        4.55278364      17.61097903      13.21670239       79       0.00003444       0.00000574       0.00006975
