20
Lattice="18.32704686140181 3.1449223262174546 -0.06950216044039441 -5.94589467786025 7.151010171321132 -0.032226419966643514 0.026340942432714686 0.05677034408378972 8.828368957348117" Properties=species:S:1:pos:R:3:spacegroup_kinds:I:1:forces:R:3 spacegroup="P 1" unit_cell=conventional occupancy="_JSON {\"0\": {\"Cs\": 1.0}, \"1\": {\"Cs\": 1.0}, \"2\": {\"K\": 1.0}, \"3\": {\"In\": 1.0}, \"4\": {\"I\": 1.0}, \"5\": {\"I\": 1.0}, \"6\": {\"I\": 1.0}, \"7\": {\"I\": 1.0}, \"8\": {\"I\": 1.0}, \"9\": {\"I\": 1.0}, \"10\": {\"Cs\": 1.0}, \"11\": {\"Cs\": 1.0}, \"12\": {\"K\": 1.0}, \"13\": {\"In\": 1.0}, \"14\": {\"I\": 1.0}, \"15\": {\"I\": 1.0}, \"16\": {\"I\": 1.0}, \"17\": {\"I\": 1.0}, \"18\": {\"I\": 1.0}, \"19\": {\"I\": 1.0}}" energy=-51.587627031042835 free_energy=-51.587627031042835 stress="-2.275413255887856e-06 -3.6515572865383786e-06 3.6058174189942127e-06 -3.6515572865383786e-06 1.7506646756138116e-06 -2.4455465622646786e-06 3.6058174189942127e-06 -2.4455465622646786e-06 -6.088990880667762e-07" pbc="T T T"
Cs       3.59165708       3.34952486      -0.06537238        0       0.00025134       0.00036503       0.00034519
Cs      -1.41912655       5.26534749       8.83020456        1       0.00030849       0.00033936       0.00011489
K       17.80510418       3.09052828       4.34690381        2      -0.00008528       0.00031557      -0.00027415
In      17.79134421       3.06245871      -0.06747345        3       0.00030597       0.00009001       0.00003470
I       16.22154760       4.93521060       1.69110988        4      -0.00034398       0.00000191       0.00002652
I        4.27867359       6.82502053       7.00484571        5      -0.00033860       0.00001822       0.00013318
I        0.31007209       2.25752225       7.04683573        6      -0.00021720      -0.00029228      -0.00040999
I        1.86297609       6.35804633       1.71882849        7      -0.00017951      -0.00035537      -0.00040276
I       -4.07708236       7.51377594       1.72631096        8       0.00021133      -0.00030894       0.00018041
I        6.24993512       1.10185907       7.03872988        9       0.00008743      -0.00017352       0.00025200
Cs      12.75518051       4.92198602      -0.10012346       10       0.00025134       0.00036503       0.00034519
Cs       7.74439688       6.83780865       8.79545348       11       0.00030849       0.00033936       0.00011489
K        8.64158075       1.51806711       4.38165489       12      -0.00008528       0.00031557      -0.00027414
In       8.62782077       1.48999755      -0.03272237       13       0.00030598       0.00009002       0.00003470
I        7.05802417       3.36274944       1.72586096       14      -0.00034398       0.00000191       0.00002652
I       13.44219702       8.39748169       6.97009463       15      -0.00033860       0.00001822       0.00013318
I        9.47359552       3.82998342       7.01208465       16      -0.00021720      -0.00029228      -0.00040999
I       11.02649952       7.93050749       1.68407741       17      -0.00017951      -0.00035536      -0.00040277
I        5.08644107       9.08623710       1.69155988       18       0.00021133      -0.00030894       0.00018041
I       15.41345855       2.67432023       7.00397880       19       0.00008743      -0.00017352       0.00025200
