20
Lattice="16.149188803185027 0.0 0.0 4.037297200830238 6.9928038770152545 0.0 4.037297200895514 2.330934625722423 6.592878902244361" Properties=species:S:1:pos:R:3 pbc="T T T"
Cs       4.03727895       2.33092915       1.64822012
Cs      12.11190980       6.99280920       4.94465869
K        8.07459445       4.66186922       3.29643946
In       0.00000008       0.00000015       0.00000005
I        6.09507501       3.15805217       4.74689685
I       10.05411392       6.16568618       1.84598204
I        8.43698496       2.42311978       1.53217964
I        7.71220376       6.90061854       5.06069922
I        5.91391521       5.90940780       1.53218346
I       10.23527384       3.41433101       5.06069561
Cs      12.11187335       2.33092915       1.64822012
Cs      20.18650420       6.99280920       4.94465869
K       16.14918885       4.66186922       3.29643946
In       8.07459448       0.00000015       0.00000005
I       14.16966941       3.15805217       4.74689685
I       18.12870832       6.16568618       1.84598204
I       16.51157936       2.42311978       1.53217964
I       15.78679816       6.90061854       5.06069922
I       13.98850961       5.90940780       1.53218346
I       18.30986824       3.41433101       5.06069561
