20
Lattice="18.47694704395641 -0.05796444693186574 -0.025701639662047117 4.601317118891143 7.943245115441949 0.019426083471125614 4.579502503784148 2.6522100331615643 6.942319515077527" Properties=species:S:1:pos:R:3:spacegroup_kinds:I:1:forces:R:3 spacegroup="P 1" unit_cell=conventional occupancy="_JSON {\"0\": {\"Cs\": 1.0}, \"1\": {\"Cs\": 1.0}, \"2\": {\"K\": 1.0}, \"3\": {\"In\": 1.0}, \"4\": {\"I\": 1.0}, \"5\": {\"I\": 1.0}, \"6\": {\"I\": 1.0}, \"7\": {\"I\": 1.0}, \"8\": {\"I\": 1.0}, \"9\": {\"I\": 1.0}, \"10\": {\"Cs\": 1.0}, \"11\": {\"Cs\": 1.0}, \"12\": {\"K\": 1.0}, \"13\": {\"In\": 1.0}, \"14\": {\"I\": 1.0}, \"15\": {\"I\": 1.0}, \"16\": {\"I\": 1.0}, \"17\": {\"I\": 1.0}, \"18\": {\"I\": 1.0}, \"19\": {\"I\": 1.0}}" energy=-51.29789231817508 free_energy=-51.29789231817508 stress="6.577085810896662e-07 4.596249374021722e-08 1.9654047818137948e-07 4.596249374021722e-08 -4.028001311454636e-07 -4.204090046474003e-07 1.9654047818137948e-07 -4.204090046474003e-07 -2.9781650563743563e-07" pbc="T T T"
Cs       4.58707748       2.63484763       1.92723586        0      -0.00009888       0.00033370      -0.00017781
Cs      13.83230386       7.93135580       5.02247649        1      -0.00006083       0.00029484      -0.00014532
K        9.21020868       5.28285037       3.47445491        2      -0.00045172       0.00039411      -0.00009318
In      18.47700175      -0.05797003      -0.02585506        3      -0.00041968      -0.00070279       0.00033322
I        6.97205129       3.19213107       5.24921914        4       0.00056560      -0.00045378       0.00010031
I       11.44636227       7.37481632       1.69857182        5       0.00008813      -0.00019105       0.00042585
I        9.92439009       2.32149312       1.67954536        6      -0.00019409      -0.00032173      -0.00038323
I        8.49508478       8.24461290       5.26955688        7       0.00014481       0.00041333       0.00019571
I        6.25126556       6.18570417       1.75866428        8      -0.00024302      -0.00013956      -0.00028386
I       12.16813872       4.38141575       5.19040281        9       0.00024500      -0.00038988       0.00019446
Cs      13.82552751       2.60590442       1.91444964       10      -0.00006303       0.00035521      -0.00015841
Cs      23.07086648       7.90235513       5.00964656       11      -0.00011898       0.00025786      -0.00018796
K       18.44869725       5.25384950       3.46164015       12      -0.00046318       0.00043764      -0.00012080
In       9.23838173      -0.02911345      -0.01288755       13       0.00035311       0.00072804      -0.00011221
I       16.21064889       3.16294913       5.23632844       14       0.00002632      -0.00018044       0.00039168
I       20.68467915       7.34603661       1.68564769       15       0.00055537      -0.00057493       0.00023101
I       19.16268350       2.29230884       1.66656188       16       0.00021715       0.00047057       0.00025677
I       17.73361844       8.21576627       5.25686554       17      -0.00018094      -0.00021529      -0.00037819
I       15.48964017       6.15680250       1.74571080       18       0.00026287      -0.00042116       0.00027642
I       21.40669380       4.35235342       5.17760771       19      -0.00016403      -0.00009468      -0.00036448
