40
Lattice="16.158085305411902 -1.2222765202604848 0.3802981590793558 -1.8803951109935138 19.69876196797482 -0.5479735376152219 -2.1651348196812275 1.564559671584267 7.785352242584911" Properties=species:S:1:pos:R:3:spacegroup_kinds:I:1:forces:R:3 spacegroup="P 1" unit_cell=conventional occupancy="_JSON {\"0\": {\"Cs\": 1.0}, \"1\": {\"Cs\": 1.0}, \"2\": {\"K\": 1.0}, \"3\": {\"In\": 1.0}, \"4\": {\"I\": 1.0}, \"5\": {\"I\": 1.0}, \"6\": {\"I\": 1.0}, \"7\": {\"I\": 1.0}, \"8\": {\"I\": 1.0}, \"9\": {\"I\": 1.0}, \"10\": {\"Cs\": 1.0}, \"11\": {\"Cs\": 1.0}, \"12\": {\"K\": 1.0}, \"13\": {\"In\": 1.0}, \"14\": {\"I\": 1.0}, \"15\": {\"I\": 1.0}, \"16\": {\"I\": 1.0}, \"17\": {\"I\": 1.0}, \"18\": {\"I\": 1.0}, \"19\": {\"I\": 1.0}, \"20\": {\"Cs\": 1.0}, \"21\": {\"Cs\": 1.0}, \"22\": {\"K\": 1.0}, \"23\": {\"In\": 1.0}, \"24\": {\"I\": 1.0}, \"25\": {\"I\": 1.0}, \"26\": {\"I\": 1.0}, \"27\": {\"I\": 1.0}, \"28\": {\"I\": 1.0}, \"29\": {\"I\": 1.0}, \"30\": {\"Cs\": 1.0}, \"31\": {\"Cs\": 1.0}, \"32\": {\"K\": 1.0}, \"33\": {\"In\": 1.0}, \"34\": {\"I\": 1.0}, \"35\": {\"I\": 1.0}, \"36\": {\"I\": 1.0}, \"37\": {\"I\": 1.0}, \"38\": {\"I\": 1.0}, \"39\": {\"I\": 1.0}}" energy=-101.68311557649024 free_energy=-101.68311557649024 stress="4.389206699650645e-06 3.829367505430223e-07 -9.847606902114506e-06 3.829367505430223e-07 -3.6294985677883655e-06 2.667895394743703e-06 -9.847606902114506e-06 2.667895394743703e-06 7.032343140639796e-06" pbc="T T T"
Cs       0.41545914       9.07975826       8.87115940        0      -0.00032335      -0.00000679      -0.00003498
Cs       5.64557202       4.75791005       5.33737154        1      -0.00020211       0.00000313      -0.00004240
K       -0.74172720       1.13242005       1.94700846        2      -0.00031353       0.00007722      -0.00018626
In       3.28224761       2.24663459       0.10550395        3      -0.00053563      -0.00074399       0.00008396
I        3.91652428       1.68661445       2.82693941        4       0.00013141       0.00005986       0.00040696
I        6.37547817      11.24801480       6.66708783        5      -0.00036671      -0.00000941       0.00013866
I        3.28788938       2.06536207       6.96166731        6       0.00013049       0.00043653      -0.00048219
I        9.06877793       3.39384559       1.29923105        7       0.00018467      -0.00020887       0.00020656
I       -1.81241169       7.70221934       2.31688804        8       0.00039849       0.00041067      -0.00027285
I        1.98310357       6.03670400       6.37872756        9      -0.00006410      -0.00039265      -0.00004852
Cs      -0.51986056      18.92798610       8.59691878       10       0.00015607      -0.00009219       0.00002457
Cs       4.70873326      14.60605953       5.06361562       11       0.00006764       0.00031118      -0.00002363
K       14.47739563       9.76125723       2.05298355       12       0.00012768      -0.00059294       0.00012140
In       2.34228089      12.09706284      -0.17080553       13      -0.00018512       0.00017538      -0.00001923
I        2.97495347      11.53796396       2.55113262       14      -0.00000361      -0.00020313      -0.00011514
I        5.43562002      21.10008440       6.39106551       15       0.00008872       0.00020850      -0.00021476
I        2.34703315      11.91500328       6.68566820       16       0.00008683      -0.00025794       0.00005578
I        8.12787588      13.24150374       1.02788841       17      -0.00011903      -0.00075851       0.00013963
I       13.40048430      16.32885926       2.42224524       18       0.00002223      -0.00037053      -0.00005401
I        1.04692408      15.88739260       6.10487633       19      -0.00029867      -0.00018558      -0.00002322
Cs       8.49572923       8.46742046       9.06050072       20       0.00012023       0.00009287       0.00025990
Cs      -2.43294654       5.37078534       5.14926240       21       0.00013118      -0.00010754      -0.00013207
K        7.34004247       0.52215341       2.13886811       22      -0.00014688      -0.00023742       0.00013986
In      11.36035446       1.63527677       0.29296283       23      -0.00028973       0.00011837      -0.00024711
I       11.99327354       1.07675838       3.01473124       24       0.00014761       0.00020067       0.00011711
I       -1.70291103      11.86475361       6.47395453       25       0.00035430      -0.00004006       0.00001324
I       11.36606847       1.45445082       7.14930699       26       0.00013788       0.00028202       0.00012768
I        0.99109408       4.00404339       1.11326033       27       0.00003180       0.00029501      -0.00037910
I        6.26532634       7.08933004       2.50589551       28      -0.00009986      -0.00019173       0.00014432
I       10.06030465       5.42500992       6.56491446       29       0.00018709      -0.00000280       0.00014425
Cs       7.54949282      18.31845333       8.78766471       30       0.00003583      -0.00007966       0.00010193
Cs      -3.37755084      15.22045084       4.87352512       31       0.00020840       0.00001805       0.00014170
K        6.39740931      10.36973155       1.86391215       32      -0.00030137       0.00034377      -0.00015476
In      10.41858761      11.48348799       0.02033399       33       0.00022688       0.00035668      -0.00040369
I       11.05429507      10.92537687       2.74168317       34       0.00003015      -0.00001660      -0.00004407
I       -2.64240476      21.71203300       6.20249115       35      -0.00001290       0.00010629       0.00024719
I       10.42550675      11.30395205       6.87594181       36      -0.00004115       0.00007663       0.00020945
I        0.05066589      13.85525189       0.83507925       37       0.00014384       0.00041399       0.00000760
I        5.33213355      16.93942412       2.23324223       38       0.00003163       0.00025492      -0.00013267
I        9.11484866      15.27245067       6.28898503       39       0.00012271       0.00025658       0.00017890
