20
Lattice="18.530068767124384 -1.5504378645163224 0.3580284680384293 -3.9624641005249766 8.412336046540881 -0.005175317403571481 -0.17849020658571513 -0.07869522614506 8.826547086667274" Properties=species:S:1:pos:R:3:spacegroup_kinds:I:1:forces:R:3 spacegroup="P 1" unit_cell=conventional occupancy="_JSON {\"0\": {\"Cs\": 1.0}, \"1\": {\"Cs\": 1.0}, \"2\": {\"K\": 1.0}, \"3\": {\"In\": 1.0}, \"4\": {\"I\": 1.0}, \"5\": {\"I\": 1.0}, \"6\": {\"I\": 1.0}, \"7\": {\"I\": 1.0}, \"8\": {\"I\": 1.0}, \"9\": {\"I\": 1.0}, \"10\": {\"Cs\": 1.0}, \"11\": {\"Cs\": 1.0}, \"12\": {\"K\": 1.0}, \"13\": {\"In\": 1.0}, \"14\": {\"I\": 1.0}, \"15\": {\"I\": 1.0}, \"16\": {\"I\": 1.0}, \"17\": {\"I\": 1.0}, \"18\": {\"I\": 1.0}, \"19\": {\"I\": 1.0}}" energy=-51.58763251708723 free_energy=-51.58763251708723 stress="1.0154909360280448e-06 -1.413132264960397e-06 -2.5376449869597e-06 -1.413132264960397e-06 3.2053212310145236e-07 5.755448290079203e-07 -2.5376449869597e-06 5.755448290079203e-07 2.3119926606914133e-07" pbc="T T T"
Cs       2.70894637       5.78214160       8.92074119        0      -0.00066695       0.00052896       0.00014795
Cs       7.11634483       2.71939418       9.01326277        1       0.00037657       0.00064112      -0.00015760
K        2.35045863       0.47232297       4.46696026        2       0.00001966      -0.00028315      -0.00036142
In       2.43974446       0.51153438       0.05338471        3       0.00001068      -0.00010668       0.00010978
I        3.78626957       2.50393630       1.86518336        4       0.00012458      -0.00014364      -0.00015567
I        6.21738859       6.07728164       7.24241575        5      -0.00014351       0.00009345      -0.00031954
I        4.72698568       0.25472261       7.16135880        6      -0.00003912       0.00005105      -0.00006664
I        9.23914534      -0.08539474       1.95109009        7      -0.00006967      -0.00056031       0.00016247
I       -0.51056993       6.70666962       1.81565261        8       0.00029151      -0.00014034       0.00011498
I        1.24875610       2.64997856       7.11218020        9       0.00009624      -0.00008054       0.00052562
Cs      11.97398075       5.00692267       9.09975542       10      -0.00066693       0.00052894       0.00014794
Cs      16.38137921       1.94417524       9.19227700       11       0.00037655       0.00064114      -0.00015759
K       11.61549302      -0.30289597       4.64597449       12       0.00001965      -0.00028310      -0.00036141
In      11.70477885      -0.26368461       0.23239895       13       0.00001064      -0.00010637       0.00010978
I       13.05130396       1.72871738       2.04419760       14       0.00012455      -0.00014370      -0.00015571
I       -3.04764579       6.85250056       7.06340151       15      -0.00014348       0.00009351      -0.00031949
I       13.99202007      -0.52049632       7.34037303       16      -0.00003911       0.00005103      -0.00006665
I       -0.02588905       0.68982419       1.77207586       17      -0.00006968      -0.00056030       0.00016249
I        8.75446445       5.93145070       1.99466683       18       0.00029155      -0.00014043       0.00011504
I       10.51379048       1.87475965       7.29119442       19       0.00009628      -0.00008063       0.00052568
