20
Lattice="17.56599878993088 -0.5980771562290057 -0.42200147997765813 4.135205830027197 7.686105673979453 -0.19602250350571745 4.134743644861372 2.3750907436710738 7.2913955282106615" Properties=species:S:1:pos:R:3:spacegroup_kinds:I:1:forces:R:3 spacegroup="P 1" unit_cell=conventional occupancy="_JSON {\"0\": {\"Cs\": 1.0}, \"1\": {\"Cs\": 1.0}, \"2\": {\"K\": 1.0}, \"3\": {\"In\": 1.0}, \"4\": {\"I\": 1.0}, \"5\": {\"I\": 1.0}, \"6\": {\"I\": 1.0}, \"7\": {\"I\": 1.0}, \"8\": {\"I\": 1.0}, \"9\": {\"I\": 1.0}, \"10\": {\"Cs\": 1.0}, \"11\": {\"Cs\": 1.0}, \"12\": {\"K\": 1.0}, \"13\": {\"In\": 1.0}, \"14\": {\"I\": 1.0}, \"15\": {\"I\": 1.0}, \"16\": {\"I\": 1.0}, \"17\": {\"I\": 1.0}, \"18\": {\"I\": 1.0}, \"19\": {\"I\": 1.0}}" energy=-51.29789007273578 free_energy=-51.29789007273578 stress="-4.088936204736455e-07 -4.2643427941718804e-08 9.235966407456323e-07 -4.2643427941718804e-08 -1.218761371937154e-06 -7.270398923488858e-07 9.235966407456323e-07 -7.270398923488858e-07 -1.0892746277844112e-06" pbc="T T T"
Cs       4.10236028       2.36907406       1.65257047        0      -0.00037185      -0.00070097      -0.00014289
Cs      12.95259498       7.39528287       5.23255663        1      -0.00041207      -0.00028947      -0.00010564
K        8.52578767       4.88035156       3.44179363        2       0.00040753       0.00038181       0.00044375
In      17.56557605      -0.59846983      -0.42213613        3       0.00061466       0.00074356       0.00023666
I        8.86925789       1.65909355       2.02322400        4      -0.00002841       0.00046180       0.00045826
I        8.18433717       8.10277128       4.86076609        5      -0.00041983      -0.00052879      -0.00038224
I       11.20323068       5.60363020       1.24784030        6       0.00015811      -0.00040911       0.00005309
I       23.41494812       3.56045280       5.21444215        7      -0.00008104       0.00032814      -0.00002471
I        6.55964500       6.32573070       0.87767953        8       0.00026578      -0.00003265       0.00010469
I       10.49247510       3.43568968       6.00702184        9      -0.00004885       0.00028955      -0.00053941
Cs      12.88547859       2.06992025       1.44154104       10      -0.00060601      -0.00042178      -0.00006844
Cs      21.73555394       7.09633910       5.02154705       11      -0.00037975      -0.00052010      -0.00007667
K       17.30883846       4.58133130       3.23081647       12       0.00022733       0.00037652       0.00040448
In       8.78291906      -0.29927550      -0.21118209       13      -0.00052476      -0.00025471      -0.00011038
I       17.65242924       1.36014113       1.81222282       14      -0.00042167      -0.00012022      -0.00001946
I       16.96720328       7.80339350       4.64950405       15      -0.00001876       0.00043434       0.00048758
I        2.42022365       5.90230517       1.45900729       16       0.00016473       0.00036455      -0.00022536
I       14.63179426       3.85963296       5.42552796       17       0.00046180       0.00018602      -0.00040707
I       15.34256539       6.02671946       0.66685021       18       0.00056651      -0.00020972      -0.00023924
I       19.27530821       3.13683407       5.79574296       19       0.00044654      -0.00007878       0.00015300
