20
Lattice="18.026128535508573 -4.520674878835706 0.6854519548496661 -2.5358170785836447 8.92345776604 -0.656846785178218 -0.1865712504007669 0.5948101643018743 8.806750341357034" Properties=species:S:1:pos:R:3:spacegroup_kinds:I:1:forces:R:3 spacegroup="P 1" unit_cell=conventional occupancy="_JSON {\"0\": {\"Cs\": 1.0}, \"1\": {\"Cs\": 1.0}, \"2\": {\"K\": 1.0}, \"3\": {\"In\": 1.0}, \"4\": {\"I\": 1.0}, \"5\": {\"I\": 1.0}, \"6\": {\"I\": 1.0}, \"7\": {\"I\": 1.0}, \"8\": {\"I\": 1.0}, \"9\": {\"I\": 1.0}, \"10\": {\"Cs\": 1.0}, \"11\": {\"Cs\": 1.0}, \"12\": {\"K\": 1.0}, \"13\": {\"In\": 1.0}, \"14\": {\"I\": 1.0}, \"15\": {\"I\": 1.0}, \"16\": {\"I\": 1.0}, \"17\": {\"I\": 1.0}, \"18\": {\"I\": 1.0}, \"19\": {\"I\": 1.0}}" energy=-51.58762487519065 free_energy=-51.58762487519065 stress="3.3270380895338927e-07 -2.0126192532134225e-06 -1.5151457898540719e-06 -2.0126192532134225e-06 6.422613854119126e-06 6.077692790975718e-07 -1.5151457898540719e-06 6.077692790975718e-07 3.95376845647494e-06" pbc="T T T"
Cs       3.56908412       2.54511792      -0.06011559        0      -0.00019195      -0.00008278      -0.00016264
Cs      -0.46637978       6.86319979       8.34068087        1      -0.00018381      -0.00017868      -0.00015799
K       16.33794076      -3.14760238       4.98268246        2       0.00068463      -0.00032191      -0.00040381
In      16.43200432      -3.44591881       0.57901687        3       0.00049032       0.00038708       0.00028341
I       15.75247639      -0.98090513       2.16893256        4      -0.00005341       0.00022855      -0.00017899
I        5.37569971       5.86782501       6.79622424        5       0.00044519       0.00029833       0.00032729
I       -0.02800276       3.28167357       6.85779301        6      -0.00027282       0.00008664       0.00018506
I        3.13047824       6.12637292       1.42245085        7       0.00027934      -0.00026601      -0.00034636
I        0.72641346       0.57934012       1.74697461        8      -0.00059872      -0.00028833      -0.00000772
I        4.91210561      -0.09443371       7.18965584        9      -0.00048478       0.00002067       0.00063072
Cs      12.58215161       0.28477412       0.28261273       10      -0.00019859      -0.00003338      -0.00017178
Cs       8.54668132       4.60286872       8.68340450       11      -0.00017756      -0.00022828      -0.00014881
K        7.32488029      -0.88726875       4.63994443       12       0.00065445      -0.00028847      -0.00032529
In       7.41897266      -1.18562246       0.23636383       13       0.00029374       0.00058838      -0.00013196
I        6.73941199       1.27943215       1.82620602       14      -0.00004876       0.00022668      -0.00017817
I       14.38876382       3.60748816       7.13895104       15       0.00044127       0.00029839       0.00032535
I        8.98506189       1.02134161       7.20050716       16      -0.00030693       0.00003837       0.00025488
I       12.14354207       3.86603019       1.76518822       17       0.00031311      -0.00021846      -0.00041474
I        9.73946031      -1.68098193       2.08967846       18      -0.00045974      -0.00033747       0.00011791
I       13.92518758      -2.35478687       7.53240436       19      -0.00062498       0.00007069       0.00050364
