20
Lattice="19.34594556341748 0.0 0.0 -0.4361117454515583 8.513212982932806 0.0 -0.13009480911854557 1.0988143288735825 7.3004392366909885" Properties=species:S:1:pos:R:3 pbc="T T T"
Cs       4.77818731       3.53492594       0.02317619
Cs       1.27922616       7.46448022       7.27712314
K       -1.58969794       1.24311765       3.65022057
In      -1.52468541       0.69370546       0.00005873
I       -1.64390433       3.15517240       1.46040929
I        7.70130241       7.84434496       5.84005737
I        0.80438058       3.79522931       5.84008747
I        5.25301189       7.20409550       1.46043940
I        0.53952977       9.40767032       1.46041161
I        5.51790112       1.59173884       5.84005969
Cs      14.45116009       3.53492594       0.02317619
Cs      10.95219894       7.46448022       7.27712314
K        8.08327484       1.24311765       3.65022057
In       8.14828737       0.69370546       0.00005873
I        8.02906845       3.15517240       1.46040929
I       17.37427519       7.84434496       5.84005737
I       10.47735336       3.79522931       5.84008747
I       14.92598467       7.20409550       1.46043940
I       10.21250256       9.40767032       1.46041161
I       15.19087390       1.59173884       5.84005969
