10
Lattice="9.225533501323328 0.028227503222195294 0.04370178302844376 4.644002111065118 7.981881591102632 0.03836510706341599 4.640144116417573 2.679523360359521 6.968271828456747" Properties=species:S:1:pos:R:3:spacegroup_kinds:I:1:forces:R:3 spacegroup="P 1" unit_cell=conventional occupancy="_JSON {\"0\": {\"Cs\": 1.0}, \"1\": {\"Cs\": 1.0}, \"2\": {\"K\": 1.0}, \"3\": {\"In\": 1.0}, \"4\": {\"I\": 1.0}, \"5\": {\"I\": 1.0}, \"6\": {\"I\": 1.0}, \"7\": {\"I\": 1.0}, \"8\": {\"I\": 1.0}, \"9\": {\"I\": 1.0}}" energy=-25.648944042481276 free_energy=-25.648944042481276 stress="-2.0774489352498014e-06 1.2622613401419546e-06 -2.8763857031611315e-06 1.2622613401419546e-06 -4.950058067699329e-06 2.1224546880075072e-06 -2.8763857031611315e-06 2.1224546880075072e-06 1.652538010828349e-07" pbc="T T T"
Cs       4.62871474       2.69081725       1.95275206        0      -0.00024210      -0.00004739      -0.00012072
Cs      13.88132622       7.99983090       5.09914691        1       0.00000505      -0.00040416      -0.00055038
K        9.25510715       5.34433752       3.52501396        2      -0.00024090       0.00026271       0.00030714
In       9.22539316       0.02804056       0.04353032        3      -0.00003876       0.00010013       0.00000592
I        6.99057443       3.23072236       5.23340962        4       0.00018087       0.00061832      -0.00019377
I       11.51841677       7.45785486       1.81564633        5       0.00003776       0.00033267       0.00068251
I        9.95084680       2.36882079       1.73981584        6       0.00036150       0.00001104       0.00023463
I        8.55827695       8.32028093       5.31057082        7       0.00039192       0.00018723      -0.00042307
I        6.33398878       6.21220637       1.73164724        8      -0.00031346      -0.00057279       0.00040547
I       12.17644773       4.47866198       5.31869304        9      -0.00014188      -0.00048777      -0.00034774
