5
Lattice="5.947052151397594 0.0 0.0 2.6987213061178017 5.044419727188321 0.0 -1.049678165658954 -1.6142034797626534 5.0439495010282664" Properties=species:S:1:pos:R:3:oxi_states:R:1 pbc="T T T"
Cs       3.79813153       1.71502423       2.52197475       1.00000000
Pb      -0.00000000      -0.00000000       0.00000000       2.00000000
I       -0.52483908      -0.80710174       2.52197475      -1.00000000
I        2.97352608       0.00000000      -0.00000000      -1.00000000
I        1.34936065       2.52220986       0.00000000      -1.00000000
