10
Lattice="12.176675642860005 2.957654814377806 2.5504528130427193 -1.2654374934351673 6.172585311441592 -1.118349295182966 -1.5124402313815057 0.9076060806912495 6.163983277783428" Properties=species:S:1:pos:R:3:spacegroup_kinds:I:1:forces:R:3 spacegroup="P 1" unit_cell=conventional occupancy="_JSON {\"0\": {\"Cs\": 1.0}, \"1\": {\"Pb\": 1.0}, \"2\": {\"I\": 1.0}, \"3\": {\"I\": 1.0}, \"4\": {\"I\": 1.0}, \"5\": {\"Cs\": 1.0}, \"6\": {\"Pb\": 1.0}, \"7\": {\"I\": 1.0}, \"8\": {\"I\": 1.0}, \"9\": {\"I\": 1.0}}" energy=-27.968836306192564 free_energy=-27.968836306192564 stress="-1.3539983472963598e-06 -3.097395583687785e-08 8.328303515083106e-07 -3.097395583687785e-08 2.6199266779058575e-06 2.4703382833280884e-06 8.328303515083106e-07 2.4703382833280884e-06 -1.5413303517429852e-06" pbc="T T T"
Cs       1.77052900       4.05640879       2.88146583        0      -0.00025023       0.00014362      -0.00019183
Pb      -0.00069642       0.00333432      -0.00133699        1       0.00006144       0.00001315       0.00004165
I       -0.79494592       0.59029942       3.10441247        2      -0.00008682       0.00008432       0.00007007
I        3.00902424       0.77479947       0.76229781        3      -0.00026370      -0.00039871      -0.00020047
I       -0.67320477       3.13400166      -0.42586368        4       0.00005218       0.00002765       0.00018353
Cs       7.85887426       5.53524226       4.15669456        5      -0.00033779       0.00011394      -0.00021489
Pb       6.08764458       1.48217028       1.27389420        6       0.00004541      -0.00002399      -0.00000343
I        5.29339193       2.06913281       4.37963067        7      -0.00008465       0.00008729       0.00008760
I        9.09720014       2.25352041       2.03742682        8       0.00081619      -0.00010965       0.00004793
I        5.41513043       4.61280798       0.84937298        9       0.00004798       0.00006238       0.00017983
