5
Lattice="6.387315684805886 1.5705554721838653e-10 3.5231748769524207e-16 1.5705554724959968e-10 6.387315684805914 -1.0666754014544161e-16 3.5213242968394965e-16 -1.066709482187403e-16 6.387315684429862" Properties=species:S:1:pos:R:3:spacegroup_kinds:I:1:forces:R:3 spacegroup="P 1" unit_cell=conventional occupancy="_JSON {\"0\": {\"Cs\": 1.0}, \"1\": {\"Pb\": 1.0}, \"2\": {\"I\": 1.0}, \"3\": {\"I\": 1.0}, \"4\": {\"I\": 1.0}}" energy=-13.9807422462658 free_energy=-13.9807422462658 stress="1.1793307764135825e-05 -1.869620450990062e-12 1.5642042640377946e-18 -1.869620450990062e-12 1.1793307764281798e-05 1.1125717129415025e-17 1.5642042640377946e-18 1.1125717129415025e-17 1.1793314531355947e-05" pbc="T T T"
Cs       3.19376504       3.19355064       3.19365784        0       0.00000507      -0.00000507      -0.00000000
Pb       0.00000013      -0.00000013      -0.00000000        1       0.00000803      -0.00000803      -0.00000000
I       -0.00000509       0.00000509       3.19365784        2      -0.00000506       0.00000506       0.00000000
I        3.19366160       0.00000509       0.00000000        3      -0.00000297       0.00000506       0.00000000
I       -0.00000509       3.19365408       0.00000000        4      -0.00000506       0.00000297       0.00000000
