5
Lattice="6.706413388012073 0.0 0.0 0.0 6.706413388012072 0.0 0.0 0.0 6.706413388012072" Properties=species:S:1:pos:R:3:oxi_states:R:1 pbc="T T T"
Cs       3.35331265       3.35310073       3.35320669       1.00000000
Pb      -0.00000000      -0.00000000       0.00000000       2.00000000
I        0.00000000      -0.00000000       3.35320669      -1.00000000
I        3.35320669       0.00000000      -0.00000000      -1.00000000
I       -0.00000000       3.35320669       0.00000000      -1.00000000
