80
Lattice="17.43131451956034 -0.5249872026618737 -0.3954611882161781 8.283718935753578 15.513382908656117 -0.42792832797571245 8.264194124249288 4.770006190596228 14.591044010773707" Properties=species:S:1:pos:R:3:spacegroup_kinds:I:1:forces:R:3 spacegroup="P 1" unit_cell=conventional occupancy="_JSON {\"0\": {\"Cs\": 1.0}, \"1\": {\"Cs\": 1.0}, \"2\": {\"K\": 1.0}, \"3\": {\"In\": 1.0}, \"4\": {\"I\": 1.0}, \"5\": {\"I\": 1.0}, \"6\": {\"I\": 1.0}, \"7\": {\"I\": 1.0}, \"8\": {\"I\": 1.0}, \"9\": {\"I\": 1.0}, \"10\": {\"Cs\": 1.0}, \"11\": {\"Cs\": 1.0}, \"12\": {\"K\": 1.0}, \"13\": {\"In\": 1.0}, \"14\": {\"I\": 1.0}, \"15\": {\"I\": 1.0}, \"16\": {\"I\": 1.0}, \"17\": {\"I\": 1.0}, \"18\": {\"I\": 1.0}, \"19\": {\"I\": 1.0}, \"20\": {\"Cs\": 1.0}, \"21\": {\"Cs\": 1.0}, \"22\": {\"K\": 1.0}, \"23\": {\"In\": 1.0}, \"24\": {\"I\": 1.0}, \"25\": {\"I\": 1.0}, \"26\": {\"I\": 1.0}, \"27\": {\"I\": 1.0}, \"28\": {\"I\": 1.0}, \"29\": {\"I\": 1.0}, \"30\": {\"Cs\": 1.0}, \"31\": {\"Cs\": 1.0}, \"32\": {\"K\": 1.0}, \"33\": {\"In\": 1.0}, \"34\": {\"I\": 1.0}, \"35\": {\"I\": 1.0}, \"36\": {\"I\": 1.0}, \"37\": {\"I\": 1.0}, \"38\": {\"I\": 1.0}, \"39\": {\"I\": 1.0}, \"40\": {\"Cs\": 1.0}, \"41\": {\"Cs\": 1.0}, \"42\": {\"K\": 1.0}, \"43\": {\"In\": 1.0}, \"44\": {\"I\": 1.0}, \"45\": {\"I\": 1.0}, \"46\": {\"I\": 1.0}, \"47\": {\"I\": 1.0}, \"48\": {\"I\": 1.0}, \"49\": {\"I\": 1.0}, \"50\": {\"Cs\": 1.0}, \"51\": {\"Cs\": 1.0}, \"52\": {\"K\": 1.0}, \"53\": {\"In\": 1.0}, \"54\": {\"I\": 1.0}, \"55\": {\"I\": 1.0}, \"56\": {\"I\": 1.0}, \"57\": {\"I\": 1.0}, \"58\": {\"I\": 1.0}, \"59\": {\"I\": 1.0}, \"60\": {\"Cs\": 1.0}, \"61\": {\"Cs\": 1.0}, \"62\": {\"K\": 1.0}, \"63\": {\"In\": 1.0}, \"64\": {\"I\": 1.0}, \"65\": {\"I\": 1.0}, \"66\": {\"I\": 1.0}, \"67\": {\"I\": 1.0}, \"68\": {\"I\": 1.0}, \"69\": {\"I\": 1.0}, \"70\": {\"Cs\": 1.0}, \"71\": {\"Cs\": 1.0}, \"72\": {\"K\": 1.0}, \"73\": {\"In\": 1.0}, \"74\": {\"I\": 1.0}, \"75\": {\"I\": 1.0}, \"76\": {\"I\": 1.0}, \"77\": {\"I\": 1.0}, \"78\": {\"I\": 1.0}, \"79\": {\"I\": 1.0}}" energy=-205.19150854707985 free_energy=-205.19150854707985 stress="4.949704653860291e-06 2.564113427897125e-06 -2.2480132395243926e-09 2.564113427897125e-06 2.4305960169176785e-06 -1.936811323808243e-06 -2.2480132395243926e-09 -1.936811323808243e-06 -1.0620334676622958e-05" pbc="T T T"
Cs       4.08546455       2.37827292       1.67609862        0      -0.00009912       0.00021092       0.00045697
Cs      12.90429192       7.49988766       5.20625376        1      -0.00017473       0.00037416       0.00037796
K        8.49416645       4.93964034       3.44192296        2       0.00026324       0.00009576       0.00000161
In      17.43126331      -0.52495333      -0.39522508        3       0.00000054       0.00003746       0.00018778
I        8.74635630       1.70807190       2.03145766        4       0.00018634      -0.00034173      -0.00035221
I        8.24275473       8.17151476       4.85287660        5       0.00012081      -0.00004510      -0.00040425
I       11.16448993       5.67815728       1.23838176        6      -0.00012110      -0.00054381      -0.00021537
I        5.82561798       4.20177824       5.64699787        7       0.00005956      -0.00014414      -0.00032599
I        6.57805750       6.45017049       0.88033511        8      -0.00032444      -0.00002669       0.00011382
I       10.41206355       3.42918561       6.00260196        9      -0.00000998      -0.00011282       0.00034762
Cs       8.21756076       4.76317678       8.97177565       10      -0.00011371       0.00033114       0.00022907
Cs      17.03637896       9.88504222      12.50168056       11      -0.00012205       0.00014844       0.00045998
K       12.62621118       7.32466383      10.73759496       12       0.00043267      -0.00000816      -0.00026224
In      21.56325607       1.86004980       6.90039084       13       0.00024660      -0.00035089      -0.00038852
I       12.87846983       4.09287186       9.32699417       14       0.00013929      -0.00005354      -0.00037020
I       12.37486999      10.55646073      12.14814975       15       0.00014146       0.00040533       0.00045429
I       15.29659499       8.06307364       8.53390544       16      -0.00034419      -0.00053966      -0.00011185
I        9.95780881       6.58681856      12.94242181       17      -0.00016606      -0.00031333      -0.00009109
I       10.71013589       8.83518041       8.17578004       18       0.00017599      -0.00032326       0.00036470
I       14.54428616       5.81407667      13.29824549       19      -0.00031836       0.00008402       0.00011308
Cs       8.22736643      10.13491249       1.46215078       20      -0.00013294       0.00026180       0.00049223
Cs      17.04612001      15.25663727       4.99227038       21      -0.00014392       0.00028010       0.00038200
K       12.63601895      12.69635103       3.22796129       22       0.00029694       0.00000342       0.00007926
In      21.57311663       7.23181230      -0.60908345       23      -0.00012060      -0.00062948      -0.00025411
I       12.88818804       9.46464246       1.81751171       24       0.00022642       0.00001967      -0.00025506
I       12.38462857      15.92823309       4.63876576       25       0.00010454       0.00006067       0.00002596
I       15.30641649      13.43472510       1.02439903       26      -0.00035913      -0.00050271      -0.00003299
I        9.96740473      11.95853911       5.43307937       27       0.00035245      -0.00005192      -0.00062844
I       10.71991704      14.20683284       0.66639926       28      -0.00029166      -0.00001582       0.00006370
I       14.55404722      11.18581886       5.78866945       29      -0.00046422       0.00010884       0.00017172
Cs      12.35942339      12.51992404       8.75775561       30      -0.00008046       0.00026265       0.00029515
Cs      21.17820175      17.64170299      12.28776113       31      -0.00010057       0.00017378       0.00039131
K       16.76806781      15.08135470      10.52362702       32       0.00040358      -0.00009650      -0.00024823
In      25.70528899       9.61672731       6.68636606       33      -0.00067433      -0.00012537      -0.00025020
I       17.02036551      11.84944898       9.11294673       34       0.00006733       0.00046011       0.00017760
I       16.51670193      18.31322273      11.93423573       35       0.00019000       0.00008937       0.00011834
I       19.43841517      15.81971460       8.32002862       36       0.00000876      -0.00016232      -0.00044973
I       14.09962680      14.34347628      12.72847164       37      -0.00004140      -0.00018439      -0.00020045
I       14.85215164      16.59186161       7.96180902       38      -0.00051312      -0.00008467       0.00020416
I       18.68604554      13.57073641      13.08430644       39      -0.00011111       0.00015064       0.00005209
Cs      12.80118606       2.11566354       1.47841356       40      -0.00020815       0.00035451       0.00039597
Cs      21.61990859       7.23747988       5.00847651       41      -0.00008405       0.00027272       0.00042815
K       17.20983224       4.67712951       3.24418997       42       0.00024031       0.00015261       0.00003981
In       8.71552916      -0.26257692      -0.19737506       43       0.00040173       0.00063899      -0.00042680
I       17.46202416       1.44558620       1.83377408       44       0.00011638      -0.00046743      -0.00056979
I       16.95839040       7.90909547       4.65516454       45       0.00016131      -0.00037302      -0.00064744
I       19.88007137       5.41536850       1.04079957       46       0.00034332       0.00030254      -0.00080019
I       14.54126557       3.93945504       5.44919874       47      -0.00005156      -0.00054686      -0.00012539
I       15.29371416       6.18767042       0.68256472       48      -0.00002206      -0.00014133       0.00025825
I       19.12778566       3.16667309       5.80488461       49      -0.00019178      -0.00005910       0.00031469
Cs      16.93322353       4.50077970       8.77394979       50      -0.00013751       0.00018501       0.00037645
Cs      25.75200823       9.62245593      12.30403042       51      -0.00008126       0.00026672       0.00034614
K       21.34189078       7.06212436      10.53985778       52       0.00029805       0.00010099      -0.00025288
In      12.84761686       2.12250599       7.09795259       53       0.00041615       0.00009789       0.00040442
I       21.59414848       3.83032029       9.12921400       54       0.00008625       0.00025191       0.00006693
I       21.09050726      10.29407943      11.95054252       55       0.00019080      -0.00010042      -0.00016430
I       24.01220051       7.80053073       8.33624585       56      -0.00004236      -0.00022766      -0.00040131
I       18.67342393       6.32429843      12.74470318       57      -0.00016729      -0.00033585      -0.00007956
I       19.42583394       8.57273546       7.97802520       58       0.00009848      -0.00036362       0.00040776
I       23.25989121       5.55157223      13.10047286       59      -0.00013903       0.00004520       0.00019928
Cs      16.94300270       9.87244656       1.26439573       60      -0.00012734       0.00020070       0.00048659
Cs      25.76177691      14.99411600       4.79455125       61      -0.00012859       0.00031104       0.00038390
K       21.35169430      12.43381865       3.03021137       62       0.00019807       0.00007408       0.00012130
In      12.85749876       7.49422495      -0.41142252       63      -0.00012775       0.00007891      -0.00013019
I       21.60388422       9.20229788       1.61976360       64       0.00010097      -0.00036653      -0.00031574
I       21.10025213      15.66567615       4.44116004       65       0.00019125       0.00001723      -0.00033901
I       24.02196191      13.17221477       0.82678787       66       0.00015136      -0.00007093      -0.00057723
I       18.68304730      11.69596116       5.23536026       67       0.00033231       0.00005342      -0.00059653
I       19.43556580      13.94436756       0.46857763       68      -0.00000988      -0.00013077       0.00028846
I       23.26961101      10.92338515       5.59093439       69      -0.00002730      -0.00016851       0.00030033
Cs      21.07507058      12.25740428       8.56006791       70      -0.00008385       0.00027240       0.00024362
Cs      29.89390437      17.37922212      12.08998279       71      -0.00013517       0.00018284       0.00047074
K       25.48374663      14.81884124      10.32589798       72       0.00033752      -0.00001868      -0.00021561
In      16.98950296       9.87915301       6.88411465       73       0.00010522       0.00021792      -0.00015712
I       25.73601127      11.58702224       8.91510968       74       0.00008548       0.00037774       0.00037308
I       25.23235541      18.05070431      11.73661793       75       0.00017844      -0.00000634      -0.00023613
I       28.15394843      15.55720868       8.12231422       76       0.00023709      -0.00015645      -0.00054947
I       22.81535109      14.08091814      12.53075652       77      -0.00013493      -0.00005257      -0.00020592
I       23.56782222      16.32924571       7.76418740       78      -0.00072767       0.00028869      -0.00010172
I       27.40181610      13.30830096      12.88648217       79      -0.00023226      -0.00005999       0.00026692
