20
Lattice="18.056750401963416 2.233390760901966 2.4579550864854793 3.598577725441565 7.917007990704883 0.5405581848040356 3.1511819400005554 3.307511098702373 8.011973251261159" Properties=species:S:1:pos:R:3:spacegroup_kinds:I:1:forces:R:3 spacegroup="P 1" unit_cell=conventional occupancy="_JSON {\"0\": {\"Cs\": 1.0}, \"1\": {\"Cs\": 1.0}, \"2\": {\"K\": 1.0}, \"3\": {\"In\": 1.0}, \"4\": {\"I\": 1.0}, \"5\": {\"I\": 1.0}, \"6\": {\"I\": 1.0}, \"7\": {\"I\": 1.0}, \"8\": {\"I\": 1.0}, \"9\": {\"I\": 1.0}, \"10\": {\"Cs\": 1.0}, \"11\": {\"Cs\": 1.0}, \"12\": {\"K\": 1.0}, \"13\": {\"In\": 1.0}, \"14\": {\"I\": 1.0}, \"15\": {\"I\": 1.0}, \"16\": {\"I\": 1.0}, \"17\": {\"I\": 1.0}, \"18\": {\"I\": 1.0}, \"19\": {\"I\": 1.0}}" energy=-51.297892272899624 free_energy=-51.297892272899624 stress="-3.7113397967814574e-07 -9.964241014876218e-08 -1.2356924097437753e-07 -9.964241014876218e-08 -7.199023527538217e-07 -2.8108050034537926e-08 -1.2356924097437753e-07 -2.8108050034537926e-08 5.800930352360108e-07" pbc="T T T"
Cs       3.94802901       3.25865854       2.36778640        0       0.00009553       0.00036116       0.00024971
Cs      11.83002330       9.08135796       7.41419080        1       0.00020892       0.00029950      -0.00002441
K        7.88936639       6.17031721       4.89071941        2      -0.00026381       0.00001001      -0.00002024
In      18.05671827       2.23330323       2.45782608        3      -0.00019859       0.00027888       0.00015010
I        4.97775454       4.46516983       5.96113414        4       0.00026554      -0.00055179      -0.00047950
I       10.79958752       7.87735009       3.82043638        5       0.00040017      -0.00018845       0.00005217
I        9.20425822       3.61910161       2.82395637        6      -0.00015474      -0.00011715      -0.00001520
I        6.57463631       8.72227860       6.95723778        7       0.00006071       0.00009059       0.00026436
I        5.95303208       6.83950556       2.00827492        8       0.00016360      -0.00021115      -0.00018327
I        9.82464849       5.50177004       7.77360161        9       0.00008027      -0.00004485      -0.00010822
Cs      12.97667401       4.37553951       3.59731196       10       0.00000847       0.00005181      -0.00050578
Cs      20.85873333      10.19825406       8.64318977       11      -0.00012928       0.00011093      -0.00024439
K       16.91732555       7.28685048       6.11939208       12       0.00018484       0.00017235       0.00023198
In       9.02827293       1.11679025       1.22895762       13       0.00020344      -0.00016133      -0.00016797
I       14.00583486       5.58164913       7.18954918       14       0.00030519       0.00003706       0.00046307
I       19.82808256       8.99419820       5.04947472       15       0.00012670      -0.00041392       0.00002911
I       18.23273932       4.73578831       4.05274528       16      -0.00060584       0.00017120       0.00023572
I       15.60340726       9.83914505       8.18634314       17      -0.00077683      -0.00026186      -0.00000660
I       14.98149079       7.95600274       3.23682522       18       0.00001910       0.00025221       0.00010394
I       18.85309992       6.61824244       9.00235720       19       0.00000663       0.00011479      -0.00002458
