80
Lattice="17.4488028286576 -0.5410821757447433 -0.39158402705235484 8.244455453661432 15.344679087305543 -0.3661797284864629 8.28838205027965 4.778154610331133 14.75034286648203" Properties=species:S:1:pos:R:3:spacegroup_kinds:I:1:forces:R:3 spacegroup="P 1" unit_cell=conventional occupancy="_JSON {\"0\": {\"Cs\": 1.0}, \"1\": {\"Cs\": 1.0}, \"2\": {\"K\": 1.0}, \"3\": {\"In\": 1.0}, \"4\": {\"I\": 1.0}, \"5\": {\"I\": 1.0}, \"6\": {\"I\": 1.0}, \"7\": {\"I\": 1.0}, \"8\": {\"I\": 1.0}, \"9\": {\"I\": 1.0}, \"10\": {\"Cs\": 1.0}, \"11\": {\"Cs\": 1.0}, \"12\": {\"K\": 1.0}, \"13\": {\"In\": 1.0}, \"14\": {\"I\": 1.0}, \"15\": {\"I\": 1.0}, \"16\": {\"I\": 1.0}, \"17\": {\"I\": 1.0}, \"18\": {\"I\": 1.0}, \"19\": {\"I\": 1.0}, \"20\": {\"Cs\": 1.0}, \"21\": {\"Cs\": 1.0}, \"22\": {\"K\": 1.0}, \"23\": {\"In\": 1.0}, \"24\": {\"I\": 1.0}, \"25\": {\"I\": 1.0}, \"26\": {\"I\": 1.0}, \"27\": {\"I\": 1.0}, \"28\": {\"I\": 1.0}, \"29\": {\"I\": 1.0}, \"30\": {\"Cs\": 1.0}, \"31\": {\"Cs\": 1.0}, \"32\": {\"K\": 1.0}, \"33\": {\"In\": 1.0}, \"34\": {\"I\": 1.0}, \"35\": {\"I\": 1.0}, \"36\": {\"I\": 1.0}, \"37\": {\"I\": 1.0}, \"38\": {\"I\": 1.0}, \"39\": {\"I\": 1.0}, \"40\": {\"Cs\": 1.0}, \"41\": {\"Cs\": 1.0}, \"42\": {\"K\": 1.0}, \"43\": {\"In\": 1.0}, \"44\": {\"I\": 1.0}, \"45\": {\"I\": 1.0}, \"46\": {\"I\": 1.0}, \"47\": {\"I\": 1.0}, \"48\": {\"I\": 1.0}, \"49\": {\"I\": 1.0}, \"50\": {\"Cs\": 1.0}, \"51\": {\"Cs\": 1.0}, \"52\": {\"K\": 1.0}, \"53\": {\"In\": 1.0}, \"54\": {\"I\": 1.0}, \"55\": {\"I\": 1.0}, \"56\": {\"I\": 1.0}, \"57\": {\"I\": 1.0}, \"58\": {\"I\": 1.0}, \"59\": {\"I\": 1.0}, \"60\": {\"Cs\": 1.0}, \"61\": {\"Cs\": 1.0}, \"62\": {\"K\": 1.0}, \"63\": {\"In\": 1.0}, \"64\": {\"I\": 1.0}, \"65\": {\"I\": 1.0}, \"66\": {\"I\": 1.0}, \"67\": {\"I\": 1.0}, \"68\": {\"I\": 1.0}, \"69\": {\"I\": 1.0}, \"70\": {\"Cs\": 1.0}, \"71\": {\"Cs\": 1.0}, \"72\": {\"K\": 1.0}, \"73\": {\"In\": 1.0}, \"74\": {\"I\": 1.0}, \"75\": {\"I\": 1.0}, \"76\": {\"I\": 1.0}, \"77\": {\"I\": 1.0}, \"78\": {\"I\": 1.0}, \"79\": {\"I\": 1.0}}" energy=-205.1915552345688 free_energy=-205.1915552345688 stress="1.5801579319095045e-06 -5.55428003672068e-08 3.826400791862817e-07 -5.55428003672068e-08 7.145011118945369e-07 -6.666475522392648e-08 3.826400791862817e-07 -6.666475522392648e-08 -6.114775077505621e-08" pbc="T T T"
Cs       4.09970261       2.34698726       1.67419141        0       0.00060959       0.00036196       0.00003163
Cs      12.88729548       7.44298611       5.32089388        1       0.00024639      -0.00012855       0.00000092
K        8.49479706       4.89570917       3.49720494        2      -0.00034488      -0.00014552       0.00013991
In      17.44872248      -0.54121882      -0.39138686        3      -0.00001304       0.00025017       0.00001396
I        5.88221735       4.19436572       5.77530521        4      -0.00044244      -0.00024927      -0.00023206
I       11.10948718       5.59829381       1.22269414        5      -0.00016148      -0.00034822       0.00003358
I        8.76690574       1.66909133       2.06636822        6      -0.00024700       0.00033559       0.00009713
I        8.22755243       8.12185964       4.92924867        7       0.00021056       0.00010935       0.00013670
I        6.52631500       6.31075632       0.92325973        8       0.00006139      -0.00015214       0.00010464
I       10.46628642       3.48147839       6.06941698        9      -0.00003504       0.00015442       0.00010808
Cs       8.25027662       4.73661469       9.04688769       10       0.00002571       0.00013439       0.00047701
Cs      17.02843579       9.82883594      12.69488067       11       0.00064179       0.00048308       0.00041903
K       12.63905658       7.28321059      10.87329546       12      -0.00015868       0.00015125      -0.00023969
In      21.59380569       1.84849881       6.98394981       13       0.00010175       0.00019038      -0.00000360
I       10.02404551       6.58484925      13.15069237       14      -0.00021033      -0.00070637       0.00001605
I       15.25577046       7.98598189       8.59897110       15      -0.00015840      -0.00016874       0.00004939
I       12.90307132       4.05591749       9.44415607       16       0.00005729       0.00018314      -0.00016987
I       12.37268469      10.51005738      12.30449775       17      -0.00010325       0.00061464       0.00019965
I       10.67108328       8.69985585       8.29810548       18      -0.00022622       0.00016242       0.00012302
I       14.60960437       5.87237633      13.44933124       19       0.00013315      -0.00048836      -0.00009324
Cs       8.22508226      10.01903857       1.49080309       20       0.00022744       0.00009693      -0.00011494
Cs      17.00924880      15.11511699       5.13752069       21      -0.00003557       0.00002705       0.00013705
K       12.61638256      12.56788589       3.31591980       22       0.00028689      -0.00008586      -0.00012936
In      21.57086482       7.13100112      -0.57507199       23      -0.00032190       0.00002223       0.00026310
I       10.00132063      11.86683526       5.59041525       24       0.00000616       0.00017053      -0.00000274
I       15.23251226      13.27128083       1.04196394       25       0.00018516       0.00016487      -0.00008832
I       12.88605520       9.34211057       1.88233015       26      -0.00026616       0.00005014       0.00012434
I       12.35122314      15.79513656       4.74660398       27      -0.00035420      -0.00012123       0.00004844
I       10.64856141      13.98211925       0.74013918       28       0.00006451      -0.00016326       0.00029901
I       14.58578904      11.15159665       5.88972052       29       0.00016392       0.00033896      -0.00026307
Cs      12.36989403      12.41031560       8.86675885       30       0.00001418      -0.00020257       0.00000533
Cs      21.15554986      17.50320883      12.51698138       31      -0.00023530      -0.00005575      -0.00035993
K       16.76216028      14.95737955      10.69037395       32       0.00037134       0.00021559      -0.00004338
In      25.71496721       9.52032590       6.80027613       33       0.00017236       0.00003550      -0.00005037
I       14.14638737      14.25498107      12.96513531       34      -0.00024181      -0.00011177      -0.00017540
I       19.37477355      15.65670432       8.40979193       35       0.00015343       0.00042801       0.00025105
I       17.02906885      11.73122186       9.25821769       36      -0.00009112      -0.00032845       0.00017916
I       16.49487957      18.18494469      12.12020925       37       0.00021880      -0.00003336       0.00014552
I       14.79255095      16.37107789       8.11653668       38       0.00027178      -0.00022922      -0.00043354
I       18.73064939      13.54178426      13.26372942       39       0.00032889      -0.00000710       0.00026462
Cs      12.82649660       2.07867986       1.47568769       40       0.00025244       0.00002346       0.00059527
Cs      21.61091539       7.17154686       5.12591127       41       0.00011973       0.00018118      -0.00015636
K       17.21945800       4.62432700       3.30224753       42      -0.00025223      -0.00016307      -0.00002954
In       8.72466137      -0.27055819      -0.19552266       43      -0.00025738      -0.00001970       0.00010563
I       14.60720519       3.92523742       5.58298361       44      -0.00023378      -0.00013028      -0.00017380
I       19.83477972       5.32655138       1.02677321       45       0.00000006      -0.00020966       0.00002480
I       17.48670693       1.39648903       1.87303440       46      -0.00018361       0.00012534      -0.00008003
I       16.95270053       7.85085169       4.73407694       47       0.00001526       0.00042771      -0.00012187
I       15.24982664       6.03879886       0.72816204       48      -0.00021864       0.00019418      -0.00015951
I       19.19089935       3.21228523       5.87676195       49      -0.00046067      -0.00010309       0.00020142
Cs      16.97282151       4.46628279       8.85577115       50      -0.00008880       0.00007703      -0.00018985
Cs      25.75514564       9.56251616      12.50038293       51       0.00007265      -0.00018484       0.00036831
K       21.36517884       7.01365294      10.67676064       52      -0.00018150       0.00019262       0.00009233
In      12.86852914       2.11869265       7.17932197       53       0.00027858       0.00006680       0.00003946
I       18.74960485       6.31045496      12.95129187       54      -0.00059477      -0.00044503      -0.00011872
I       23.98028259       7.71492452       8.40203983       55      -0.00000315       0.00005090       0.00006961
I       21.63216262       3.78706202       9.24717995       56       0.00014539       0.00025790      -0.00042243
I       21.09453652      10.23923489      12.10923029       57       0.00044424       0.00009418       0.00036875
I       19.39585274       8.43013372       8.10319485       58      -0.00040691      -0.00021554       0.00010633
I       23.33325689       5.59982152      13.25268016       59      -0.00003505      -0.00007971      -0.00029425
Cs      16.95140002       9.75142575       1.29572623       60      -0.00030027      -0.00031201      -0.00001866
Cs      25.73344886      14.84638468       4.94712326       61      -0.00022673      -0.00029821      -0.00060409
K       21.34244482      12.29819421       3.11942109       62       0.00012929      -0.00005857       0.00008898
In      12.84605319       7.40141933      -0.37919931       63       0.00021137      -0.00004864      -0.00022820
I       18.72645411      11.59569924       5.39404284       64      -0.00024173       0.00007110       0.00004544
I       23.95733215      12.99705476       0.84241154       65       0.00026574       0.00059471      -0.00045125
I       21.60830748       9.07116391       1.68730757       66       0.00021656      -0.00036756      -0.00018851
I       21.07866586      15.52609250       4.54866498       67      -0.00014754      -0.00036216       0.00009100
I       19.37249133      13.70958265       0.54358256       68       0.00020470       0.00024423      -0.00000420
I       23.31009252      10.88170731       5.69423584       69       0.00020970      -0.00013160       0.00008968
Cs      21.09454642      12.13933425       8.67188880       70      -0.00017813      -0.00008003      -0.00016471
Cs      29.88138044      17.23418520      12.31813576       71      -0.00048698      -0.00015821       0.00032185
K       25.48672649      14.68617464      10.49499584       72       0.00029716       0.00014422      -0.00013233
In      16.99084970       9.79092522       6.99631446       73       0.00036403      -0.00010554      -0.00001769
I       22.87124896      13.98278444      12.76902252       74      -0.00003179       0.00008185      -0.00008761
I       28.10100298      15.38866574       8.21848057       75       0.00000909       0.00009712       0.00023605
I       25.75369234      11.46050149       9.06249828       76      -0.00019862      -0.00042055      -0.00005652
I       25.21492030      17.91202959      11.92710843       77       0.00032502       0.00024963      -0.00027078
I       23.51566219      16.10102472       7.92333560       78      -0.00006186      -0.00035155      -0.00015660
I       27.45476216      13.27031131      13.06827938       79       0.00032346       0.00011652       0.00001380
