20
Lattice="9.665540100014205 -0.14381623320828862 1.4015962117536398 4.549671663339001 15.7057704165434 4.2807215510551115 3.828351488218497 -3.0916824812393275 7.343364517290586" Properties=species:S:1:pos:R:3:spacegroup_kinds:I:1:forces:R:3 spacegroup="P 1" unit_cell=conventional occupancy="_JSON {\"0\": {\"Cs\": 1.0}, \"1\": {\"Pb\": 1.0}, \"2\": {\"I\": 1.0}, \"3\": {\"I\": 1.0}, \"4\": {\"I\": 1.0}, \"5\": {\"Cs\": 1.0}, \"6\": {\"Pb\": 1.0}, \"7\": {\"I\": 1.0}, \"8\": {\"I\": 1.0}, \"9\": {\"I\": 1.0}, \"10\": {\"Cs\": 1.0}, \"11\": {\"Pb\": 1.0}, \"12\": {\"I\": 1.0}, \"13\": {\"I\": 1.0}, \"14\": {\"I\": 1.0}, \"15\": {\"Cs\": 1.0}, \"16\": {\"Pb\": 1.0}, \"17\": {\"I\": 1.0}, \"18\": {\"I\": 1.0}, \"19\": {\"I\": 1.0}}" energy=-55.74483000314974 free_energy=-55.74483000314974 stress="7.948419606618357e-07 7.518818728089149e-07 1.93759678634694e-06 7.518818728089149e-07 -9.391037234850708e-06 5.571826867628328e-07 1.93759678634694e-06 5.571826867628328e-07 2.442237022168293e-06" pbc="T T T"
Cs       4.81650718       2.33426474       4.06043296        0       0.00012774       0.00003815      -0.00013695
Pb       0.42743497      -1.15019136      -0.06513158        1      -0.00040258       0.00028762      -0.00005729
I        0.02618024      -2.60778210       2.54975547        2      -0.00003354      -0.00016072       0.00015918
I        2.75512391       0.86722945       1.10704930        3      -0.00001361       0.00009627       0.00004415
I       13.93259639       1.70413342       9.23070619        4      -0.00001993      -0.00015699      -0.00009279
Cs       7.09133470      10.18707944       6.20066266        5       0.00006018       0.00003534       0.00011835
Pb      12.36768493       6.55899671       3.47672585        6       0.00033452      -0.00022801       0.00050338
I       11.96656607       5.10119905       6.09175636        7       0.00002206       0.00026117      -0.00033590
I        5.02999155       8.72020440       3.24752553        8      -0.00004472      -0.00025225      -0.00023456
I       16.20745459       9.55686779      11.37096785        9      -0.00009250       0.00013758       0.00007683
Cs       9.64928735       2.26236405       4.76122290       10       0.00006061      -0.00001448      -0.00010755
Pb       5.26008824      -1.22202925       0.63569816       11       0.00047520       0.00027376      -0.00021788
I        4.85894712      -2.67973447       3.25047191       12      -0.00007807      -0.00018759       0.00039451
I        7.58790493       0.79539457       1.80790597       13       0.00001447      -0.00014229      -0.00004715
I        9.09983363       1.77589422       8.52978348       14      -0.00007840       0.00021052       0.00021845
Cs      11.92409763      10.11517252       6.90148264       15       0.00010949       0.00008399       0.00006621
Pb       7.53501641       6.63087410       2.77590543       16      -0.00043279      -0.00029685       0.00070806
I        7.13380062       5.17313743       5.39104036       17       0.00006883       0.00032548      -0.00061030
I        9.86274743       8.64819820       3.94824207       18      -0.00005657       0.00003592      -0.00010585
I       11.37467668       9.62897586      10.67034302       19      -0.00002037      -0.00034662      -0.00034292
