20
Lattice="25.910687433430603 1.095101899529789 0.2421321833536793 2.830350671513288 14.434588910573499 0.0778215066922267 8.564761253508843 10.638737447451737 3.3514989144237792" Properties=species:S:1:pos:R:3:spacegroup_kinds:I:1:forces:R:3 spacegroup="P 1" unit_cell=conventional occupancy="_JSON {\"0\": {\"Cs\": 1.0}, \"1\": {\"Cs\": 1.0}, \"2\": {\"K\": 1.0}, \"3\": {\"In\": 1.0}, \"4\": {\"I\": 1.0}, \"5\": {\"I\": 1.0}, \"6\": {\"I\": 1.0}, \"7\": {\"I\": 1.0}, \"8\": {\"I\": 1.0}, \"9\": {\"I\": 1.0}, \"10\": {\"Cs\": 1.0}, \"11\": {\"Cs\": 1.0}, \"12\": {\"K\": 1.0}, \"13\": {\"In\": 1.0}, \"14\": {\"I\": 1.0}, \"15\": {\"I\": 1.0}, \"16\": {\"I\": 1.0}, \"17\": {\"I\": 1.0}, \"18\": {\"I\": 1.0}, \"19\": {\"I\": 1.0}}" energy=-48.74508815957242 free_energy=-48.74508815957242 stress="2.1317685505127231e-07 -8.024856014273753e-06 -1.1150869770232758e-05 -8.024856014273753e-06 3.427872108323427e-06 -1.4877605314439345e-05 -1.1150869770232758e-05 -1.4877605314439345e-05 -9.707359978165805e-06" pbc="T T T"
Cs       7.72579924       5.22044058       1.63874322        0       0.00008715      -0.00008548      -0.00076897
Cs      17.35141222      20.16081891       2.24624817        1      -0.00008015      -0.00018749      -0.00023726
K       12.50996184      13.21410268       2.11913671        2       0.00037870      -0.00026403       0.00001588
In      24.76471341       2.62672385      -0.05015110        3       0.00026318       0.00012631      -0.00008540
I       20.47569904      18.67203762       4.00110947        4       0.00025665      -0.00019210       0.00064399
I        4.48300241       5.99093550      -0.58550610        5       0.00003921      -0.00025107      -0.00045039
I       20.24798441       9.60594049       2.56459051        6      -0.00003395       0.00019436       0.00089664
I       30.41939671      17.00428910       1.51144835        7       0.00025149      -0.00010102      -0.00026401
I        7.95725475      13.54554503      -0.92922104        8       0.00012011       0.00018436      -0.00067318
I       15.46231183      11.44423625       3.94494864        9      -0.00037249       0.00021764       0.00016875
Cs      20.68123349       5.76725729       1.75886328       10      -0.00021798      -0.00016865       0.00030558
Cs      30.30768278      20.70838482       2.36814786       11       0.00000824       0.00018789      -0.00038767
K       25.46487610      13.76146749       2.23927101       12      -0.00007268       0.00020627       0.00041093
In      11.81015906       2.07824316      -0.17145994       13      -0.00027069       0.00026043      -0.00004017
I       33.43151723      19.21857534       4.12263040       14       0.00015158       0.00002463      -0.00006929
I       17.43842022       6.53780416      -0.46422932       15      -0.00051894       0.00022326      -0.00023782
I        7.29316396       9.05929396       2.44407840       16       0.00004631      -0.00000254      -0.00012555
I       17.46461091      16.45600959       1.39016126       17      -0.00004232       0.00004073       0.00043222
I       20.91251153      14.09335717      -0.80854225       18      -0.00010149      -0.00002195       0.00046500
I       28.41650425      11.99303212       4.06599859       19       0.00010807      -0.00039155       0.00000071
