40
Lattice="12.590309912921146 -0.42519734912101054 2.2520048008552447 1.1596673944681821 12.004195510001889 -4.255106873659245 -2.153265216890641 4.41705227064531 11.845327292686758" Properties=species:S:1:pos:R:3:spacegroup_kinds:I:1:forces:R:3 spacegroup="P 1" unit_cell=conventional occupancy="_JSON {\"0\": {\"Cs\": 1.0}, \"1\": {\"Pb\": 1.0}, \"2\": {\"I\": 1.0}, \"3\": {\"I\": 1.0}, \"4\": {\"I\": 1.0}, \"5\": {\"Cs\": 1.0}, \"6\": {\"Pb\": 1.0}, \"7\": {\"I\": 1.0}, \"8\": {\"I\": 1.0}, \"9\": {\"I\": 1.0}, \"10\": {\"Cs\": 1.0}, \"11\": {\"Pb\": 1.0}, \"12\": {\"I\": 1.0}, \"13\": {\"I\": 1.0}, \"14\": {\"I\": 1.0}, \"15\": {\"Cs\": 1.0}, \"16\": {\"Pb\": 1.0}, \"17\": {\"I\": 1.0}, \"18\": {\"I\": 1.0}, \"19\": {\"I\": 1.0}, \"20\": {\"Cs\": 1.0}, \"21\": {\"Pb\": 1.0}, \"22\": {\"I\": 1.0}, \"23\": {\"I\": 1.0}, \"24\": {\"I\": 1.0}, \"25\": {\"Cs\": 1.0}, \"26\": {\"Pb\": 1.0}, \"27\": {\"I\": 1.0}, \"28\": {\"I\": 1.0}, \"29\": {\"I\": 1.0}, \"30\": {\"Cs\": 1.0}, \"31\": {\"Pb\": 1.0}, \"32\": {\"I\": 1.0}, \"33\": {\"I\": 1.0}, \"34\": {\"I\": 1.0}, \"35\": {\"Cs\": 1.0}, \"36\": {\"Pb\": 1.0}, \"37\": {\"I\": 1.0}, \"38\": {\"I\": 1.0}, \"39\": {\"I\": 1.0}}" energy=-111.87532531081608 free_energy=-111.87532531081608 stress="-1.452157573340752e-05 -3.2124847206886655e-06 1.093573729333754e-05 -3.2124847206886655e-06 1.2580521739921176e-05 4.233875911186725e-06 1.093573729333754e-05 4.233875911186725e-06 -4.380402476443289e-06" pbc="T T T"
Cs       2.66816889       4.12322221       2.73227962        0       0.00018124      -0.00020185      -0.00012501
Pb       0.00409791       0.00074036       0.00129145        1      -0.00002852      -0.00019749      -0.00010680
I       -0.39618316       1.07920237       2.94136802        2      -0.00031023       0.00036895       0.00017923
I        3.19962312      -0.15900843       0.43222957        3      -0.00004876       0.00005478       0.00013743
I        0.32269973       2.95381037      -1.18602863        4       0.00022056      -0.00002536      -0.00007977
Cs       1.59153624       6.33174850       8.65494301        5       0.00018133      -0.00020193      -0.00012491
Pb      11.51777476       1.78406879       8.17596031        6      -0.00002695      -0.00019699      -0.00010804
I       -1.47281571       3.28772841       8.86403212        7      -0.00031003       0.00036844       0.00017801
I        2.12299053       2.04951783       6.35489305        8      -0.00004735       0.00005474       0.00013778
I       11.83637695       4.73713971       6.98863921        9       0.00022047      -0.00002675      -0.00007901
Cs       3.24800268      10.12532193       0.60472415       10       0.00018054      -0.00020302      -0.00012395
Pb       0.58392772       6.00283486      -2.12626303       11      -0.00001765      -0.00018530      -0.00010462
I        0.18365077       7.08129826       0.81381962       12      -0.00030895       0.00036677       0.00017298
I        3.77945887       5.84308831      -1.69532247       13      -0.00004841       0.00005514       0.00013826
I        0.90253328       8.95590948      -3.31358334       14       0.00021986      -0.00003217      -0.00007707
Cs       2.17137004      12.33384821       6.52738755       15       0.00018059      -0.00020305      -0.00012387
Pb      12.09760444       7.78616331       6.04840584       16      -0.00001537      -0.00018496      -0.00010604
I       11.69732811       8.86462703       8.98848825       17      -0.00030890       0.00036661       0.00017282
I        2.70282618       8.05161455       4.22734099       18      -0.00004647       0.00005514       0.00013878
I       12.41621047      10.73923878       4.86108453       19       0.00021985      -0.00003322      -0.00007649
Cs       8.96332464       3.91062352       3.85828240       20       0.00017996      -0.00020277      -0.00012541
Pb       6.29926279      -0.21186015       1.12729853       21      -0.00007349      -0.00019419      -0.00011671
I        5.89897107       0.86660337       4.06737191       22      -0.00030572       0.00036839       0.00017859
I        9.49477563      -0.37160618       1.55823022       23      -0.00003919       0.00005389       0.00013871
I        6.61785367       2.74121202      -0.06002724       24       0.00022451      -0.00002771      -0.00007747
Cs       7.88669205       6.11914977       9.78094579       25       0.00017981      -0.00020267      -0.00012522
Pb       5.22263002       1.99666605       7.04996236       26      -0.00007340      -0.00019483      -0.00011805
I        4.82233842       3.07512979       9.99003475       27      -0.00030624       0.00036926       0.00018117
I        8.41814394       1.83691972       7.48089437       28      -0.00004239       0.00005418       0.00013819
I        5.54122097       4.94973812       5.86263636       29       0.00022468      -0.00002809      -0.00007729
Cs       9.54315835       9.91272277       1.73072730       30       0.00017950      -0.00020241      -0.00012477
Pb       6.87909493       5.79023380      -1.00025577       31      -0.00007376      -0.00018029      -0.00011553
I        6.47880528       6.86869810       1.93982645       32      -0.00030347       0.00036588       0.00017053
I       10.07461365       5.63048984      -0.56932044       33      -0.00005202       0.00005502       0.00013708
I        7.19768712       8.74331102      -2.18758182       34       0.00022423      -0.00003549      -0.00007455
Cs       8.46652576      12.12124903       7.65339070       35       0.00017937      -0.00020236      -0.00012457
Pb       5.80246235       7.99875995       4.92240804       36      -0.00007453      -0.00018056      -0.00011626
I        5.40217271       9.07722424       7.86249016       37      -0.00030353       0.00036567       0.00017002
I        8.99798196       7.83901581       5.35334365       38      -0.00005560       0.00005523       0.00013640
I        6.12105447      10.95183684       3.73508199       39       0.00022443      -0.00003464      -0.00007458
