10
Lattice="9.17234785084265 -1.5052401460828178 0.29557294125342093 -3.2639026238355604 8.35437692534746 -2.449779891442986 0.14794001240209184 2.5329425775834054 8.456242744009007" Properties=species:S:1:pos:R:3:spacegroup_kinds:I:1:forces:R:3 spacegroup="P 1" unit_cell=conventional occupancy="_JSON {\"0\": {\"Cs\": 1.0}, \"1\": {\"Cs\": 1.0}, \"2\": {\"K\": 1.0}, \"3\": {\"In\": 1.0}, \"4\": {\"I\": 1.0}, \"5\": {\"I\": 1.0}, \"6\": {\"I\": 1.0}, \"7\": {\"I\": 1.0}, \"8\": {\"I\": 1.0}, \"9\": {\"I\": 1.0}}" energy=-25.793811375281024 free_energy=-25.793811375281024 stress="4.533592780801309e-06 7.609705861083034e-08 2.446558701058034e-06 7.609705861083034e-08 -1.289220386316889e-06 -1.6356125848122186e-06 2.446558701058034e-06 -1.6356125848122186e-06 4.129610076142245e-06" pbc="T T T"
Cs       1.84279971       7.61989763       6.86348317        0      -0.00032224       0.00032606       0.00014527
Cs       5.98838342       4.35334849       7.84960074        1       0.00009831       0.00017430      -0.00012556
K        0.88750699       1.29698404       4.20531359        2       0.00001588      -0.00072526      -0.00006700
In       0.81311724       0.02903677      -0.02257020        3       0.00050645       0.00025514       0.00026794
I        2.37335250       2.34672122       1.09994963        4       0.00008546      -0.00009360      -0.00000166
I        5.30983824       7.09373892       5.15655683        5      -0.00020508       0.00022591      -0.00004543
I        3.34066515       1.68245169       6.81181101        6      -0.00030244      -0.00002841       0.00053877
I        7.60632089      -0.59592182       1.89498010        7       0.00011132      -0.00034812      -0.00072162
I       -1.54389348       6.70747928      -0.14144371        8       0.00010364       0.00012644      -0.00005826
I        0.05436088       4.23850936       6.10285773        9      -0.00009130       0.00008754       0.00006754
