160
Lattice="14.022366887356304 0.0 0.0 -7.29127022613144 15.176788863843921 0.0 -12.829809610606805 7.330261263650676 23.075647710283885" Properties=species:S:1:pos:R:3 pbc="T T T"
Cs      -1.63186208       7.92048037       2.88445596
Cs      -2.93138746       4.12628953       2.88445596
Cs      -1.37791652       3.34587300       8.65336789
Cs      -0.07839018       7.14007660       8.65336789
Pb       0.01978847       0.00641886       0.00000001
Pb       1.68277417       3.79419722       0.00000000
Pb      -3.20745240       1.83256532       5.76891193
Pb      -1.50488948       5.63317811       5.76891209
I       -1.43787175       5.46199470       0.47954425
I        1.17701813       1.66779698       0.47955028
I        4.79902179       0.99426391       2.88445596
I       -1.57190688       5.80436533      11.05827264
I       -4.18679668       9.59856204      11.05827866
I        0.65830114       4.78845459       2.88445596
I       -4.11207748       6.98989163       5.28936767
I       -1.49718760       3.19569390       5.28936165
I       -7.80880199      10.27210238       8.65336789
I        1.10229885       4.27646841       6.24846315
I       -1.51259095       8.07066511       6.24845712
I       -3.66808110       6.47789863       8.65336789
Cs      -8.04676689      11.58561100      14.42227982
Cs      -9.34629226       7.79142016      14.42227982
Cs      -7.79282133       7.01100363      20.19119175
Cs      -6.49329499      10.80520723      20.19119175
Pb      -6.39511633       3.67154949      11.53782387
Pb      -4.73213064       7.45932785      11.53782386
Pb      -9.62235721       5.49769595      17.30673578
Pb      -7.91979428       9.29830874      17.30673595
I       -7.85277655       9.12712534      12.01736811
I       -5.23788667       5.33292761      12.01737413
I       -1.61588302       4.65939454      14.42227982
I       -7.98681169       9.46949597      22.59609649
I      -10.60170149      13.26369267      22.59610252
I       -5.75660366       8.45358522      14.42227982
I      -10.52698228      10.65502226      16.82719153
I       -7.91209241       6.86082454      16.82718550
I      -14.22370680      13.93723301      20.19119175
I       -5.31260595       7.94159904      17.78628700
I       -7.92749576      11.73579574      17.78628098
I      -10.08298590      10.14302926      20.19119175
Cs      -5.27749720      15.50887480       2.88445596
Cs      -6.57702257      11.71468396       2.88445596
Cs      -5.02355163      10.93426743       8.65336789
Cs      -3.72402530      14.72847103       8.65336789
Pb      -3.62584664       7.59481329       0.00000001
Pb      -1.96286095      11.38259165       0.00000000
Pb      -6.85308752       9.42095975       5.76891193
Pb      -5.15052459      13.22157254       5.76891209
I       -5.08350686      13.05038914       0.47954425
I       -2.46861698       9.25619141       0.47955028
I        1.15338667       8.58265834       2.88445596
I       -5.21754199      13.39275977      11.05827264
I       -7.83243180      17.18695647      11.05827866
I       -2.98733397      12.37684902       2.88445596
I       -7.75771259      14.57828606       5.28936767
I       -5.14282271      10.78408834       5.28936165
I      -11.45443710      17.86049681       8.65336789
I       -2.54333626      11.86486284       6.24846315
I       -5.15822607      15.65905954       6.24845712
I       -7.31371621      14.06629306       8.65336789
Cs     -11.69240200      19.17400543      14.42227982
Cs     -12.99192738      15.37981459      14.42227982
Cs     -11.43845644      14.59939806      20.19119175
Cs     -10.13893010      18.39360166      20.19119175
Pb     -10.04075145      11.25994393      11.53782387
Pb      -8.37776575      15.04772228      11.53782386
Pb     -13.26799232      13.08609038      17.30673578
Pb     -11.56542940      16.88670317      17.30673595
I      -11.49841167      16.71551977      12.01736811
I       -8.88352179      12.92132204      12.01737413
I       -5.26151813      12.24778897      14.42227982
I      -11.63244680      17.05789040      22.59609649
I      -14.24733660      20.85208710      22.59610252
I       -9.40223878      16.04197965      14.42227982
I      -14.17261740      18.24341670      16.82719153
I      -11.55772752      14.44921897      16.82718550
I      -17.86934191      21.52562744      20.19119175
I       -8.95824107      15.52999347      17.78628700
I      -11.57313087      19.32419017      17.78628098
I      -13.72862101      17.73142369      20.19119175
Cs       5.37932136       7.92048037       2.88445596
Cs       4.07979599       4.12628953       2.88445596
Cs       5.63326692       3.34587300       8.65336789
Cs       6.93279326       7.14007660       8.65336789
Pb       7.03097191       0.00641886       0.00000001
Pb       8.69395761       3.79419722       0.00000000
Pb       3.80373104       1.83256532       5.76891193
Pb       5.50629397       5.63317811       5.76891209
I        5.57331170       5.46199470       0.47954425
I        8.18820158       1.66779698       0.47955028
I       11.81020523       0.99426391       2.88445596
I        5.43927656       5.80436533      11.05827264
I        2.82438676       9.59856204      11.05827866
I        7.66948458       4.78845459       2.88445596
I        2.89910596       6.98989163       5.28936767
I        5.51399584       3.19569390       5.28936165
I       -0.79761855      10.27210238       8.65336789
I        8.11348229       4.27646841       6.24846315
I        5.49859249       8.07066511       6.24845712
I        3.34310235       6.47789863       8.65336789
Cs      -1.03558345      11.58561100      14.42227982
Cs      -2.33510882       7.79142016      14.42227982
Cs      -0.78163788       7.01100363      20.19119175
Cs       0.51788845      10.80520723      20.19119175
Pb       0.61606711       3.67154949      11.53782387
Pb       2.27905280       7.45932785      11.53782386
Pb      -2.61117376       5.49769595      17.30673578
Pb      -0.90861084       9.29830874      17.30673595
I       -0.84159311       9.12712534      12.01736811
I        1.77329677       5.33292761      12.01737413
I        5.39530042       4.65939454      14.42227982
I       -0.97562824       9.46949597      22.59609649
I       -3.59051805      13.26369267      22.59610252
I        1.25457978       8.45358522      14.42227982
I       -3.51579884      10.65502226      16.82719153
I       -0.90090896       6.86082454      16.82718550
I       -7.21252335      13.93723301      20.19119175
I        1.69857749       7.94159904      17.78628700
I       -0.91631231      11.73579574      17.78628098
I       -3.07180246      10.14302926      20.19119175
Cs       1.73368625      15.50887480       2.88445596
Cs       0.43416087      11.71468396       2.88445596
Cs       1.98763181      10.93426743       8.65336789
Cs       3.28715815      14.72847103       8.65336789
Pb       3.38533680       7.59481329       0.00000001
Pb       5.04832250      11.38259165       0.00000000
Pb       0.15809593       9.42095975       5.76891193
Pb       1.86065885      13.22157254       5.76891209
I        1.92767658      13.05038914       0.47954425
I        4.54256646       9.25619141       0.47955028
I        8.16457012       8.58265834       2.88445596
I        1.79364145      13.39275977      11.05827264
I       -0.82124835      17.18695647      11.05827866
I        4.02384947      12.37684902       2.88445596
I       -0.74652915      14.57828606       5.28936767
I        1.86836073      10.78408834       5.28936165
I       -4.44325366      17.86049681       8.65336789
I        4.46784718      11.86486284       6.24846315
I        1.85295738      15.65905954       6.24845712
I       -0.30253277      14.06629306       8.65336789
Cs      -4.68121856      19.17400543      14.42227982
Cs      -5.98074393      15.37981459      14.42227982
Cs      -4.42727300      14.59939806      20.19119175
Cs      -3.12774666      18.39360166      20.19119175
Pb      -3.02956800      11.25994393      11.53782387
Pb      -1.36658231      15.04772228      11.53782386
Pb      -6.25680888      13.08609038      17.30673578
Pb      -4.55424595      16.88670317      17.30673595
I       -4.48722822      16.71551977      12.01736811
I       -1.87233834      12.92132204      12.01737413
I        1.74966531      12.24778897      14.42227982
I       -4.62126336      17.05789040      22.59609649
I       -7.23615316      20.85208710      22.59610252
I       -2.39105533      16.04197965      14.42227982
I       -7.16143395      18.24341670      16.82719153
I       -4.54654408      14.44921897      16.82718550
I      -10.85815846      21.52562744      20.19119175
I       -1.94705762      15.52999347      17.78628700
I       -4.56194743      19.32419017      17.78628098
I       -6.71743757      17.73142369      20.19119175
