20
Lattice="18.479027716947723 -0.06590033603329028 -0.03250554727519729 4.605500324406109 7.940405278075177 0.01809736078520344 4.581248050191673 2.650115908897373 6.9402233972251945" Properties=species:S:1:pos:R:3:spacegroup_kinds:I:1:forces:R:3 spacegroup="P 1" unit_cell=conventional occupancy="_JSON {\"0\": {\"Cs\": 1.0}, \"1\": {\"Cs\": 1.0}, \"2\": {\"K\": 1.0}, \"3\": {\"In\": 1.0}, \"4\": {\"I\": 1.0}, \"5\": {\"I\": 1.0}, \"6\": {\"I\": 1.0}, \"7\": {\"I\": 1.0}, \"8\": {\"I\": 1.0}, \"9\": {\"I\": 1.0}, \"10\": {\"Cs\": 1.0}, \"11\": {\"Cs\": 1.0}, \"12\": {\"K\": 1.0}, \"13\": {\"In\": 1.0}, \"14\": {\"I\": 1.0}, \"15\": {\"I\": 1.0}, \"16\": {\"I\": 1.0}, \"17\": {\"I\": 1.0}, \"18\": {\"I\": 1.0}, \"19\": {\"I\": 1.0}}" energy=-51.29789112544893 free_energy=-51.29789112544893 stress="3.491664342556092e-06 5.565148154184213e-06 -2.0374155615109804e-06 5.565148154184213e-06 -3.6840368405033824e-06 -2.4888516082797206e-06 -2.0374155615109804e-06 -2.4888516082797206e-06 2.246300352758925e-07" pbc="T T T"
Cs       4.58820696       2.63205480       1.92401084        0      -0.00012591       0.00023921       0.00028019
Cs      13.83801535       7.92474048       5.01850868        1       0.00024323       0.00011044      -0.00044916
K        9.21292530       5.27905291       3.47115520        2       0.00016843      -0.00019359      -0.00002997
In      18.47913666      -0.06568416      -0.03256059        3      -0.00019107      -0.00043248      -0.00002512
I        6.97553337       3.18861312       5.24842936        4      -0.00027254       0.00016443      -0.00021425
I       11.45130282       7.36856907       1.69387419        5      -0.00013005       0.00001508       0.00021754
I        9.92595022       2.31763105       1.67568587        6       0.00005204      -0.00026658       0.00024499
I        8.50000281       8.24065656       5.26557866        7       0.00029716       0.00018064       0.00031757
I        6.25366623       6.18186346       1.75766747        8       0.00006276       0.00006007      -0.00020477
I       12.17240248       4.37563171       5.18445821        9      -0.00020819       0.00003673      -0.00012302
Cs      13.82764269       2.59916238       1.90777023       10      -0.00004761       0.00013859       0.00027195
Cs      23.07756982       7.89181089       5.00225017       11       0.00015647       0.00016361      -0.00044764
K       18.45247820       5.24614252       3.45488128       12       0.00007071      -0.00023947       0.00000827
In       9.23960587      -0.03289220      -0.01625921       13      -0.00004845       0.00028897       0.00006515
I       16.21495749       3.15568599       5.23218643       14       0.00001828       0.00024587      -0.00030916
I       20.69086746       7.33552302       1.67762812       15      -0.00017601       0.00024105       0.00009641
I       19.16546467       2.28466958       1.65947732       16       0.00008785      -0.00014498       0.00020979
I       17.73968694       8.20784641       5.24933646       17      -0.00005416      -0.00043384       0.00004018
I       15.49323859       6.14887069       1.74134858       18       0.00009358       0.00001577       0.00002967
I       21.41187185       4.34278677       5.16815038       19       0.00000352      -0.00018953       0.00002137
