10
Lattice="9.12041661261708 -1.8129916495269816 0.011472379451110926 -2.9896987843773486 8.804583778131896 0.014975129467906871 -0.01722468680160405 -0.017857718635077017 8.828315291822422" Properties=species:S:1:pos:R:3:spacegroup_kinds:I:1:forces:R:3 spacegroup="P 1" unit_cell=conventional occupancy="_JSON {\"0\": {\"Cs\": 1.0}, \"1\": {\"Cs\": 1.0}, \"2\": {\"K\": 1.0}, \"3\": {\"In\": 1.0}, \"4\": {\"I\": 1.0}, \"5\": {\"I\": 1.0}, \"6\": {\"I\": 1.0}, \"7\": {\"I\": 1.0}, \"8\": {\"I\": 1.0}, \"9\": {\"I\": 1.0}}" energy=-25.793814762900652 free_energy=-25.793814762900652 stress="-1.951529612073828e-06 -5.722585254125531e-08 1.2270964807030936e-07 -5.722585254125531e-08 1.1856897308753174e-06 1.0725451293209522e-06 1.2270964807030936e-07 1.0725451293209522e-06 -3.3522659824739146e-06" pbc="T T T"
Cs       2.22238855       2.32750544       0.03985929        0       0.00000762      -0.00002143      -0.00021543
Cs      -1.83077696       5.84960737       8.80782094        1       0.00008668       0.00005228       0.00031133
K        6.25089513      -1.22024204       4.42210624        2      -0.00005989       0.00001229       0.00000984
In       6.25955881      -1.21130446       0.00791751        3      -0.00049773      -0.00004252       0.00015414
I        5.49090412       1.10003319       1.77761582        4      -0.00012866      -0.00017906       0.00034668
I        4.02116075       5.26405748       7.08158982        5       0.00008923       0.00020061      -0.00043592
I        7.86721123       0.59532300       7.07690020        6       0.00049745      -0.00023830      -0.00025671
I        1.64480965       5.76878586       1.78240372        7      -0.00035492       0.00037228      -0.00012667
I        8.64372967      -1.70968877       1.77770898        8       0.00024807      -0.00000494      -0.00015037
I        3.85793022      -0.73070577       7.06644917        9       0.00011215      -0.00015122       0.00036311
