20
Lattice="20.19971954755172 -2.611804302709219 -1.508529308275434 9.29249708714028 6.069077862922081 0.8161295097511071 3.3382221596726613 -0.09189081786140774 7.513743110947798" Properties=species:S:1:pos:R:3:spacegroup_kinds:I:1:forces:R:3 spacegroup="P 1" unit_cell=conventional occupancy="_JSON {\"0\": {\"Cs\": 1.0}, \"1\": {\"Cs\": 1.0}, \"2\": {\"K\": 1.0}, \"3\": {\"In\": 1.0}, \"4\": {\"I\": 1.0}, \"5\": {\"I\": 1.0}, \"6\": {\"I\": 1.0}, \"7\": {\"I\": 1.0}, \"8\": {\"I\": 1.0}, \"9\": {\"I\": 1.0}, \"10\": {\"Cs\": 1.0}, \"11\": {\"Cs\": 1.0}, \"12\": {\"K\": 1.0}, \"13\": {\"In\": 1.0}, \"14\": {\"I\": 1.0}, \"15\": {\"I\": 1.0}, \"16\": {\"I\": 1.0}, \"17\": {\"I\": 1.0}, \"18\": {\"I\": 1.0}, \"19\": {\"I\": 1.0}}" energy=-50.865689137809866 free_energy=-50.865689137809866 stress="1.7662965227244677e-07 4.99603923876958e-07 1.2022889503799642e-06 4.99603923876958e-07 3.395319853917541e-07 8.673801193002433e-07 1.2022889503799642e-06 8.673801193002433e-07 -3.293269617619884e-07" pbc="T T T"
Cs       5.50496068       1.44972308       1.81376390        0      -0.00016429      -0.00036616       0.00028921
Cs      15.88614684       4.11261786       5.99069394        1      -0.00009441       0.00028599      -0.00033984
K       11.51980778       1.69763060       2.87662593        2      -0.00000616       0.00001050      -0.00048044
In      19.50809556      -2.24671642      -1.56924385        3       0.00001009       0.00028174       0.00019326
I       18.15892180       5.62621276       2.88419855        4      -0.00019910      -0.00002024       0.00032022
I       23.37414095      -2.76753585       3.03352039        5      -0.00027846      -0.00010797      -0.00012548
I       14.22114099       3.56577181       2.01153924        6      -0.00022920       0.00024638      -0.00005863
I       10.37482591       0.36692735       5.95044775        7      -0.00010935      -0.00010592      -0.00026387
I       11.93101753       0.41619897      -0.62500173        8       0.00008479       0.00035648      -0.00011454
I       12.21590736       3.57640831       8.70653389        9      -0.00026781      -0.00000244       0.00011181
Cs      15.60258176       0.14044179       1.05920911       10      -0.00005954       0.00024023      -0.00023449
Cs      25.98651239       2.81035743       5.23555002       11      -0.00008011      -0.00011576       0.00018448
K       21.61828565       0.39384391       2.12164308       12      -0.00001517      -0.00017465       0.00053986
In       9.40582650      -0.94277726      -0.81434655       13       0.00016665       0.00001067      -0.00008990
I        8.05904269       6.93215570       3.63790637       14       0.00015084      -0.00038784      -0.00007841
I       13.27021258      -1.46548862       3.78803509       15       0.00041885       0.00021596       0.00020777
I       24.31970725       2.26165834       1.25661668       16       0.00022467      -0.00006593      -0.00001924
I       20.47494745      -0.94070060       5.19516894       17       0.00010264       0.00012200       0.00022922
I       22.03131142      -0.88465331      -1.37761861       18       0.00001958      -0.00040356      -0.00029560
I       22.31012801       2.26865238       7.95404697       19       0.00032548      -0.00001949       0.00002461
