20
Lattice="14.591820266315361 0.0 0.0 7.442080071264219 5.007367903098577 0.0 1.9688496705639336 -0.28522723720131044 6.946714128270315" Properties=species:S:1:pos:R:3 pbc="T T T"
Cs       4.17655282       1.18048815       1.73670231
Cs      12.53028676       3.54165128       5.21001101
K        8.35341967       2.36106951       3.47335653
In       0.00000026       0.00000087       0.00000038
I        6.49352992      -1.25744610       2.80421727
I       10.21330945       5.97958440       4.14249583
I       11.28537194       2.55009814       2.44777536
I        5.42146522       2.17204032       4.49893723
I        8.25049931       3.02844983       0.78080610
I        8.45634102       1.69369299       6.16590931
Cs      11.47246296       1.18048815       1.73670231
Cs      19.82619689       3.54165128       5.21001101
K       15.64932980       2.36106951       3.47335653
In       7.29591039       0.00000087       0.00000038
I       13.78944006      -1.25744610       2.80421727
I       17.50921958       5.97958440       4.14249583
I       18.58128208       2.55009814       2.44777536
I       12.71737535       2.17204032       4.49893723
I       15.54640944       3.02844983       0.78080610
I       15.75225116       1.69369299       6.16590931
