80
Lattice="16.682910332769083 4.337442188973624 0.05604817321748244 -12.098250667967932 12.278901825438638 0.03611142567435081 -0.036293604161755894 -0.08718904139255859 17.500218282938363" Properties=species:S:1:pos:R:3:spacegroup_kinds:I:1:forces:R:3 spacegroup="P 1" unit_cell=conventional occupancy="_JSON {\"0\": {\"Cs\": 1.0}, \"1\": {\"Cs\": 1.0}, \"2\": {\"K\": 1.0}, \"3\": {\"In\": 1.0}, \"4\": {\"I\": 1.0}, \"5\": {\"I\": 1.0}, \"6\": {\"I\": 1.0}, \"7\": {\"I\": 1.0}, \"8\": {\"I\": 1.0}, \"9\": {\"I\": 1.0}, \"10\": {\"Cs\": 1.0}, \"11\": {\"Cs\": 1.0}, \"12\": {\"K\": 1.0}, \"13\": {\"In\": 1.0}, \"14\": {\"I\": 1.0}, \"15\": {\"I\": 1.0}, \"16\": {\"I\": 1.0}, \"17\": {\"I\": 1.0}, \"18\": {\"I\": 1.0}, \"19\": {\"I\": 1.0}, \"20\": {\"Cs\": 1.0}, \"21\": {\"Cs\": 1.0}, \"22\": {\"K\": 1.0}, \"23\": {\"In\": 1.0}, \"24\": {\"I\": 1.0}, \"25\": {\"I\": 1.0}, \"26\": {\"I\": 1.0}, \"27\": {\"I\": 1.0}, \"28\": {\"I\": 1.0}, \"29\": {\"I\": 1.0}, \"30\": {\"Cs\": 1.0}, \"31\": {\"Cs\": 1.0}, \"32\": {\"K\": 1.0}, \"33\": {\"In\": 1.0}, \"34\": {\"I\": 1.0}, \"35\": {\"I\": 1.0}, \"36\": {\"I\": 1.0}, \"37\": {\"I\": 1.0}, \"38\": {\"I\": 1.0}, \"39\": {\"I\": 1.0}, \"40\": {\"Cs\": 1.0}, \"41\": {\"Cs\": 1.0}, \"42\": {\"K\": 1.0}, \"43\": {\"In\": 1.0}, \"44\": {\"I\": 1.0}, \"45\": {\"I\": 1.0}, \"46\": {\"I\": 1.0}, \"47\": {\"I\": 1.0}, \"48\": {\"I\": 1.0}, \"49\": {\"I\": 1.0}, \"50\": {\"Cs\": 1.0}, \"51\": {\"Cs\": 1.0}, \"52\": {\"K\": 1.0}, \"53\": {\"In\": 1.0}, \"54\": {\"I\": 1.0}, \"55\": {\"I\": 1.0}, \"56\": {\"I\": 1.0}, \"57\": {\"I\": 1.0}, \"58\": {\"I\": 1.0}, \"59\": {\"I\": 1.0}, \"60\": {\"Cs\": 1.0}, \"61\": {\"Cs\": 1.0}, \"62\": {\"K\": 1.0}, \"63\": {\"In\": 1.0}, \"64\": {\"I\": 1.0}, \"65\": {\"I\": 1.0}, \"66\": {\"I\": 1.0}, \"67\": {\"I\": 1.0}, \"68\": {\"I\": 1.0}, \"69\": {\"I\": 1.0}, \"70\": {\"Cs\": 1.0}, \"71\": {\"Cs\": 1.0}, \"72\": {\"K\": 1.0}, \"73\": {\"In\": 1.0}, \"74\": {\"I\": 1.0}, \"75\": {\"I\": 1.0}, \"76\": {\"I\": 1.0}, \"77\": {\"I\": 1.0}, \"78\": {\"I\": 1.0}, \"79\": {\"I\": 1.0}}" energy=-206.2062531232383 free_energy=-206.2062531232383 stress="2.397812956178599e-07 -4.7059302212310616e-07 -8.838425439488029e-08 -4.7059302212310616e-07 2.4998677671976136e-07 -6.572955313571265e-08 -8.838425439488029e-08 -6.572955313571265e-08 5.216975986627784e-08" pbc="T T T"
Cs       6.42794855       4.22256844      10.01885318        0      -0.00003057       0.00001865      -0.00002019
Cs       1.65429125       5.60200940      -1.20282650        1      -0.00000504       0.00001754      -0.00004191
K        2.89489146       0.75819522       4.38491985        2       0.00003300       0.00006618       0.00002342
In       2.90397051       0.77999028       0.00986223        3       0.00005329       0.00002443       0.00004457
I       10.34349769       5.19534699       1.79141434        4      -0.00003679       0.00013346      -0.00001057
I       -2.26134600       4.62907758       7.02452283        5      -0.00006604       0.00028794       0.00008510
I        3.68865745       7.17388755       1.78748441        6      -0.00004447      -0.00001470      -0.00005674
I        4.39347084       2.65082230       7.02848395        7      -0.00002472      -0.00009473       0.00002419
I        7.59509415       8.72965484       1.80330970        8      -0.00008855       0.00010287      -0.00006563
I        0.48704045       1.09486017       7.01262359        9       0.00003698      -0.00001693       0.00001793
Cs       6.40977918       4.17898081      18.76895320       10      -0.00001922      -0.00000357      -0.00001961
Cs       1.63616086       5.55847225       7.54728264       11      -0.00006870      -0.00007109      -0.00005470
K        2.87675887       0.71465700      13.13503575       12       0.00000935      -0.00008584      -0.00000570
In       2.88584208       0.73641786       8.75995691       13      -0.00004980      -0.00000436       0.00009322
I       10.32533514       5.15184234      10.54151975       14       0.00008655      -0.00007651      -0.00000217
I       -2.27948055       4.58560665      15.77465585       15       0.00000277       0.00001062      -0.00003669
I        3.67047316       7.13025597      10.53754611       16       0.00009406       0.00002406       0.00007793
I        4.37528244       2.60711817      15.77860745       17       0.00011282       0.00007259      -0.00003806
I        7.57694485       8.68613120      10.55339902       18      -0.00000444      -0.00000534       0.00003113
I        0.46890600       1.05125624      15.76274678       19      -0.00004498       0.00000258      -0.00002030
Cs       0.37879831      10.36201767      10.03690182       20      -0.00001521       0.00002031      -0.00001944
Cs      -4.39482176      11.74150566      -1.18477093       21      -0.00006340      -0.00004538      -0.00005081
K       -3.15422263       6.89768033       4.40297935       22       0.00001680      -0.00006977       0.00002751
In      -3.14513603       6.91946500       0.02790304       23      -0.00003899      -0.00000805       0.00008198
I        4.29436594      11.33491048       1.80946339       24       0.00008226      -0.00014680      -0.00000582
I        3.78779785      -1.51021246       7.00649010       25       0.00001928      -0.00009663      -0.00004704
I       -2.36049610      13.31333220       1.80549122       26       0.00005977      -0.00005571       0.00009678
I       -1.65568136       8.79021711       7.04655916       27       0.00004656      -0.00006811      -0.00004195
I        1.54597009      14.86918439       1.82134536       28       0.00000675      -0.00000757       0.00004806
I       -5.56208419       7.23428718       7.03069458       29       0.00002345       0.00001630      -0.00000673
Cs       0.36067084      10.31840945      18.78701982       30      -0.00002922       0.00004224      -0.00001765
Cs      -4.41298328      11.69786163       7.56534516       31      -0.00000437       0.00004573      -0.00005249
K       -3.17238128       6.85404912      13.15308455       32       0.00003320       0.00006450       0.00003123
In      -3.16329499       6.87586599       8.77803087       33       0.00004689      -0.00006514      -0.00002765
I        4.27623037      11.29122084      10.55957661       34      -0.00003330       0.00007396      -0.00000017
I        3.76964307      -1.55390256      15.75657726       35      -0.00003997       0.00008713       0.00004458
I       -2.37860211      13.26977782      10.55564907       36      -0.00009330      -0.00011011      -0.00004745
I       -1.67379245       8.74670713      15.79664546       37      -0.00005953      -0.00017745       0.00003310
I        1.52782172      14.82551042      10.57147247       38      -0.00006228       0.00010474      -0.00003798
I       -5.58023259       7.19071695      15.78078953       39       0.00005891      -0.00001251       0.00002162
Cs      -1.91350054       2.05388452       9.99083242       40      -0.00005127      -0.00004862      -0.00002956
Cs       9.99576226       7.77077613      -1.17479365       41      -0.00005499      -0.00005765      -0.00004773
K       11.23638705       2.92706308       4.41295891       42      -0.00001667      -0.00017093      -0.00001563
In      11.24544217       2.94871454       0.03788062       43      -0.00005300       0.00006532       0.00007631
I        2.00204739       3.02672337       1.76339485       44       0.00003732      -0.00010989      -0.00003197
I        6.08012501       6.79793267       7.05257318       45       0.00003788      -0.00005775      -0.00003062
I       12.03007378       9.34253174       1.81549926       46       0.00012307       0.00014204      -0.00005303
I       -3.94803257       0.48198527       7.00044257       47       0.00018949       0.00013504       0.00004403
I       -0.74636511       6.56095718       1.77527712       48      -0.00006121       0.00006824      -0.00002548
I        8.82851374       3.26363488       7.04063673       49      -0.00001495      -0.00007429       0.00004629
Cs      -1.93167282       2.01023980      18.74092679       50      -0.00001114       0.00004030      -0.00000568
Cs       9.97760590       7.72716763       7.57529890       51      -0.00002842      -0.00002509      -0.00004323
K       11.21817458       2.88322801      13.16304426       52       0.00005435       0.00015403       0.00004160
In      11.22729128       2.90514530       8.78799122       53       0.00000878      -0.00007076       0.00002860
I        1.98388230       2.98305356      10.51348543       54       0.00001319       0.00004853       0.00001904
I        6.06196125       6.75422489      15.80265777       55      -0.00008354       0.00026804       0.00006293
I       12.01195012       9.29901127      10.56558131       56      -0.00000095      -0.00000833       0.00005686
I       -3.96615044       0.43844283      15.75059943       57       0.00002145       0.00003205      -0.00008781
I       -0.76450713       6.51739008      10.52538246       58      -0.00005614       0.00001944      -0.00001191
I        8.81034356       3.21992851      15.79077664       59      -0.00000596       0.00004850      -0.00003691
Cs      -7.96265838       8.19326850      10.00887405       60      -0.00000558       0.00006460      -0.00000074
Cs       3.94662279      13.91020837      -1.15674699       61      -0.00002751      -0.00000415      -0.00005391
K        5.18719873       9.06627880       4.43099088       62       0.00005340       0.00014054       0.00005018
In       5.19631017       9.08819368       0.05593476       63       0.00005293      -0.00008057       0.00000545
I       -4.04709302       9.16612076       1.78143280       64       0.00002410      -0.00001591       0.00001319
I       12.12924482       0.65842052       7.03448669       65      -0.00007628       0.00010845       0.00005077
I        5.98097441      15.48206961       1.83352675       66      -0.00002359      -0.00007141       0.00006700
I       -9.99711549       6.62153373       7.01854679       67      -0.00003433      -0.00008494      -0.00007968
I       -6.79548300      12.70043972       1.79332883       68      -0.00005538       0.00001595       0.00000325
I        2.77936148       9.40297182       7.05872746       69       0.00002551       0.00005412      -0.00003830
Cs      -7.98077716       8.14972657      18.75899781       70      -0.00004445      -0.00002358      -0.00002611
Cs       3.92848388      13.86661967       7.59337150       71      -0.00004974      -0.00003216      -0.00004945
K        5.16910619       9.02288890      13.18111953       72      -0.00000057      -0.00014350       0.00001430
In       5.17817092       9.04457953       8.80604412       73      -0.00003941       0.00000962       0.00005289
I       -4.06521421       9.12260751      10.53155811       74       0.00003413      -0.00016017      -0.00002524
I       12.11111058       0.61493377      15.78462457       75       0.00006019      -0.00020970      -0.00004644
I        5.96280408      15.43840254      10.58366104       76       0.00011384       0.00009899      -0.00004194
I      -10.01527828       6.57791307      15.76860870       77       0.00007477      -0.00005862       0.00005982
I       -6.81363352      12.65681573      10.54343941       78      -0.00005698       0.00006845      -0.00000660
I        2.76123397       9.35947463      15.80880685       79       0.00002792      -0.00005375       0.00004056
