20
Lattice="18.480314903125276 -1.603331482744396 1.3510891367677782 -3.9019903533795426 8.413321445900307 -0.6898015115953754 -0.604156641005952 0.4427238486670528 8.79715579147754" Properties=species:S:1:pos:R:3:spacegroup_kinds:I:1:forces:R:3 spacegroup="P 1" unit_cell=conventional occupancy="_JSON {\"0\": {\"Cs\": 1.0}, \"1\": {\"Cs\": 1.0}, \"2\": {\"K\": 1.0}, \"3\": {\"In\": 1.0}, \"4\": {\"I\": 1.0}, \"5\": {\"I\": 1.0}, \"6\": {\"I\": 1.0}, \"7\": {\"I\": 1.0}, \"8\": {\"I\": 1.0}, \"9\": {\"I\": 1.0}, \"10\": {\"Cs\": 1.0}, \"11\": {\"Cs\": 1.0}, \"12\": {\"K\": 1.0}, \"13\": {\"In\": 1.0}, \"14\": {\"I\": 1.0}, \"15\": {\"I\": 1.0}, \"16\": {\"I\": 1.0}, \"17\": {\"I\": 1.0}, \"18\": {\"I\": 1.0}, \"19\": {\"I\": 1.0}}" energy=-51.58762967100611 free_energy=-51.58762967100611 stress="1.934521383209745e-06 -6.60382433954666e-06 -4.304525351092149e-07 -6.60382433954666e-06 -3.2029148088661426e-06 2.2476374547448753e-06 -4.304525351092149e-07 2.2476374547448753e-06 2.417794210277077e-06" pbc="T T T"
Cs       0.47131383       5.81302257       8.58545327        0       0.00004672       0.00019577      -0.00011771
Cs       4.85058431       2.74280266       9.07354181        1       0.00007504      -0.00010410       0.00003304
K        0.29510935       0.25187563       4.43837689        2      -0.00037385      -0.00053320      -0.00055467
In       0.59581460       0.02922499       0.03954790        3      -0.00002983      -0.00003732       0.00016211
I        1.86603230       2.12056910       1.79421978        4       0.00039909      -0.00065535       0.00027352
I        4.05981715       5.99357402       7.06674722        5      -0.00031172      -0.00062524       0.00051959
I        2.53664317       0.18378235       7.25363442        6      -0.00015103       0.00065241      -0.00027879
I        7.29155707      -0.48500638       2.29880849        7       0.00035426       0.00052925      -0.00024977
I       -2.39460847       6.32971051       1.29138394        8       0.00005381       0.00037584       0.00000450
I       -0.91954523       2.58501680       6.89503315        9      -0.00006243       0.00020364       0.00020915
Cs       9.71147133       5.01135670       9.26099780       10       0.00004625       0.00019649      -0.00011730
Cs      14.09074172       1.94113704       9.74908641       11       0.00007551      -0.00010482       0.00003263
K        9.53526675      -0.54978990       5.11392153       12      -0.00037350      -0.00053447      -0.00055541
In       9.83597166      -0.77243920       0.71509170       13      -0.00002787      -0.00004578       0.00016665
I       11.10618973       1.31890322       2.46976426       14       0.00039939      -0.00065444       0.00027415
I       13.29997463       5.19190843       7.74229187       15      -0.00031203      -0.00062617       0.00051895
I       11.77680062      -0.61788343       7.92917897       16      -0.00015098       0.00065267      -0.00027866
I       16.53171452      -1.28667208       2.97435308       17       0.00035420       0.00052899      -0.00024990
I        6.84554919       5.52804416       1.96692898       18       0.00005259       0.00037903       0.00000162
I        8.32061243       1.78335046       7.57057818       19      -0.00006364       0.00020680       0.00020629
