160
Lattice="18.02829516343775 -2.1911339404020325 1.339840516122449 -8.540528757582612 21.079671592660343 -0.6842052590750471 -0.4676041979400707 -5.490441758416599 23.85677641186817" Properties=species:S:1:pos:R:3:spacegroup_kinds:I:1:forces:R:3 spacegroup="P 1" unit_cell=conventional occupancy="_JSON {\"0\": {\"Cs\": 1.0}, \"1\": {\"Cs\": 1.0}, \"2\": {\"Cs\": 1.0}, \"3\": {\"Cs\": 1.0}, \"4\": {\"Pb\": 1.0}, \"5\": {\"Pb\": 1.0}, \"6\": {\"Pb\": 1.0}, \"7\": {\"Pb\": 1.0}, \"8\": {\"I\": 1.0}, \"9\": {\"I\": 1.0}, \"10\": {\"I\": 1.0}, \"11\": {\"I\": 1.0}, \"12\": {\"I\": 1.0}, \"13\": {\"I\": 1.0}, \"14\": {\"I\": 1.0}, \"15\": {\"I\": 1.0}, \"16\": {\"I\": 1.0}, \"17\": {\"I\": 1.0}, \"18\": {\"I\": 1.0}, \"19\": {\"I\": 1.0}, \"20\": {\"Cs\": 1.0}, \"21\": {\"Cs\": 1.0}, \"22\": {\"Cs\": 1.0}, \"23\": {\"Cs\": 1.0}, \"24\": {\"Pb\": 1.0}, \"25\": {\"Pb\": 1.0}, \"26\": {\"Pb\": 1.0}, \"27\": {\"Pb\": 1.0}, \"28\": {\"I\": 1.0}, \"29\": {\"I\": 1.0}, \"30\": {\"I\": 1.0}, \"31\": {\"I\": 1.0}, \"32\": {\"I\": 1.0}, \"33\": {\"I\": 1.0}, \"34\": {\"I\": 1.0}, \"35\": {\"I\": 1.0}, \"36\": {\"I\": 1.0}, \"37\": {\"I\": 1.0}, \"38\": {\"I\": 1.0}, \"39\": {\"I\": 1.0}, \"40\": {\"Cs\": 1.0}, \"41\": {\"Cs\": 1.0}, \"42\": {\"Cs\": 1.0}, \"43\": {\"Cs\": 1.0}, \"44\": {\"Pb\": 1.0}, \"45\": {\"Pb\": 1.0}, \"46\": {\"Pb\": 1.0}, \"47\": {\"Pb\": 1.0}, \"48\": {\"I\": 1.0}, \"49\": {\"I\": 1.0}, \"50\": {\"I\": 1.0}, \"51\": {\"I\": 1.0}, \"52\": {\"I\": 1.0}, \"53\": {\"I\": 1.0}, \"54\": {\"I\": 1.0}, \"55\": {\"I\": 1.0}, \"56\": {\"I\": 1.0}, \"57\": {\"I\": 1.0}, \"58\": {\"I\": 1.0}, \"59\": {\"I\": 1.0}, \"60\": {\"Cs\": 1.0}, \"61\": {\"Cs\": 1.0}, \"62\": {\"Cs\": 1.0}, \"63\": {\"Cs\": 1.0}, \"64\": {\"Pb\": 1.0}, \"65\": {\"Pb\": 1.0}, \"66\": {\"Pb\": 1.0}, \"67\": {\"Pb\": 1.0}, \"68\": {\"I\": 1.0}, \"69\": {\"I\": 1.0}, \"70\": {\"I\": 1.0}, \"71\": {\"I\": 1.0}, \"72\": {\"I\": 1.0}, \"73\": {\"I\": 1.0}, \"74\": {\"I\": 1.0}, \"75\": {\"I\": 1.0}, \"76\": {\"I\": 1.0}, \"77\": {\"I\": 1.0}, \"78\": {\"I\": 1.0}, \"79\": {\"I\": 1.0}, \"80\": {\"Cs\": 1.0}, \"81\": {\"Cs\": 1.0}, \"82\": {\"Cs\": 1.0}, \"83\": {\"Cs\": 1.0}, \"84\": {\"Pb\": 1.0}, \"85\": {\"Pb\": 1.0}, \"86\": {\"Pb\": 1.0}, \"87\": {\"Pb\": 1.0}, \"88\": {\"I\": 1.0}, \"89\": {\"I\": 1.0}, \"90\": {\"I\": 1.0}, \"91\": {\"I\": 1.0}, \"92\": {\"I\": 1.0}, \"93\": {\"I\": 1.0}, \"94\": {\"I\": 1.0}, \"95\": {\"I\": 1.0}, \"96\": {\"I\": 1.0}, \"97\": {\"I\": 1.0}, \"98\": {\"I\": 1.0}, \"99\": {\"I\": 1.0}, \"100\": {\"Cs\": 1.0}, \"101\": {\"Cs\": 1.0}, \"102\": {\"Cs\": 1.0}, \"103\": {\"Cs\": 1.0}, \"104\": {\"Pb\": 1.0}, \"105\": {\"Pb\": 1.0}, \"106\": {\"Pb\": 1.0}, \"107\": {\"Pb\": 1.0}, \"108\": {\"I\": 1.0}, \"109\": {\"I\": 1.0}, \"110\": {\"I\": 1.0}, \"111\": {\"I\": 1.0}, \"112\": {\"I\": 1.0}, \"113\": {\"I\": 1.0}, \"114\": {\"I\": 1.0}, \"115\": {\"I\": 1.0}, \"116\": {\"I\": 1.0}, \"117\": {\"I\": 1.0}, \"118\": {\"I\": 1.0}, \"119\": {\"I\": 1.0}, \"120\": {\"Cs\": 1.0}, \"121\": {\"Cs\": 1.0}, \"122\": {\"Cs\": 1.0}, \"123\": {\"Cs\": 1.0}, \"124\": {\"Pb\": 1.0}, \"125\": {\"Pb\": 1.0}, \"126\": {\"Pb\": 1.0}, \"127\": {\"Pb\": 1.0}, \"128\": {\"I\": 1.0}, \"129\": {\"I\": 1.0}, \"130\": {\"I\": 1.0}, \"131\": {\"I\": 1.0}, \"132\": {\"I\": 1.0}, \"133\": {\"I\": 1.0}, \"134\": {\"I\": 1.0}, \"135\": {\"I\": 1.0}, \"136\": {\"I\": 1.0}, \"137\": {\"I\": 1.0}, \"138\": {\"I\": 1.0}, \"139\": {\"I\": 1.0}, \"140\": {\"Cs\": 1.0}, \"141\": {\"Cs\": 1.0}, \"142\": {\"Cs\": 1.0}, \"143\": {\"Cs\": 1.0}, \"144\": {\"Pb\": 1.0}, \"145\": {\"Pb\": 1.0}, \"146\": {\"Pb\": 1.0}, \"147\": {\"Pb\": 1.0}, \"148\": {\"I\": 1.0}, \"149\": {\"I\": 1.0}, \"150\": {\"I\": 1.0}, \"151\": {\"I\": 1.0}, \"152\": {\"I\": 1.0}, \"153\": {\"I\": 1.0}, \"154\": {\"I\": 1.0}, \"155\": {\"I\": 1.0}, \"156\": {\"I\": 1.0}, \"157\": {\"I\": 1.0}, \"158\": {\"I\": 1.0}, \"159\": {\"I\": 1.0}}" energy=-448.4792488058372 free_energy=-448.4792488058372 stress="5.322720300458166e-07 2.6270976244446147e-07 9.961872970171667e-07 2.6270976244446147e-07 7.399450896435702e-07 -1.0667649204192943e-07 9.961872970171667e-07 -1.0667649204192943e-07 -9.810693862052485e-07" pbc="T T T"
Cs       1.77545309       9.18581942       2.14360978        0      -0.00004809       0.00023888       0.00017583
Cs      -2.05847548       5.01816311       2.06879106        1       0.00023407       0.00003655      -0.00019312
Cs       6.78247128      -0.01471143       8.76599066        2      -0.00014604       0.00031708      -0.00014339
Cs       7.02797039       6.33401116       9.94957817        3       0.00008569      -0.00032910      -0.00026337
Pb       1.43362968      -3.54317888      25.97777206        4      -0.00024378       0.00000831      -0.00031119
Pb       1.93655186       4.77097650      -0.76173223        5       0.00008532      -0.00037745      -0.00017052
Pb       1.98894038      -0.51288722       5.32470348        6       0.00023497      -0.00000707       0.00015132
Pb       3.61042328       4.17071466       7.28482622        7       0.00003104      -0.00028984       0.00008934
I       -0.53171712       6.56886601      -1.17621034        8      -0.00020141      -0.00008853       0.00005406
I        4.37574357       2.32714045      -0.07174364        9       0.00004927      -0.00000778      -0.00032838
I        8.51965292       0.56698126       4.82265159       10       0.00033172       0.00003295       0.00028491
I        8.62466939      -1.61943525      12.18076101       11       0.00000811      -0.00017072      -0.00018826
I        6.60135581       5.32360604      14.46424482       12       0.00031832       0.00009229       0.00041307
I        1.90072958       5.20702967       2.44139559       13      -0.00005797      -0.00026056      -0.00017138
I        0.09494916       8.31986492       5.92407318       14       0.00038108       0.00020302      -0.00007984
I        4.07404253       1.88459070       4.47193146       15      -0.00005549       0.00012342      -0.00010166
I       -2.34570997      11.88102717       7.67651609       16      -0.00027479      -0.00002853      -0.00015696
I        6.51507119       3.53630101       7.28415030       17       0.00031660       0.00010616      -0.00005348
I        4.27860561       7.25894158       7.01216784       18      -0.00029327       0.00048724       0.00053491
I        3.53881908       4.60277502      10.37090616       19       0.00060211      -0.00044261       0.00000242
Cs       1.54425963       6.44181189      14.07704779       20      -0.00007347       0.00011826       0.00002509
Cs      -2.29437987       2.27233314      13.99752048       21       0.00006304       0.00017660      -0.00017862
Cs       6.54866822      -2.75595700      20.69102185       22       0.00008254      -0.00003648       0.00025133
Cs       6.80090482       3.59111231      21.87592111       23       0.00015797      -0.00017334       0.00041507
Pb       1.66728019      -0.79717096      14.04937558       24       0.00028728      -0.00004786      -0.00071327
Pb       1.69924865       2.02712912      11.16613981       25       0.00015602       0.00025275      -0.00010751
Pb       1.75538624      -3.25719339      17.25341909       26      -0.00037672       0.00010832      -0.00029054
Pb       3.38120275       1.42588728      19.21558155       27       0.00009832      -0.00006538      -0.00023067
I       -0.77436778       3.81689727      10.74973376       28      -0.00002319      -0.00009770      -0.00014649
I        4.14196136      -0.41369444      11.85758741       29       0.00003519      -0.00028876       0.00027006
I        8.28915902      -2.17746697      16.75468250       30      -0.00006181      -0.00040820      -0.00030881
I        8.39167598      -4.36478235      24.10622450       31      -0.00002889       0.00010426      -0.00029431
I        6.37438116       2.57882369      26.39087663       32      -0.00030858      -0.00024676       0.00023080
I        1.66227214       2.46285475      14.36919708       33       0.00027119      -0.00029618       0.00012238
I       -0.13633842       5.57857543      17.85046488       34       0.00005516      -0.00014365       0.00008563
I        3.83956763      -0.85857529      16.40164785       35      -0.00022788      -0.00008323      -0.00020441
I       -2.57933920       9.13482025      19.60467826       36      -0.00006422      -0.00013607       0.00013706
I        6.28699792       0.79514170      19.20599319       37       0.00012037       0.00044070       0.00006753
I        4.04472490       4.51504082      18.94733482       38       0.00001201       0.00032983      -0.00008069
I        3.32080431       1.84771870      22.30306598       39      -0.00027920      -0.00011415      -0.00025567
Cs       6.05090428      -1.35471162       2.50035773       40      -0.00025216      -0.00010684      -0.00017536
Cs      -6.33053037      15.55877863       1.72137638       41       0.00017088       0.00020835       0.00008014
Cs       2.50792655      10.52804992       8.41753614       42       0.00002107      -0.00013297      -0.00001951
Cs       2.76189015      16.87393917       9.60559330       43       0.00014661       0.00002719      -0.00008679
Pb      -2.83880692       6.99371320      25.63691344       44      -0.00006404       0.00038360       0.00036111
Pb      -2.33370030      15.30739206      -1.10320067       45       0.00013414      -0.00006594      -0.00022506
Pb      -2.28295594      10.02318396       4.98325320       46       0.00021937      -0.00022844       0.00032770
Pb      -0.65499089      14.70678719       6.94259291       47      -0.00027503      -0.00045296      -0.00030857
I       -4.80136884      17.10358860      -1.52397344       48      -0.00009710       0.00018304      -0.00000294
I        0.10546639      12.86134709      -0.41087483       49       0.00011387       0.00010127      -0.00013586
I        4.24781769      11.10232645       4.47145690       50       0.00030426       0.00012332       0.00019657
I        4.35466466       8.92207660      11.83286107       51      -0.00059591       0.00002661      -0.00061469
I        2.32927261      15.86101362      14.12415808       52       0.00026870      -0.00000035      -0.00008168
I       -2.37226683      15.74497468       2.09927075       53       0.00033676      -0.00000303       0.00006151
I       -4.17317458      18.86572658       5.58520283       54       0.00040780       0.00009762      -0.00018156
I       -0.19673149      12.41932755       4.12979402       55      -0.00050523       0.00027166      -0.00025868
I        1.91826769       1.34626093       8.01680293       56      -0.00021077       0.00012582      -0.00020506
I        2.25128200      14.07889437       6.93256432       57       0.00017725      -0.00003582       0.00008438
I        0.00783678      17.79640665       6.67366930       58      -0.00009426       0.00016174       0.00025627
I       -0.71821577      15.13176759      10.02898491       59       0.00004143      -0.00007164       0.00030588
Cs       5.81884051      -4.09821594      14.43314512       60      -0.00003802       0.00002165       0.00004246
Cs      -6.56585690      12.81421012      13.64871097       61       0.00002757      -0.00000070       0.00017456
Cs       2.27330111       7.78474932      20.34785396       62      -0.00015536      -0.00002794      -0.00009340
Cs       2.53076906      14.12851673      21.53483908       63      -0.00019331      -0.00009309       0.00007959
Pb      -2.60525657       9.74175975      13.70745818       64      -0.00032526      -0.00029990      -0.00030265
Pb      -2.56899970      12.56476172      10.82436094       65      -0.00012230      -0.00061910       0.00010543
Pb      -2.51583314       7.27971140      16.90905796       66      -0.00000320       0.00021309       0.00033067
Pb      -0.88877536      11.96229007      18.87291203       67       0.00024502      -0.00038908      -0.00007099
I       -5.03838135      14.35849536      10.40333300       68      -0.00028792       0.00021434      -0.00005162
I       -0.12896798      10.12018891      11.51620584       69      -0.00006578       0.00000287       0.00028084
I        4.01385425       8.36067921      16.40310639       70      -0.00005692       0.00002356       0.00024274
I        4.12312070       6.17536504      23.76032211       71       0.00016639       0.00017194       0.00013198
I        2.09788580      13.11728763      26.05272904       72      -0.00024287       0.00015263       0.00021220
I       -2.60818036      13.00190985      14.02750214       73       0.00008717       0.00022703      -0.00031581
I       -4.40646296      16.12173711      17.51469180       74      -0.00001682      -0.00036577      -0.00002640
I       -0.43185299       9.67830137      16.05784254       75       0.00005434      -0.00007364       0.00026603
I        1.68199223      -1.39623992      19.94449097       76       0.00005468      -0.00007449       0.00007568
I        2.01745368      11.33467384      18.86060097       77      -0.00015703       0.00008808       0.00006448
I       -0.22564973      15.05177269      18.60610398       78      -0.00002303      -0.00009351       0.00002086
I       -0.94820502      12.38274751      21.96020586       79       0.00002505       0.00002747       0.00021273
Cs      10.80934085       8.08984480       2.84792424       80      -0.00018821      -0.00001356       0.00009499
Cs       6.94723954       3.92208183       2.72888679       81      -0.00010762       0.00013881       0.00024046
Cs      15.80262577      -1.10785413       9.44812016       82       0.00013225      -0.00013204      -0.00005401
Cs      -1.99385767       7.42745190       9.28305960       83      -0.00004333      -0.00001938      -0.00005741
Pb      10.44441489      -4.64053939      26.64294577       84      -0.00007834      -0.00036947      -0.00000747
Pb      10.93787400       3.67531417      -0.09551547       85       0.00040871       0.00040633      -0.00035449
Pb      11.00518377      -1.60768766       5.99153064       86       0.00009450       0.00018963      -0.00039811
Pb      12.61427773       3.07356476       7.95882123       87       0.00046677       0.00025930       0.00039262
I        8.46156548       5.45627000      -0.52417947       88      -0.00007260      -0.00037977       0.00002529
I       13.39021419       1.24138805       0.60020898       89      -0.00019657       0.00013486       0.00020992
I       -0.48860436       1.67785063       4.16158015       90      -0.00042109       0.00019870       0.00002077
I       -0.38762317      -0.51660906      11.51402457       91      -0.00004691       0.00007305       0.00000253
I       15.59729251       4.22799408      15.13565458       92      -0.00001325      -0.00009884       0.00007305
I       10.89616988       4.11040423       3.10768603       93       0.00023165       0.00025563       0.00058144
I        9.11783461       7.24075864       6.60050483       94      -0.00002089       0.00036307       0.00004705
I       13.08114280       0.79840597       5.14217680       95       0.00006224      -0.00008686       0.00035161
I        6.64930701      10.79664479       8.33576523       96      -0.00001664      -0.00016770      -0.00015678
I       -2.50985817       4.62775246       6.62389586       97      -0.00014752       0.00013634      -0.00011708
I       13.28870970       6.16356890       7.69191939       98       0.00007664      -0.00034421      -0.00012099
I       12.54023611       3.50950605      11.04438710       99       0.00007833      -0.00001979      -0.00049620
Cs      10.57101233       5.34562487      14.77283052      100       0.00015885       0.00006490      -0.00003105
Cs       6.71645066       1.17720590      14.66507496      101      -0.00027080      -0.00022879      -0.00023003
Cs      15.56879546      -3.84906863      21.37735448      102       0.00009281      -0.00043024       0.00005118
Cs      -2.22620445       4.68443429      21.20713749      103      -0.00040254      -0.00002993       0.00007065
Pb      10.67973593      -1.89656273      14.71514332      104      -0.00023189      -0.00011160       0.00067690
Pb      10.70397684       0.93035964      11.83432440      105       0.00018529       0.00009807      -0.00008211
Pb      10.77303567      -4.35564217      17.92070749      106      -0.00028476       0.00007694       0.00024594
Pb      12.38364742       0.32724974      19.88545794      107      -0.00013484       0.00019624       0.00014709
I        8.22671690       2.71070302      11.41020889      108       0.00002178      -0.00006006      -0.00019441
I       13.15570954      -1.50604751      12.52811107      109       0.00004508       0.00005004      -0.00022877
I       -0.72350659      -1.07019349      16.08818589      110      -0.00039267       0.00031465       0.00023208
I       -0.62283013      -3.25914901      23.44337151      111       0.00041415       0.00010842      -0.00012216
I       15.35956014       1.48038860      27.06656216      112      -0.00001994      -0.00047410      -0.00025000
I       10.66746873       1.36412589      15.03779936      113      -0.00025743       0.00021118       0.00035406
I        8.88505714       4.49914964      18.52729157      114      -0.00020167       0.00015551       0.00012147
I       12.85013091      -1.95183108      17.07011718      115      -0.00010684       0.00024401      -0.00015795
I        6.41427413       8.05374917      20.26460870      116       0.00002936      -0.00017315       0.00016419
I       -2.73971979       1.88430278      18.54857673      117       0.00044631      -0.00008650       0.00001021
I       13.05599010       3.41742811      19.61626711      118       0.00001061      -0.00016868      -0.00000146
I       12.31011881       0.76240150      22.97037916      119       0.00023861      -0.00005567      -0.00007144
Cs      15.07557722      -2.44777409       3.18705373      120      -0.00010246       0.00003356       0.00003670
Cs       2.67793313      14.45869297       2.39183493      121      -0.00015105      -0.00012718       0.00024781
Cs      11.53382843       9.43415108       9.10356154      122       0.00009576      -0.00026274      -0.00024079
Cs      -6.26290618      17.96921313       8.94123804      123      -0.00009630      -0.00004839      -0.00017817
Pb       6.17615465       5.90038137      26.29646677      124      -0.00014171      -0.00018611       0.00026988
Pb       6.66475163      14.21890401      -0.44127918      125       0.00033960       0.00007203       0.00012314
Pb       6.73545983       8.93328793       5.64641584      126       0.00005087      -0.00039551      -0.00042176
Pb       8.34769251      13.61569430       7.61179083      127      -0.00000994      -0.00021009      -0.00000381
I        4.18328833      15.99513930      -0.86325347      128       0.00023220       0.00003151       0.00011645
I        9.11958922      11.78821410       0.25205734      129      -0.00010333      -0.00009349      -0.00024549
I       -4.75941953      12.21805273       3.82271911      130       0.00016276      -0.00003934       0.00000534
I       -4.65985996      10.02386866      11.17174207      131       0.00007024       0.00043099       0.00010639
I       11.33360080      14.76820624      14.79565295      132      -0.00013215      -0.00015993       0.00016240
I        6.62715871      14.65120811       2.76316667      133      -0.00006443       0.00024590      -0.00001088
I        4.84944595      17.78064767       6.25775444      134       0.00016248       0.00024191       0.00012046
I        8.81254169      11.33880920       4.79759281      135      -0.00016894       0.00032622      -0.00040403
I       10.92402743       0.25084656       8.68466341      136       0.00013059      -0.00011315      -0.00025453
I       -6.77610448      15.17083233       6.27865453      137      -0.00085255      -0.00000734       0.00012924
I        9.02049116      16.70595152       7.34684015      138       0.00004362      -0.00033832       0.00005792
I        8.27132245      14.04988146      10.69733409      139      -0.00033611       0.00041186       0.00039710
Cs      14.84048837      -5.19375011      15.11192606      140       0.00010166       0.00010232       0.00000587
Cs       2.44406766      11.71514581      14.31819632      141       0.00003150      -0.00014478      -0.00000033
Cs      11.30386475       6.68783662      21.03025477      142      -0.00013548      -0.00011824       0.00016582
Cs      -6.49920556      15.22224045      20.86916875      143       0.00001964       0.00034004       0.00027782
Pb       6.40796814       8.64550121      14.36883043      144       0.00032129       0.00011574       0.00040433
Pb       6.43251875      11.47196499      11.48644847      145       0.00004886       0.00032921       0.00008508
Pb       6.49972967       6.18979812      17.57607629      146       0.00043083      -0.00006195      -0.00047172
Pb       8.10939490      10.87352366      19.54077258      147      -0.00036277       0.00009087       0.00006327
I        3.95407854      13.25192644      11.06364768      148       0.00013790      -0.00020513       0.00039171
I        8.88403515       9.03744696      12.18106457      149       0.00036349       0.00039202      -0.00005917
I       -4.99437337       9.47190541      15.74907036      150      -0.00006480      -0.00006023      -0.00011527
I       -4.89355733       7.27733776      23.10133985      151      -0.00009581       0.00010633      -0.00031412
I       11.09645381      12.02191738      26.72385268      152       0.00009133      -0.00009728      -0.00024857
I        6.39475712      11.90611137      14.69063483      153      -0.00018181      -0.00002790      -0.00007231
I        4.61785474      15.03332957      18.18685028      154      -0.00022466       0.00010651      -0.00016023
I        8.57696504       8.59364099      16.72523595      155      -0.00008008       0.00021725       0.00025901
I       10.69556560      -2.49662280      20.61264029      156      -0.00014606       0.00010340      -0.00006555
I       -7.01522652      12.42502575      18.20871289      157       0.00031985      -0.00040618       0.00024969
I        8.78663821      13.96298353      19.27670035      158       0.00041792       0.00013706      -0.00024606
I        8.02988092      11.31100063      22.62568272      159      -0.00013214       0.00028886      -0.00023964
