20
Lattice="18.17499764281408 -0.012592911822030522 -3.941110802786966 -4.732867008306431 8.003594936310487 0.08678767658488251 1.8593891575825379 1.00651923661958 8.571856733151645" Properties=species:S:1:pos:R:3:spacegroup_kinds:I:1:forces:R:3 spacegroup="P 1" unit_cell=conventional occupancy="_JSON {\"0\": {\"Cs\": 1.0}, \"1\": {\"Cs\": 1.0}, \"2\": {\"K\": 1.0}, \"3\": {\"In\": 1.0}, \"4\": {\"I\": 1.0}, \"5\": {\"I\": 1.0}, \"6\": {\"I\": 1.0}, \"7\": {\"I\": 1.0}, \"8\": {\"I\": 1.0}, \"9\": {\"I\": 1.0}, \"10\": {\"Cs\": 1.0}, \"11\": {\"Cs\": 1.0}, \"12\": {\"K\": 1.0}, \"13\": {\"In\": 1.0}, \"14\": {\"I\": 1.0}, \"15\": {\"I\": 1.0}, \"16\": {\"I\": 1.0}, \"17\": {\"I\": 1.0}, \"18\": {\"I\": 1.0}, \"19\": {\"I\": 1.0}}" energy=-51.587631497079805 free_energy=-51.587631497079805 stress="1.7372412591790123e-07 -3.0744178227019e-07 1.1841940081412797e-07 -3.0744178227019e-07 5.318229751679722e-07 -4.1950135315257314e-07 1.1841940081412797e-07 -4.1950135315257314e-07 1.15301917693464e-06" pbc="T T T"
Cs       7.61008260       3.67272154       6.98469833        0      -0.00049922      -0.00018770       0.00025087
Cs       1.15444186       5.34187432      -0.85123928        1       0.00015249      -0.00018062       0.00017054
K        2.20467349       0.50777028       4.00835975        2       0.00033256       0.00043259       0.00056749
In       1.27538006       0.00512705      -0.27736874        3       0.00011435       0.00031520       0.00025750
I        8.35128711       0.21865314      -0.01790662        4       0.00067829      -0.00014613       0.00008928
I        5.14583668       0.79227743       6.06484085        5       0.00005053      -0.00004627      -0.00009464
I        2.80312309       2.29520279       0.94199829        6       0.00030424      -0.00011768      -0.00055504
I        5.96110078       6.71894854       5.19200624        7       0.00011724       0.00018165      -0.00011204
I        7.22900299       6.09722961      -0.46491124        8       0.00014560      -0.00008352       0.00044266
I        1.53578973       2.91725822       6.59826119        9      -0.00024764      -0.00036092       0.00020546
Cs      16.69716945       3.66593115       5.01426083       10       0.00046056       0.00014307      -0.00034632
Cs      10.24222206       5.33543336      -2.82179124       11      -0.00002788       0.00014713       0.00001905
K       11.29270057       0.50256840       2.03853493       12      -0.00036069      -0.00026017      -0.00061968
In      10.36264348      -0.00109868      -2.24761141       13      -0.00031101      -0.00013205      -0.00029281
I       17.43931758       0.21220160      -1.98862852       14      -0.00062962      -0.00030871      -0.00012552
I       14.23326648       0.78592911       4.09422583       15      -0.00005690      -0.00011711       0.00009540
I       11.89090244       2.28880952      -1.02908996       16      -0.00015716       0.00037149       0.00059002
I       15.04867189       6.71273470       3.22123340       17       0.00013609      -0.00018246       0.00022958
I       -1.85841695       6.10291574       1.50588213       18      -0.00027781       0.00042842      -0.00061376
I       10.62282035       2.91087024       4.62802349       19       0.00007599       0.00010380      -0.00015801
