40
Lattice="16.149188803185027 0.0 0.0 8.074594401660477 13.985607754030509 0.0 4.037297200895514 2.330934625722423 6.592878902244361" Properties=species:S:1:pos:R:3 pbc="T T T"
Cs       4.03719461       2.33090386       1.64822482
Cs      12.11199396       6.99283386       4.94465357
K        8.07459424       4.66186882       3.29643916
In       0.00000017       0.00000065       0.00000026
I        6.93295742       1.97302907       3.29614574
I        9.21623113       7.35070802       3.29673256
I       10.11246099       3.60793537       1.53209617
I        6.03672641       5.71580165       5.06078202
I        5.91422344       5.90955215       1.53211766
I       10.23496591       3.41418744       5.06076175
Cs       8.07449181       9.32370774       1.64822482
Cs      16.14929116      13.98563773       4.94465357
K       12.11189144      11.65467270       3.29643916
In       4.03729737       6.99280452       0.00000026
I       10.97025462       8.96583295       3.29614574
I       13.25352833      14.34351190       3.29673256
I       14.14975819      10.60073924       1.53209617
I       10.07402361      12.70860552       5.06078202
I        9.95152064      12.90235603       1.53211766
I       14.27226311      10.40699132       5.06076175
Cs      12.11178901       2.33090386       1.64822482
Cs      20.18658836       6.99283386       4.94465357
K       16.14918864       4.66186882       3.29643916
In       8.07459457       0.00000065       0.00000026
I       15.00755182       1.97302907       3.29614574
I       17.29082553       7.35070802       3.29673256
I       18.18705539       3.60793537       1.53209617
I       14.11132081       5.71580165       5.06078202
I       13.98881784       5.90955215       1.53211766
I       18.30956031       3.41418744       5.06076175
Cs      16.14908621       9.32370774       1.64822482
Cs      24.22388556      13.98563773       4.94465357
K       20.18648584      11.65467270       3.29643916
In      12.11189177       6.99280452       0.00000026
I       19.04484902       8.96583295       3.29614574
I       21.32812273      14.34351190       3.29673256
I       22.22435259      10.60073924       1.53209617
I       18.14861801      12.70860552       5.06078202
I       18.02611504      12.90235603       1.53211766
I       22.34685751      10.40699132       5.06076175
