40
Lattice="17.48923598756973 -0.5496593861884423 -0.4190997614952473 8.254963042670974 15.353736019323513 -0.3870734911203379 4.146642906353407 2.387412677659434 7.344922092122564" Properties=species:S:1:pos:R:3:spacegroup_kinds:I:1:forces:R:3 spacegroup="P 1" unit_cell=conventional occupancy="_JSON {\"0\": {\"Cs\": 1.0}, \"1\": {\"Cs\": 1.0}, \"2\": {\"K\": 1.0}, \"3\": {\"In\": 1.0}, \"4\": {\"I\": 1.0}, \"5\": {\"I\": 1.0}, \"6\": {\"I\": 1.0}, \"7\": {\"I\": 1.0}, \"8\": {\"I\": 1.0}, \"9\": {\"I\": 1.0}, \"10\": {\"Cs\": 1.0}, \"11\": {\"Cs\": 1.0}, \"12\": {\"K\": 1.0}, \"13\": {\"In\": 1.0}, \"14\": {\"I\": 1.0}, \"15\": {\"I\": 1.0}, \"16\": {\"I\": 1.0}, \"17\": {\"I\": 1.0}, \"18\": {\"I\": 1.0}, \"19\": {\"I\": 1.0}, \"20\": {\"Cs\": 1.0}, \"21\": {\"Cs\": 1.0}, \"22\": {\"K\": 1.0}, \"23\": {\"In\": 1.0}, \"24\": {\"I\": 1.0}, \"25\": {\"I\": 1.0}, \"26\": {\"I\": 1.0}, \"27\": {\"I\": 1.0}, \"28\": {\"I\": 1.0}, \"29\": {\"I\": 1.0}, \"30\": {\"Cs\": 1.0}, \"31\": {\"Cs\": 1.0}, \"32\": {\"K\": 1.0}, \"33\": {\"In\": 1.0}, \"34\": {\"I\": 1.0}, \"35\": {\"I\": 1.0}, \"36\": {\"I\": 1.0}, \"37\": {\"I\": 1.0}, \"38\": {\"I\": 1.0}, \"39\": {\"I\": 1.0}}" energy=-102.59569499660199 free_energy=-102.59569499660199 stress="7.431885780656735e-06 1.6212156466760775e-05 -1.2364774377509252e-05 1.6212156466760775e-05 -2.753022836370982e-07 -4.3788089752049436e-07 -1.2364774377509252e-05 -4.3788089752049436e-07 -5.800837043993508e-06" pbc="T T T"
Cs       4.10373782       2.35570132       1.66206454        0       0.00001543       0.00015097       0.00008394
Cs      12.91431539       7.43330095       5.27988970        1       0.00014263       0.00019408      -0.00001103
K        8.50951882       4.89479184       3.47086383        2      -0.00000879      -0.00010149       0.00004090
In      17.48935558      -0.54954409      -0.41908725        3      -0.00034942      -0.00014020       0.00000565
I        8.80302913       1.66994414       2.04473684        4      -0.00031476       0.00006572       0.00001365
I        8.21660810       8.11934904       4.89747570        5      -0.00012186      -0.00002832      -0.00032332
I       11.14176500       5.60554833       1.21627551        6      -0.00014219      -0.00023714       0.00039216
I        5.87688494       4.18389064       5.72506054        7       0.00044314       0.00011918      -0.00014496
I        6.53761189       6.31328572       0.90056306        8       0.00035105      -0.00010933       0.00007428
I       10.48106525       3.47653300       6.04168671        9      -0.00011272      -0.00010151      -0.00017057
Cs       8.23111581      10.03266456       1.46860022       10       0.00011944       0.00015216      -0.00002950
Cs      17.04175657      15.11024435       5.08640025       11       0.00014707       0.00018459      -0.00007899
K       12.63698822      12.57165489       3.27742116       12      -0.00002054      -0.00011551      -0.00006176
In      21.61676382       7.12730300      -0.61264111       13       0.00000544       0.00001201      -0.00002241
I       12.93053672       9.34674582       1.85127861       14      -0.00040831       0.00011505      -0.00017806
I       12.34408250      15.79619052       4.70388099       15      -0.00016462       0.00019245      -0.00014121
I       15.26905086      13.28246831       1.02279120       16       0.00017621       0.00000692       0.00017960
I       10.00443276      11.86086523       5.53133587       17      -0.00002139      -0.00025008       0.00030216
I       10.66513785      13.99001627       0.70697872       18       0.00017796       0.00000077       0.00014351
I       14.60847350      11.15328840       5.84807942       19      -0.00008410      -0.00008243       0.00006257
Cs      12.84834766       2.08064419       1.45243357       20       0.00009919       0.00018901       0.00003268
Cs      21.65901113       7.15832054       5.07013311       21       0.00001286       0.00021915       0.00008972
K       17.25394822       4.61988350       3.26130187       22       0.00002514      -0.00001065       0.00009647
In       8.74469402      -0.27469993      -0.20953060       23      -0.00016760      -0.00024324      -0.00003441
I       17.54763344       1.39519098       1.83517251       24      -0.00025846      -0.00013990       0.00000966
I       16.96120347       7.84457506       4.68779696       25      -0.00011449       0.00005875      -0.00009006
I       19.88605357       5.33083018       1.00674409       26       0.00022223      -0.00005767       0.00019027
I       14.62138174       3.90914766       5.51537175       27       0.00023167       0.00003161       0.00010099
I       15.28246752       6.03856112       0.69091931       28       0.00005549       0.00002612      -0.00021836
I       19.22582823       3.20184575       5.83207158       29      -0.00010007      -0.00019342      -0.00027992
Cs      16.97576359       9.75771406       1.25886169       30       0.00007662       0.00008501       0.00005300
Cs      25.78643351      14.83520375       4.87675782       31       0.00015205       0.00028316      -0.00009770
K       21.38143501      12.29676289       3.06781695       32       0.00000558      -0.00004275       0.00005486
In      12.87211226       7.40216111      -0.40308568       33       0.00020062      -0.00020469      -0.00008033
I       21.67514863       9.07198764       1.64160608       34      -0.00033776       0.00012081      -0.00003166
I       21.08865746      15.52144820       4.49432617       35      -0.00015881      -0.00002872      -0.00014492
I       24.01353067      13.00780583       0.81313105       36       0.00009514      -0.00016741       0.00034723
I       18.74874694      11.58605865       5.32179028       37       0.00028601       0.00006792       0.00009060
I       19.40987251      13.71530960       0.49736036       38       0.00010378      -0.00002233       0.00000964
I       23.35332036      10.87856212       5.63846719       39      -0.00025886       0.00000131      -0.00023437
