20
Lattice="16.149188803185027 0.0 0.0 4.037297200830238 6.9928038770152545 0.0 4.037297200895514 2.330934625722423 6.592878902244361" Properties=species:S:1:pos:R:3 pbc="T T T"
Cs       4.03719461       2.33090386       1.64822482
Cs      12.11199396       6.99283386       4.94465357
K        8.07459424       4.66186882       3.29643916
In       0.00000017       0.00000065       0.00000026
I        6.93295742       1.97302907       3.29614574
I        9.21623113       7.35070802       3.29673256
I       10.11246099       3.60793537       1.53209617
I        6.03672641       5.71580165       5.06078202
I        5.91422344       5.90955215       1.53211766
I       10.23496591       3.41418744       5.06076175
Cs      12.11178901       2.33090386       1.64822482
Cs      20.18658836       6.99283386       4.94465357
K       16.14918864       4.66186882       3.29643916
In       8.07459457       0.00000065       0.00000026
I       15.00755182       1.97302907       3.29614574
I       17.29082553       7.35070802       3.29673256
I       18.18705539       3.60793537       1.53209617
I       14.11132081       5.71580165       5.06078202
I       13.98881784       5.90955215       1.53211766
I       18.30956031       3.41418744       5.06076175
