20
Lattice="12.348402544693144 -1.2655998517805054 3.214658891148036 0.5721423805290677 12.478115161523744 2.7384228186190915 -1.787717567945896 -1.241929688837936 6.018134227533167" Properties=species:S:1:pos:R:3:spacegroup_kinds:I:1:forces:R:3 spacegroup="P 1" unit_cell=conventional occupancy="_JSON {\"0\": {\"Cs\": 1.0}, \"1\": {\"Pb\": 1.0}, \"2\": {\"I\": 1.0}, \"3\": {\"I\": 1.0}, \"4\": {\"I\": 1.0}, \"5\": {\"Cs\": 1.0}, \"6\": {\"Pb\": 1.0}, \"7\": {\"I\": 1.0}, \"8\": {\"I\": 1.0}, \"9\": {\"I\": 1.0}, \"10\": {\"Cs\": 1.0}, \"11\": {\"Pb\": 1.0}, \"12\": {\"I\": 1.0}, \"13\": {\"I\": 1.0}, \"14\": {\"I\": 1.0}, \"15\": {\"Cs\": 1.0}, \"16\": {\"Pb\": 1.0}, \"17\": {\"I\": 1.0}, \"18\": {\"I\": 1.0}, \"19\": {\"I\": 1.0}}" energy=-55.937651797657765 free_energy=-55.937651797657765 stress="-1.0624901499179282e-05 7.899819452005727e-07 6.650906725940003e-06 7.899819452005727e-07 -4.571152955131065e-06 -6.627710942442386e-06 6.650906725940003e-06 -6.627710942442386e-06 1.946032792187965e-05" pbc="T T T"
Cs       1.72245498       2.36741742       4.55588694        0       0.00020742       0.00068044      -0.00009547
Pb      -0.24707806       0.19762550      -0.03305497        1      -0.00004537      -0.00026409       0.00022667
I       11.35561071      -1.69953623       6.20469597        2      -0.00007776       0.00025681      -0.00027838
I        2.92444251      -0.09069886       0.65952417        3      -0.00021731      -0.00048455       0.00010141
I        0.02603562       3.30697126       0.67641652        4       0.00013323      -0.00018948       0.00004550
Cs       2.00852623       8.60647502       5.92509843        5       0.00020734       0.00068045      -0.00009549
Pb       0.03899373       6.43668253       1.33615700        6      -0.00004620      -0.00026216       0.00022564
I       11.64168157       4.53952128       7.57390630        7      -0.00007805       0.00025643      -0.00027678
I        3.21051346       6.14835882       2.02873556        8      -0.00021646      -0.00048469       0.00010137
I       12.66050939       8.28042896       5.26028686        9       0.00013321      -0.00018915       0.00004554
Cs       7.89665627       1.73461748       6.16321640       10       0.00020736       0.00068053      -0.00009548
Pb       5.92712338      -0.43517448       1.57427469       11      -0.00004617      -0.00026383       0.00022617
I        5.18140934      -1.06673632       4.59736625       12      -0.00007776       0.00025672      -0.00027792
I        9.09864367      -0.72349876       2.26685355       13      -0.00021677      -0.00048459       0.00010151
I        6.20023688       2.67417129       2.28374595       14       0.00013330      -0.00018916       0.00004555
Cs       8.18272750       7.97367510       7.53242789       15       0.00020731       0.00068036      -0.00009553
Pb       6.21319494       5.80388268       2.94348648       16      -0.00004597      -0.00026235       0.00022561
I        5.46748029       5.17232119       5.96657682       17      -0.00007806       0.00025643      -0.00027670
I        9.38471475       5.51555889       3.63606502       18      -0.00021654      -0.00048468       0.00010133
I        6.48630812       8.91322892       3.65295746       19       0.00013325      -0.00018944       0.00004545
