20
Lattice="12.772470101288329 -0.9979757915014229 -0.5764522465378923 1.0592116857730636 12.647082923923463 1.5619022750536056 0.31657853784360906 -0.8120225721715509 6.339562908806422" Properties=species:S:1:pos:R:3:spacegroup_kinds:I:1:forces:R:3 spacegroup="P 1" unit_cell=conventional occupancy="_JSON {\"0\": {\"Cs\": 1.0}, \"1\": {\"Pb\": 1.0}, \"2\": {\"I\": 1.0}, \"3\": {\"I\": 1.0}, \"4\": {\"I\": 1.0}, \"5\": {\"Cs\": 1.0}, \"6\": {\"Pb\": 1.0}, \"7\": {\"I\": 1.0}, \"8\": {\"I\": 1.0}, \"9\": {\"I\": 1.0}, \"10\": {\"Cs\": 1.0}, \"11\": {\"Pb\": 1.0}, \"12\": {\"I\": 1.0}, \"13\": {\"I\": 1.0}, \"14\": {\"I\": 1.0}, \"15\": {\"Cs\": 1.0}, \"16\": {\"Pb\": 1.0}, \"17\": {\"I\": 1.0}, \"18\": {\"I\": 1.0}, \"19\": {\"I\": 1.0}}" energy=-55.93767541621419 free_energy=-55.93767541621419 stress="-1.9422901074302472e-06 1.6438425644585998e-06 -1.5666873101692949e-06 1.6438425644585998e-06 -2.9674792540780578e-06 -9.832208160684074e-06 -1.5666873101692949e-06 -9.832208160684074e-06 7.531311313290149e-06" pbc="T T T"
Cs       3.85005221       2.57266814       3.59465764        0      -0.00010727       0.00013650       0.00009728
Pb      -0.10205546       0.11670888       0.01452913        1      -0.00031362       0.00024825       0.00007792
I       12.68125893      -1.27364188       2.59094872        2       0.00007954       0.00009125      -0.00018266
I        3.03552765      -0.11253835      -0.25389160        3      -0.00029100       0.00019052      -0.00015444
I        0.02646171       3.29037403       0.40088451        4       0.00010837      -0.00007474       0.00021492
Cs       4.37964641       8.89618280       4.37559436        5       0.00003044       0.00017435       0.00010336
Pb       0.42762251       6.44044935       0.79557454        6      -0.00041144      -0.00068362      -0.00007239
I       13.21088020       5.04988149       3.37194547        7       0.00004068       0.00016015      -0.00018005
I        3.56496343       6.21107818       0.52710021        8       0.00024025       0.00013235      -0.00016091
I        0.55605714       9.61394947       1.18184090        9       0.00006003      -0.00028098       0.00019669
Cs      10.23629713       2.07365469       3.30642956       10      -0.00002392       0.00011395       0.00009830
Pb       6.28400503      -0.38205492      -0.27351461       11       0.00042505      -0.00065988      -0.00033923
I        6.29505051      -0.77471561       2.87899073       12       0.00000843       0.00016233       0.00020781
I        9.42166982      -0.61145963      -0.54209782       13       0.00011554       0.00013578      -0.00013730
I        6.41270328       2.79140315       0.11269133       14       0.00003229       0.00023519       0.00021788
Cs      10.76591209       8.39716661       4.08736039       15      -0.00014864       0.00022017       0.00011118
Pb       6.81373677       5.94128938       0.50724665       16       0.00012527       0.00027563       0.00002172
I        6.82466345       5.54884564       3.66004972       17      -0.00001515       0.00011903      -0.00005488
I        9.95120518       5.71206039       0.23883159       18       0.00006937       0.00014254      -0.00012559
I        6.94230940       9.11511746       0.89372454       19      -0.00002420      -0.00083876       0.00006040
