20
Lattice="15.141868016993719 0.0 0.0 2.2475447845891843 13.391987543150911 0.0 0.40986508280215334 -1.5177276681655771 5.285533526328647" Properties=species:S:1:pos:R:3:oxi_states:R:1 pbc="T T T"
Cs       4.55238549       2.58903331       2.64276676       1.00000000
Pb      -0.00000000      -0.00000000       0.00000000       2.00000000
I       -0.36224097      -0.19169140       2.64276716      -1.00000000
I        3.78546700       0.00000000      -0.00000000      -1.00000000
I        0.56188620       3.34799689       0.00000000      -1.00000000
Cs       5.67615788       9.28502708       2.64276676       1.00000000
Pb       1.12377239       6.69599377       0.00000000       2.00000000
I        0.76153142       6.50430237       2.64276716      -1.00000000
I        4.90923940       6.69599377      -0.00000000      -1.00000000
I        1.68565859      10.04399066       0.00000000      -1.00000000
Cs      12.12331949       2.58903331       2.64276676       1.00000000
Pb       7.57093401      -0.00000000       0.00000000       2.00000000
I        7.20869304      -0.19169140       2.64276716      -1.00000000
I       11.35640101       0.00000000      -0.00000000      -1.00000000
I        8.13282020       3.34799689       0.00000000      -1.00000000
Cs      13.24709189       9.28502708       2.64276676       1.00000000
Pb       8.69470640       6.69599377       0.00000000       2.00000000
I        8.33246543       6.50430237       2.64276716      -1.00000000
I       12.48017341       6.69599377      -0.00000000      -1.00000000
I        9.25659260      10.04399066       0.00000000      -1.00000000
