10
Lattice="8.972042886807989 -0.2668152634040911 -2.431101590818642 -4.583706487011495 8.088122930312732 -0.02294119151828437 2.319240104986728 1.3380456686747695 8.413649543382329" Properties=species:S:1:pos:R:3:spacegroup_kinds:I:1:forces:R:3 spacegroup="P 1" unit_cell=conventional occupancy="_JSON {\"0\": {\"Cs\": 1.0}, \"1\": {\"Cs\": 1.0}, \"2\": {\"K\": 1.0}, \"3\": {\"In\": 1.0}, \"4\": {\"I\": 1.0}, \"5\": {\"I\": 1.0}, \"6\": {\"I\": 1.0}, \"7\": {\"I\": 1.0}, \"8\": {\"I\": 1.0}, \"9\": {\"I\": 1.0}}" energy=-25.793814016640937 free_energy=-25.793814016640937 stress="-5.104807453239406e-07 3.2226315584697795e-06 1.8188638803160787e-06 3.2226315584697795e-06 -8.348281123764382e-06 1.417235220270299e-06 1.8188638803160787e-06 1.417235220270299e-06 3.858743842449658e-06" pbc="T T T"
Cs       3.45439163       3.10019433      -1.47323297        0       0.00041485      -0.00006288       0.00019441
Cs       1.26927467       7.23171749       7.79340858        1      -0.00006432       0.00008059      -0.00033192
K        9.13964332       0.98838558       1.95643671        2      -0.00009045      -0.00006485      -0.00064866
In       7.98032765       0.31967253      -2.25103166        3      -0.00045598      -0.00048210      -0.00005004
I        7.22892572       2.70066991      -0.56826756        4      -0.00062790      -0.00026548      -0.00037959
I        6.46706972       7.36440547       4.45702730        5       0.00055079       0.00042961       0.00053532
I        1.99971284       3.71654002       6.26953212        6      -0.00000898      -0.00036415       0.00001523
I        2.72441793       6.61546899       0.04996118        7      -0.00040117       0.00032436       0.00047133
I        1.82406469       0.80012968       1.22345673        8       0.00053642       0.00049561       0.00031613
I        7.48324599       1.44352111       5.11954696        9       0.00014673      -0.00009072      -0.00012222
