10
Lattice="9.763581570600149 0.0 0.0 -4.881790785300073 8.455509672061298 0.0 4.582319854241526 2.6456036013593107 7.611631839666542" Properties=species:S:1:pos:R:3 pbc="T T T"
Cs       3.82445279       3.41897937       0.02418853
Cs       3.49579970       8.86623787       7.58734627
K        1.21924926       1.91486765       3.80581762
In      -1.07193563       0.59206402       0.00004241
I       -1.41886455       3.34774785       1.52265859
I        8.73910585       8.93754804       6.08899599
I        3.89007271       4.91590573       6.08901670
I        3.43016489       7.36925507       1.52267930
I       -2.47712304       9.55788135       1.52265850
I        9.79738789       2.72733821       6.08899591
