40
Lattice="18.59046748370148 0.009627848502359045 0.4036756099059983 -9.33593071903118 16.029152380419248 1.3453388405331264 -0.1917415374692489 -0.8481353235646176 8.785792962337927" Properties=species:S:1:pos:R:3:spacegroup_kinds:I:1:forces:R:3 spacegroup="P 1" unit_cell=conventional occupancy="_JSON {\"0\": {\"Cs\": 1.0}, \"1\": {\"Cs\": 1.0}, \"2\": {\"K\": 1.0}, \"3\": {\"In\": 1.0}, \"4\": {\"I\": 1.0}, \"5\": {\"I\": 1.0}, \"6\": {\"I\": 1.0}, \"7\": {\"I\": 1.0}, \"8\": {\"I\": 1.0}, \"9\": {\"I\": 1.0}, \"10\": {\"Cs\": 1.0}, \"11\": {\"Cs\": 1.0}, \"12\": {\"K\": 1.0}, \"13\": {\"In\": 1.0}, \"14\": {\"I\": 1.0}, \"15\": {\"I\": 1.0}, \"16\": {\"I\": 1.0}, \"17\": {\"I\": 1.0}, \"18\": {\"I\": 1.0}, \"19\": {\"I\": 1.0}, \"20\": {\"Cs\": 1.0}, \"21\": {\"Cs\": 1.0}, \"22\": {\"K\": 1.0}, \"23\": {\"In\": 1.0}, \"24\": {\"I\": 1.0}, \"25\": {\"I\": 1.0}, \"26\": {\"I\": 1.0}, \"27\": {\"I\": 1.0}, \"28\": {\"I\": 1.0}, \"29\": {\"I\": 1.0}, \"30\": {\"Cs\": 1.0}, \"31\": {\"Cs\": 1.0}, \"32\": {\"K\": 1.0}, \"33\": {\"In\": 1.0}, \"34\": {\"I\": 1.0}, \"35\": {\"I\": 1.0}, \"36\": {\"I\": 1.0}, \"37\": {\"I\": 1.0}, \"38\": {\"I\": 1.0}, \"39\": {\"I\": 1.0}}" energy=-103.17525959385411 free_energy=-103.17525959385411 stress="-2.7006989210070605e-06 1.0326702466044414e-06 -9.895753887145944e-07 1.0326702466044414e-06 4.266242771099611e-06 4.508520116667754e-07 -9.895753887145944e-07 4.508520116667754e-07 7.513827129851905e-07" pbc="T T T"
Cs       0.55928487       4.49441964       9.34125807        0      -0.00014756      -0.00008999      -0.00017488
Cs       5.21451545       1.83012691       9.13826244        1      -0.00010413      -0.00052469       0.00000127
K        0.67002637      -0.42524275       4.40931424        2      -0.00038950       0.00079441       0.00014867
In       0.76456099       0.00086131       0.01662382        3       0.00024810      -0.00024129      -0.00004470
I        1.95260940       1.92584284       2.00335320        4       0.00007689      -0.00009242       0.00017145
I        4.01226158       5.24642699       7.69034895        5       0.00019796      -0.00002840      -0.00011976
I        3.04910067      -0.69136941       7.09665950        6      -0.00007656      -0.00002161      -0.00011989
I        7.58424207      -0.15080319       1.92487140        7       0.00009198      -0.00002160      -0.00035864
I       -2.72987987       5.73664482       2.26942164        8      -0.00011666       0.00013612       0.00024543
I       -0.60005147       1.43051291       7.22138324        9       0.00021944       0.00008926       0.00025103
Cs      -4.10868048      12.50899583      10.01392748       10      -0.00014766      -0.00008991      -0.00017488
Cs       0.54655008       9.84470310       9.81093188       11      -0.00010404      -0.00052475       0.00000120
K       -3.99793898       7.58933345       5.08198361       12      -0.00038957       0.00079424       0.00014902
In      -3.90340428       8.01543767       0.68929357       13       0.00024758      -0.00024230      -0.00004665
I       -2.71535601       9.94041894       2.67602249       14       0.00007725      -0.00009182       0.00017212
I       -0.65570375      13.26100322       8.36301844       15       0.00019778      -0.00002874      -0.00012010
I       -1.61886468       7.32320677       7.76932890       16      -0.00007671      -0.00002156      -0.00011974
I        2.91627672       7.86377299       2.59754081       17       0.00009186      -0.00002155      -0.00035854
I       -7.39784522      13.75122100       2.94209107       18      -0.00011671       0.00013619       0.00024533
I       -5.26801684       9.44508911       7.89405264       19       0.00021950       0.00008917       0.00025115
Cs       9.85451859       4.49923357       9.54309587       20      -0.00014743      -0.00009003      -0.00017488
Cs      14.50974921       1.83494083       9.34010026       21      -0.00010426      -0.00052463       0.00000121
K        9.96526010      -0.42042883       4.61115207       22      -0.00038941       0.00079454       0.00014847
In      10.05979464       0.00567512       0.21846143       23       0.00024873      -0.00024056      -0.00004356
I       11.24784318       1.93065683       2.20519108       24       0.00007662      -0.00009285       0.00017099
I       13.30749526       5.25124080       7.89218661       25       0.00019841      -0.00002770      -0.00011895
I       12.34433442      -0.68655548       7.29849731       26      -0.00007660      -0.00002162      -0.00011991
I       16.87947580      -0.14598927       2.12670921       27       0.00009203      -0.00002160      -0.00035862
I        6.56535390       5.74145872       2.47125947       28      -0.00011685       0.00013631       0.00024524
I        8.69518228       1.43532684       7.42322106       29       0.00021936       0.00008929       0.00025096
Cs       5.18655324      12.51380975      10.21576528       30      -0.00014752      -0.00008997      -0.00017482
Cs       9.84178384       9.84951703      10.01276968       31      -0.00010417      -0.00052471       0.00000120
K        5.29729474       7.59414737       5.28382147       32      -0.00038941       0.00079441       0.00014861
In       5.39182929       8.02025143       0.89113099       33       0.00024870      -0.00024133      -0.00004443
I        6.57987779       9.94523297       2.87786044       34       0.00007680      -0.00009252       0.00017132
I        8.63952995      13.26581708       8.56485615       35       0.00019805      -0.00002830      -0.00011964
I        7.67636907       7.32802070       7.97116671       36      -0.00007672      -0.00002157      -0.00011980
I       12.21151046       7.86858691       2.79937861       37       0.00009188      -0.00002154      -0.00035849
I        1.89738853      13.75603493       3.14392889       38      -0.00011679       0.00013622       0.00024526
I        4.02721693       9.44990302       8.09589048       39       0.00021931       0.00008938       0.00025095
