80
Lattice="19.148258384429415 0.0 0.0 13.120843109698725 15.00452616021206 0.0 11.981396058577317 -1.3821133579794487 16.8645424726242" Properties=species:S:1:pos:R:3 pbc="T T T"
Cs       5.53122915       1.70277702       2.10808320
Cs      16.59401947       5.10842872       6.32418759
K       11.06262435       3.40560276       4.21613539
In       0.00000019       0.00000046       0.00000020
I        9.16748283       0.05429691       5.17804140
I       12.95776586       6.75690828       3.25422937
I       12.18819510       2.18814944       2.57525281
I        9.93705233       4.62305587       5.85701761
I        8.93718882       5.04488763       1.34395286
I       13.18806029       1.76632009       7.08831924
Cs      11.52192718       1.01172034      10.54035444
Cs      22.58471750       4.41737204      14.75645883
K       17.05332238       2.71454608      12.64840662
In       5.99069822      -0.69105622       8.43227144
I       15.15818086      -0.63675977      13.61031263
I       18.94846388       6.06585160      11.68650060
I       18.17889313       1.49709277      11.00752404
I       15.92775036       3.93199919      14.28928884
I       14.92788685       4.35383095       9.77622410
I       19.17875832       1.07526341      15.52059047
Cs      12.09165071       9.20504010       2.10808320
Cs      23.15444102      12.61069180       6.32418759
K       17.62304590      10.90786584       4.21613539
In       6.56042174       7.50226354       0.00000020
I       15.72790439       7.55655999       5.17804140
I       19.51818741      14.25917136       3.25422937
I       18.74861666       9.69041252       2.57525281
I       16.49747388      12.12531895       5.85701761
I       15.49761037      12.54715071       1.34395286
I       19.74848185       9.26858317       7.08831924
Cs      18.08234874       8.51398342      10.54035444
Cs      29.14513905      11.91963512      14.75645883
K       23.61374393      10.21680916      12.64840662
In      12.55111977       6.81120686       8.43227144
I       21.71860242       6.86550331      13.61031263
I       25.50888544      13.56811468      11.68650060
I       24.73931469       8.99935585      11.00752404
I       22.48817191      11.43426227      14.28928884
I       21.48830840      11.85609403       9.77622410
I       25.73917988       8.57752649      15.52059047
Cs      15.10535835       1.70277702       2.10808320
Cs      26.16814866       5.10842872       6.32418759
K       20.63675354       3.40560276       4.21613539
In       9.57412938       0.00000046       0.00000020
I       18.74161203       0.05429691       5.17804140
I       22.53189505       6.75690828       3.25422937
I       21.76232430       2.18814944       2.57525281
I       19.51118152       4.62305587       5.85701761
I       18.51131801       5.04488763       1.34395286
I       22.76218948       1.76632009       7.08831924
Cs      21.09605637       1.01172034      10.54035444
Cs      32.15884669       4.41737204      14.75645883
K       26.62745157       2.71454608      12.64840662
In      15.56482741      -0.69105622       8.43227144
I       24.73231006      -0.63675977      13.61031263
I       28.52259308       6.06585160      11.68650060
I       27.75302232       1.49709277      11.00752404
I       25.50187955       3.93199919      14.28928884
I       24.50201604       4.35383095       9.77622410
I       28.75288751       1.07526341      15.52059047
Cs      21.66577990       9.20504010       2.10808320
Cs      32.72857022      12.61069180       6.32418759
K       27.19717509      10.90786584       4.21613539
In      16.13455094       7.50226354       0.00000020
I       25.30203358       7.55655999       5.17804140
I       29.09231660      14.25917136       3.25422937
I       28.32274585       9.69041252       2.57525281
I       26.07160307      12.12531895       5.85701761
I       25.07173956      12.54715071       1.34395286
I       29.32261104       9.26858317       7.08831924
Cs      27.65647793       8.51398342      10.54035444
Cs      38.71926824      11.91963512      14.75645883
K       33.18787312      10.21680916      12.64840662
In      22.12524897       6.81120686       8.43227144
I       31.29273161       6.86550331      13.61031263
I       35.08301463      13.56811468      11.68650060
I       34.31344388       8.99935585      11.00752404
I       32.06230110      11.43426227      14.28928884
I       31.06243759      11.85609403       9.77622410
I       35.31330907       8.57752649      15.52059047
