80
Lattice="21.40307603067721 0.0 0.0 -7.153935236871477 14.061394254914154 0.0 -5.527808984058706 4.197184817764365 13.955395449578798" Properties=species:S:1:pos:R:3 pbc="T T T"
Cs       4.44098066       3.17445587       0.02215092
Cs      -3.06482400       7.60324927       6.95541171
K       -2.87418124       1.87352331       3.48885123
In      -1.49226374       0.82422456       0.00005904
I       -2.96307514       3.09532572       1.39584951
I        4.33921623       7.68248891       5.58187988
I       -1.81929689       4.33848361       5.58190871
I        3.19543282       6.43914297       1.39587833
I       -2.82022052       8.25898688       1.39584938
I        4.19639440       2.51872149       5.58187976
Cs       1.67707617       5.27304828       6.99984864
Cs      -5.82872849       9.70184168      13.93310944
K       -5.63808573       3.97211572      10.46654895
In      -4.25616823       2.92281697       6.97775676
I       -5.72697963       5.19391813       8.37354723
I        1.57531174       9.78108132      12.55957761
I       -4.58320139       6.43707601      12.55960643
I        0.43152833       8.53773538       8.37357605
I       -5.58412502      10.35757929       8.37354711
I        1.43248991       4.61731390      12.55957749
Cs       0.86401304      10.20515300       0.02215092
Cs      -6.64179161      14.63394640       6.95541171
K       -6.45114886       8.90422044       3.48885123
In      -5.06923136       7.85492169       0.00005904
I       -6.54004276      10.12602285       1.39584951
I        0.76224861      14.71318604       5.58187988
I       -5.39626451      11.36918073       5.58190871
I       -0.38153480      13.46984010       1.39587833
I       -6.39718814      15.28968401       1.39584938
I        0.61942678       9.54941862       5.58187976
Cs      -1.89989145      12.30374541       6.99984864
Cs      -9.40569611      16.73253880      13.93310944
K       -9.21505335      11.00281284      10.46654895
In      -7.83313585       9.95351410       6.97775676
I       -9.30394725      12.22461526       8.37354723
I       -2.00165588      16.81177845      12.55957761
I       -8.16016900      13.46777314      12.55960643
I       -3.14543929      15.56843251       8.37357605
I       -9.16109263      17.38827641       8.37354711
I       -2.14447771      11.64801103      12.55957749
Cs      15.14251868       3.17445587       0.02215092
Cs       7.63671402       7.60324927       6.95541171
K        7.82735678       1.87352331       3.48885123
In       9.20927427       0.82422456       0.00005904
I        7.73846287       3.09532572       1.39584951
I       15.04075425       7.68248891       5.58187988
I        8.88224112       4.33848361       5.58190871
I       13.89697083       6.43914297       1.39587833
I        7.88131749       8.25898688       1.39584938
I       14.89793242       2.51872149       5.58187976
Cs      12.37861418       5.27304828       6.99984864
Cs       4.87280953       9.70184168      13.93310944
K        5.06345229       3.97211572      10.46654895
In       6.44536978       2.92281697       6.97775676
I        4.97455838       5.19391813       8.37354723
I       12.27684975       9.78108132      12.55957761
I        6.11833663       6.43707601      12.55960643
I       11.13306634       8.53773538       8.37357605
I        5.11741300      10.35757929       8.37354711
I       12.13402792       4.61731390      12.55957749
Cs      11.56555106      10.20515300       0.02215092
Cs       4.05974640      14.63394640       6.95541171
K        4.25038916       8.90422044       3.48885123
In       5.63230666       7.85492169       0.00005904
I        4.16149526      10.12602285       1.39584951
I       11.46378663      14.71318604       5.58187988
I        5.30527350      11.36918073       5.58190871
I       10.32000322      13.46984010       1.39587833
I        4.30434987      15.28968401       1.39584938
I       11.32096480       9.54941862       5.58187976
Cs       8.80164657      12.30374541       6.99984864
Cs       1.29584191      16.73253880      13.93310944
K        1.48648467      11.00281284      10.46654895
In       2.86840216       9.95351410       6.97775676
I        1.39759076      12.22461526       8.37354723
I        8.69988214      16.81177845      12.55957761
I        2.54136901      13.46777314      12.55960643
I        7.55609872      15.56843251       8.37357605
I        1.54044538      17.38827641       8.37354711
I        8.55706031      11.64801103      12.55957749
