80
Lattice="16.892148891545677 -1.870619923530702 0.9856994130999692 -6.9219697268949645 15.480597701635098 -1.4668163349186798 -4.191639635141777 3.640101626279591 16.094927978878662" Properties=species:S:1:pos:R:3:spacegroup_kinds:I:1:forces:R:3 spacegroup="P 1" unit_cell=conventional occupancy="_JSON {\"0\": {\"Cs\": 1.0}, \"1\": {\"Cs\": 1.0}, \"2\": {\"K\": 1.0}, \"3\": {\"In\": 1.0}, \"4\": {\"I\": 1.0}, \"5\": {\"I\": 1.0}, \"6\": {\"I\": 1.0}, \"7\": {\"I\": 1.0}, \"8\": {\"I\": 1.0}, \"9\": {\"I\": 1.0}, \"10\": {\"Cs\": 1.0}, \"11\": {\"Cs\": 1.0}, \"12\": {\"K\": 1.0}, \"13\": {\"In\": 1.0}, \"14\": {\"I\": 1.0}, \"15\": {\"I\": 1.0}, \"16\": {\"I\": 1.0}, \"17\": {\"I\": 1.0}, \"18\": {\"I\": 1.0}, \"19\": {\"I\": 1.0}, \"20\": {\"Cs\": 1.0}, \"21\": {\"Cs\": 1.0}, \"22\": {\"K\": 1.0}, \"23\": {\"In\": 1.0}, \"24\": {\"I\": 1.0}, \"25\": {\"I\": 1.0}, \"26\": {\"I\": 1.0}, \"27\": {\"I\": 1.0}, \"28\": {\"I\": 1.0}, \"29\": {\"I\": 1.0}, \"30\": {\"Cs\": 1.0}, \"31\": {\"Cs\": 1.0}, \"32\": {\"K\": 1.0}, \"33\": {\"In\": 1.0}, \"34\": {\"I\": 1.0}, \"35\": {\"I\": 1.0}, \"36\": {\"I\": 1.0}, \"37\": {\"I\": 1.0}, \"38\": {\"I\": 1.0}, \"39\": {\"I\": 1.0}, \"40\": {\"Cs\": 1.0}, \"41\": {\"Cs\": 1.0}, \"42\": {\"K\": 1.0}, \"43\": {\"In\": 1.0}, \"44\": {\"I\": 1.0}, \"45\": {\"I\": 1.0}, \"46\": {\"I\": 1.0}, \"47\": {\"I\": 1.0}, \"48\": {\"I\": 1.0}, \"49\": {\"I\": 1.0}, \"50\": {\"Cs\": 1.0}, \"51\": {\"Cs\": 1.0}, \"52\": {\"K\": 1.0}, \"53\": {\"In\": 1.0}, \"54\": {\"I\": 1.0}, \"55\": {\"I\": 1.0}, \"56\": {\"I\": 1.0}, \"57\": {\"I\": 1.0}, \"58\": {\"I\": 1.0}, \"59\": {\"I\": 1.0}, \"60\": {\"Cs\": 1.0}, \"61\": {\"Cs\": 1.0}, \"62\": {\"K\": 1.0}, \"63\": {\"In\": 1.0}, \"64\": {\"I\": 1.0}, \"65\": {\"I\": 1.0}, \"66\": {\"I\": 1.0}, \"67\": {\"I\": 1.0}, \"68\": {\"I\": 1.0}, \"69\": {\"I\": 1.0}, \"70\": {\"Cs\": 1.0}, \"71\": {\"Cs\": 1.0}, \"72\": {\"K\": 1.0}, \"73\": {\"In\": 1.0}, \"74\": {\"I\": 1.0}, \"75\": {\"I\": 1.0}, \"76\": {\"I\": 1.0}, \"77\": {\"I\": 1.0}, \"78\": {\"I\": 1.0}, \"79\": {\"I\": 1.0}}" energy=-205.76058635801368 free_energy=-205.76058635801368 stress="4.802234057615924e-07 -9.417628393938264e-08 6.870153992868012e-08 -9.417628393938264e-08 -2.2562088992869293e-06 1.6719161626062257e-06 6.870153992868012e-08 1.6719161626062257e-06 3.2478848671497835e-06" pbc="T T T"
Cs       2.90204434       3.25777295       1.76341730        0       0.00004368      -0.00001983      -0.00005081
Cs      -2.51775016       7.36970304       5.77276393        1      -0.00002964      -0.00006488       0.00002475
K       14.59174787       0.04043784       4.87427976        2      -0.00004684       0.00008729      -0.00032882
In      15.63974709      -0.86936219       0.85040285        3      -0.00061457      -0.00040764      -0.00004028
I       15.53079693       1.84210409       2.02256467        4       0.00009768       0.00035167       0.00010494
I        1.74546876       6.91445162       6.49935224        5       0.00001867       0.00000125      -0.00021592
I       -0.77202246       3.48016065       6.62006008        6      -0.00048817      -0.00008993       0.00020349
I        1.15641844       7.14730937       0.91598375        7      -0.00017661      -0.00013979       0.00009907
I       -3.23169606       7.74560985       1.63640870        8      -0.00010355       0.00003968      -0.00024215
I        3.61594336       2.88189618       5.90009600        9      -0.00000117      -0.00020232      -0.00011909
Cs       0.80625607       5.07782463       9.81085112       10      -0.00010847      -0.00004134       0.00006777
Cs      -4.61358031       9.18977315      13.82004746       11      -0.00002668      -0.00004153       0.00010770
K       12.49582488       1.86065224      12.92122065       12      -0.00000042       0.00011065       0.00037806
In      13.54363421       0.95054857       8.89760846       13       0.00049942       0.00071086       0.00033548
I       13.43510435       3.66233334      10.07000467       14      -0.00011928      -0.00045102      -0.00024796
I       -0.35041796       8.73462185      14.54673898       15       0.00014522       0.00025573       0.00008775
I       -2.86800370       5.30011929      14.66769211       16       0.00030392       0.00014594      -0.00018210
I       -0.93950673       8.96718926       8.96348411       17       0.00010832       0.00008343      -0.00009778
I       -5.32757675       9.56576141       9.68350419       18      -0.00012107       0.00013553       0.00006623
I        1.52020576       4.70164207      13.94722076       19      -0.00003833       0.00012727       0.00028357
Cs      -0.55892664      10.99802650       1.03008815       20       0.00000864       0.00000463      -0.00008334
Cs      -5.97867536      15.10989300       5.03960728       21      -0.00004674       0.00009377      -0.00030209
K       11.13079644       7.78071842       4.14085122       22      -0.00016426       0.00001758      -0.00017025
In      12.17868573       6.87095489       0.11700064       23      -0.00020680      -0.00085980      -0.00021100
I       12.06983172       9.58238035       1.28919052       24       0.00007795       0.00050660       0.00008478
I       -1.71546994      14.65469253       5.76581945       25      -0.00014400       0.00021095       0.00008184
I       -4.23314483      11.22042444       5.88675107       26       0.00004475       0.00003860      -0.00007307
I       -2.30456900      14.88769384       0.18254671       27      -0.00020801      -0.00025963       0.00015856
I        0.22925313       0.00530184       2.36977802       28      -0.00002278       0.00002034      -0.00015251
I        0.15496511      10.62214306       5.16668028       29      -0.00001074      -0.00020447      -0.00018017
Cs      -2.65475987      12.81814258       9.07741991       30       0.00001508      -0.00006259       0.00004685
Cs      -8.07456571      16.93004824      13.08662956       31      -0.00000168       0.00003992       0.00014632
K        9.03474047       9.60107332      12.18783256       32       0.00027084      -0.00017964       0.00034816
In      10.08271843       8.69099488       8.16422815       33       0.00027349      -0.00061934       0.00018848
I        9.97407274      11.40265999       9.33648759       34      -0.00007470      -0.00004657       0.00024514
I       -3.81140847      16.47508507      13.81332659       35       0.00012384      -0.00059024      -0.00007127
I       -6.32903322      13.04044538      13.93430807       36       0.00032697       0.00011556      -0.00019384
I       -4.40040323      16.70742993       8.23005933       37      -0.00024178       0.00001812       0.00000289
I       -1.86665995       1.82559330      10.41684992       38       0.00019898      -0.00023188       0.00019047
I       -1.94077347      12.44193218      13.21388717       39      -0.00014644       0.00023756       0.00015696
Cs      11.34811169       2.32246374       2.25627801       40       0.00002113      -0.00000551      -0.00010734
Cs       5.92837262       6.43429617       6.26583023       41      -0.00003492       0.00000026      -0.00018057
K        6.14569309       0.97574328       4.38153888       42      -0.00009211       0.00008884      -0.00052424
In       7.19372691       0.06571220       0.35769016       43      -0.00044843       0.00057338      -0.00033772
I        7.08469333       2.77737087       1.52975669       44       0.00019800       0.00015519      -0.00001165
I       10.19158381       5.97902977       6.99215769       45      -0.00008323       0.00069084      -0.00001088
I        7.67393518       2.54484211       7.11286816       46      -0.00020096       0.00001334       0.00028482
I        9.60245175       6.21196557       1.40880153       47      -0.00000843      -0.00004028       0.00010056
I        5.21436124       6.81027689       2.12925130       48      -0.00004506       0.00005140      -0.00016942
I       12.06201541       1.94658849       6.39292685       49       0.00002392      -0.00022310      -0.00009207
Cs       9.25230005       4.14256840      10.30365717       50      -0.00001099      -0.00006772       0.00002718
Cs       3.83251789       8.25449779      14.31291558       51      -0.00009547      -0.00014380       0.00016381
K        4.04965290       2.79612104      12.42833956       52       0.00016062      -0.00005431       0.00049089
In       5.09758275       1.88586270       8.40479509       53       0.00057803       0.00034567       0.00002003
I        4.98901073       4.59763921       9.57717288       54      -0.00004112      -0.00019867      -0.00018387
I        8.09569503       7.79934791      15.03953952       55       0.00003692       0.00023437       0.00016668
I        5.57799509       4.36493379      15.16051558       56       0.00029595      -0.00003572      -0.00008806
I        7.50664625       8.03186271       9.45628808       57      -0.00006828       0.00009466       0.00002702
I        3.11847280       8.63049217      10.17632308       58       0.00007642      -0.00000749       0.00014649
I        9.96621257       3.76640527      14.44018158       59       0.00003678       0.00011440       0.00009201
Cs       7.88715065      10.06267264       1.52293422       60       0.00000207       0.00011053      -0.00015681
Cs       2.46738837      14.17462755       5.53244529       61      -0.00006926      -0.00001771      -0.00019641
K        2.68465796       8.71608835       3.64800835       62      -0.00002415       0.00004178      -0.00024491
In       3.73266761       7.80618431      -0.37576283       63      -0.00026418      -0.00050812      -0.00036311
I        3.62374262      10.51771601       0.79633330       64       0.00010530       0.00034608       0.00004125
I        6.73058700      13.71951350       6.25875565       65      -0.00008146      -0.00013971      -0.00010261
I        4.21300780      10.28522924       6.37943008       66      -0.00030382      -0.00014628       0.00028702
I        6.14145673      13.95218796       0.67546214       67       0.00018851       0.00006154      -0.00003720
I        8.67535703      -0.93005549       2.86267121       68      -0.00002308      -0.00000090      -0.00014285
I        8.60101667       9.68685644       5.65956630       69       0.00005721      -0.00019235      -0.00027888
Cs       5.79134381      11.88278478       9.57036536       70      -0.00011696       0.00000122      -0.00009940
Cs       0.37150343      15.99477965      13.57942181       71       0.00000610      -0.00001817       0.00022006
K        0.58869755      10.53639572      11.69505636       72       0.00017155      -0.00014218       0.00022395
In       1.63669286       9.62606400       7.67140569       73       0.00020363       0.00080743       0.00031362
I        1.52800685      12.33794829       8.84365631       74      -0.00004241      -0.00052150       0.00001497
I        4.63468123      15.53982528      14.30610708       75       0.00002138      -0.00043877       0.00014007
I        2.11702713      12.10524394      14.42714167       76       0.00029796      -0.00002771      -0.00013414
I        4.04556720      15.77197407       8.72298950       77       0.00016540       0.00030464      -0.00012473
I        6.57941118       0.89030031      10.90965442       78       0.00014549      -0.00020285       0.00025482
I        6.50529125      11.50664701      13.70670161       79      -0.00015279       0.00025682       0.00012483
