80
Lattice="16.692914547626774 0.0 0.0 -5.830929230721117 15.804976995864566 0.0 0.9900546534386643 -4.58939113938015 17.290772546443346" Properties=species:S:1:pos:R:3 pbc="T T T"
Cs       1.78731842       6.16881396      -0.00002192
Cs       5.54129238       3.53465113      -0.00002192
K        1.19632783      -0.24686715       4.32270360
In       0.94881993       0.90049456       0.00002440
I        2.47186756       2.51343404       1.72967635
I        5.35179399       4.89534173       6.91575120
I        3.53324130      -0.93512545       6.91575122
I        7.20586033       0.44138482       1.72967637
I       -2.05199018       5.37136058       1.72965571
I       -0.36844711       0.23643235       6.91573056
Cs       2.28234574       3.87411839       8.64536435
Cs       6.03631971       1.23995556       8.64536435
K        1.69135516      -2.54156272      12.96808987
In       1.44384725      -1.39420101       8.64541068
I        2.96689489       0.21873847      10.37506263
I        5.84682132       2.60064616      15.56113748
I        4.02826862      -3.22982102      15.56113750
I        7.70088766      -1.85331075      10.37506265
I       -1.55696285       3.07666501      10.37504198
I        0.12658022      -2.05826322      15.56111683
Cs      -1.12814620      14.07130246      -0.00002192
Cs       2.62582776      11.43713963      -0.00002192
K       -1.71913679       7.65562134       4.32270360
In      -1.96664469       8.80298306       0.00002440
I       -0.44359705      10.41592254       1.72967635
I        2.43632937      12.79783022       6.91575120
I        0.61777668       6.96736305       6.91575122
I        4.29039572       8.34387332       1.72967637
I       -4.96745479      13.27384907       1.72965571
I       -3.28391173       8.13892085       6.91573056
Cs      -0.63311887      11.77660689       8.64536435
Cs       3.12085509       9.14244406       8.64536435
K       -1.22410946       5.36092578      12.96808987
In      -1.47161736       6.50828749       8.64541068
I        0.05143027       8.12122697      10.37506263
I        2.93135670      10.50313465      15.56113748
I        1.11280401       4.67266748      15.56113750
I        4.78542305       6.04917775      10.37506265
I       -4.47242747      10.97915350      10.37504198
I       -2.78888440       5.84422528      15.56111683
Cs      10.13377569       6.16881396      -0.00002192
Cs      13.88774965       3.53465113      -0.00002192
K        9.54278510      -0.24686715       4.32270360
In       9.29527720       0.90049456       0.00002440
I       10.81832483       2.51343404       1.72967635
I       13.69825126       4.89534173       6.91575120
I       11.87969857      -0.93512545       6.91575122
I       15.55231761       0.44138482       1.72967637
I        6.29446710       5.37136058       1.72965571
I        7.97801016       0.23643235       6.91573056
Cs      10.62880302       3.87411839       8.64536435
Cs      14.38277698       1.23995556       8.64536435
K       10.03781243      -2.54156272      12.96808987
In       9.79030453      -1.39420101       8.64541068
I       11.31335216       0.21873847      10.37506263
I       14.19327859       2.60064616      15.56113748
I       12.37472590      -3.22982102      15.56113750
I       16.04734494      -1.85331075      10.37506265
I        6.78949442       3.07666501      10.37504198
I        8.47303749      -2.05826322      15.56111683
Cs       7.21831107      14.07130246      -0.00002192
Cs      10.97228504      11.43713963      -0.00002192
K        6.62732049       7.65562134       4.32270360
In       6.37981258       8.80298306       0.00002440
I        7.90286022      10.41592254       1.72967635
I       10.78278665      12.79783022       6.91575120
I        8.96423395       6.96736305       6.91575122
I       12.63685299       8.34387332       1.72967637
I        3.37900248      13.27384907       1.72965571
I        5.06254555       8.13892085       6.91573056
Cs       7.71333840      11.77660689       8.64536435
Cs      11.46731236       9.14244406       8.64536435
K        7.12234781       5.36092578      12.96808987
In       6.87483991       6.50828749       8.64541068
I        8.39788755       8.12122697      10.37506263
I       11.27781397      10.50313465      15.56113748
I        9.45926128       4.67266748      15.56113750
I       13.13188032       6.04917775      10.37506265
I        3.87402981      10.97915350      10.37504198
I        5.55757287       5.84422528      15.56111683
