80
Lattice="18.523847324030914 -1.4339708932384574 -0.8160403928191099 -7.926589647757205 16.634239976869786 2.478895723217958 0.596243948015912 -2.3168876351696057 17.493886908552316" Properties=species:S:1:pos:R:3:spacegroup_kinds:I:1:forces:R:3 spacegroup="P 1" unit_cell=conventional occupancy="_JSON {\"0\": {\"Cs\": 1.0}, \"1\": {\"Cs\": 1.0}, \"2\": {\"K\": 1.0}, \"3\": {\"In\": 1.0}, \"4\": {\"I\": 1.0}, \"5\": {\"I\": 1.0}, \"6\": {\"I\": 1.0}, \"7\": {\"I\": 1.0}, \"8\": {\"I\": 1.0}, \"9\": {\"I\": 1.0}, \"10\": {\"Cs\": 1.0}, \"11\": {\"Cs\": 1.0}, \"12\": {\"K\": 1.0}, \"13\": {\"In\": 1.0}, \"14\": {\"I\": 1.0}, \"15\": {\"I\": 1.0}, \"16\": {\"I\": 1.0}, \"17\": {\"I\": 1.0}, \"18\": {\"I\": 1.0}, \"19\": {\"I\": 1.0}, \"20\": {\"Cs\": 1.0}, \"21\": {\"Cs\": 1.0}, \"22\": {\"K\": 1.0}, \"23\": {\"In\": 1.0}, \"24\": {\"I\": 1.0}, \"25\": {\"I\": 1.0}, \"26\": {\"I\": 1.0}, \"27\": {\"I\": 1.0}, \"28\": {\"I\": 1.0}, \"29\": {\"I\": 1.0}, \"30\": {\"Cs\": 1.0}, \"31\": {\"Cs\": 1.0}, \"32\": {\"K\": 1.0}, \"33\": {\"In\": 1.0}, \"34\": {\"I\": 1.0}, \"35\": {\"I\": 1.0}, \"36\": {\"I\": 1.0}, \"37\": {\"I\": 1.0}, \"38\": {\"I\": 1.0}, \"39\": {\"I\": 1.0}, \"40\": {\"Cs\": 1.0}, \"41\": {\"Cs\": 1.0}, \"42\": {\"K\": 1.0}, \"43\": {\"In\": 1.0}, \"44\": {\"I\": 1.0}, \"45\": {\"I\": 1.0}, \"46\": {\"I\": 1.0}, \"47\": {\"I\": 1.0}, \"48\": {\"I\": 1.0}, \"49\": {\"I\": 1.0}, \"50\": {\"Cs\": 1.0}, \"51\": {\"Cs\": 1.0}, \"52\": {\"K\": 1.0}, \"53\": {\"In\": 1.0}, \"54\": {\"I\": 1.0}, \"55\": {\"I\": 1.0}, \"56\": {\"I\": 1.0}, \"57\": {\"I\": 1.0}, \"58\": {\"I\": 1.0}, \"59\": {\"I\": 1.0}, \"60\": {\"Cs\": 1.0}, \"61\": {\"Cs\": 1.0}, \"62\": {\"K\": 1.0}, \"63\": {\"In\": 1.0}, \"64\": {\"I\": 1.0}, \"65\": {\"I\": 1.0}, \"66\": {\"I\": 1.0}, \"67\": {\"I\": 1.0}, \"68\": {\"I\": 1.0}, \"69\": {\"I\": 1.0}, \"70\": {\"Cs\": 1.0}, \"71\": {\"Cs\": 1.0}, \"72\": {\"K\": 1.0}, \"73\": {\"In\": 1.0}, \"74\": {\"I\": 1.0}, \"75\": {\"I\": 1.0}, \"76\": {\"I\": 1.0}, \"77\": {\"I\": 1.0}, \"78\": {\"I\": 1.0}, \"79\": {\"I\": 1.0}}" energy=-206.35049527333595 free_energy=-206.35049527333595 stress="1.076069300969548e-06 1.2176196945269261e-05 6.407474055526066e-06 1.2176196945269261e-05 -2.301412216416405e-06 7.748691343369467e-06 6.407474055526066e-06 7.748691343369467e-06 -1.1430663226372857e-06" pbc="T T T"
Cs       1.81857997       3.65634671      18.26769054        0      -0.00012154      -0.00009178      -0.00009001
Cs       6.22464182       0.65037302      17.67738647        1      -0.00019786      -0.00000395      -0.00003185
K        0.92496196       0.09093121       4.43640220        2      -0.00001538       0.00003937      -0.00007705
In       0.77589900       0.67015792       0.06293791        3       0.00015115      -0.00007375      -0.00029475
I        2.23500416       2.42263085       2.02892031        4      -0.00000641       0.00011898       0.00015359
I        4.91370083       5.35928602       7.67506067        5      -0.00011034      -0.00010832       0.00022168
I        3.44215181      -0.45728521       6.95090130        6       0.00011920       0.00002478      -0.00011532
I        7.66975331      -0.07787331       1.51369586        7      -0.00006671       0.00002780       0.00034901
I       16.42330672       5.13381907       1.91101183        8       0.00000347       0.00027054       0.00004157
I       -0.01288565       1.93113103       7.38511019        9       0.00019400      -0.00013168       0.00001329
Cs       1.52045986       4.81474909       9.52070017       10      -0.00010050      -0.00002831       0.00000846
Cs       5.92645870       1.80883624       8.93044291       11      -0.00006717      -0.00000549       0.00001216
K        1.22304999      -1.06749591      13.18336068       12       0.00005520       0.00000212      -0.00010296
In       1.07408181      -0.48834673       8.80977690       13      -0.00012398       0.00025920       0.00029938
I        2.53313771       1.26420702      10.77592427       14      -0.00006222       0.00003646      -0.00006548
I        5.21173720       4.20083553      16.42207712       15       0.00003572      -0.00003630       0.00000459
I        3.74033632      -1.61574014      15.69779683       16      -0.00012135       0.00000806       0.00012449
I        7.96769696      -1.23620028      10.26081696       17       0.00037821      -0.00009388      -0.00009406
I       -1.80245702       5.40937244      11.47403955       18       0.00007654       0.00023035      -0.00007117
I       18.80915781      -0.66136368      15.31595761       19       0.00004038       0.00010011       0.00014040
Cs      -2.14470370      11.97344657      19.50714435       20      -0.00015074      -0.00003897      -0.00011945
Cs       2.26135331       8.96749368      18.91683955       21      -0.00021169      -0.00000398      -0.00001413
K       -3.03831979       8.40807569       5.67588508       22      -0.00005917      -0.00002497      -0.00015745
In      -3.18733749       8.98730215       1.30234520       23      -0.00000898      -0.00013654      -0.00005953
I       -1.72833296      10.73980742       3.26844006       24       0.00004306       0.00000361       0.00001430
I        0.95035539      13.67647433       8.91462142       25      -0.00005263      -0.00024006      -0.00006315
I       -0.52119428       7.85982131       8.19034044       26       0.00021320       0.00007280      -0.00005748
I        3.70647050       8.23925142       2.75316661       27      -0.00007753       0.00002375       0.00025292
I       12.46002645      13.45100090       3.15047545       28      -0.00004882       0.00011624       0.00003193
I       14.54764849       8.81427290       7.80852682       29       0.00017054      -0.00003362      -0.00002550
Cs      -2.44280740      13.13185443      10.76014075       30      -0.00016188       0.00001274       0.00002067
Cs       1.96318287      10.12594959      10.16991884       31      -0.00011710      -0.00000994      -0.00005536
K       -2.74021924       7.24962870      14.42281456       32      -0.00000642      -0.00002210      -0.00012316
In      -2.88921692       7.82885271      10.04924122       33      -0.00008076      -0.00012035       0.00021570
I       -1.43018245       9.58138125      12.01542924       34      -0.00001711      -0.00002620      -0.00011655
I        1.24843682      12.51796302      17.66153830       35       0.00007402      -0.00002308       0.00000614
I       -0.22301413       6.70135928      16.93723882       36       0.00005488       0.00007384       0.00007966
I        4.00433440       7.08097253      11.50038376       37       0.00043975      -0.00012174      -0.00030601
I       12.75809909      12.29256890      11.89744753       38       0.00009355       0.00005098      -0.00004111
I       14.84580239       7.65578913      16.55543311       39       0.00013940       0.00005728       0.00006291
Cs      11.08053433       2.93933693      17.85963467       40      -0.00019039      -0.00004739      -0.00002197
Cs      15.48654128      -0.06660043      17.26939133       41      -0.00016590      -0.00001088      -0.00007396
K       10.18682439      -0.62602869       4.02842590       42       0.00011622      -0.00000960      -0.00017605
In      10.03784415      -0.04678397      -0.34512466       43       0.00015453      -0.00021560      -0.00005794
I       11.49695509       1.70571442       1.62100525       44      -0.00009820      -0.00003141      -0.00007139
I       14.17554802       4.64230431       7.26713951       45       0.00003436      -0.00003326      -0.00006521
I       12.70418331      -1.17429121       6.54282058       46      -0.00016003      -0.00000125       0.00008003
I       16.93155556      -0.79475342       1.10580870       47       0.00020534      -0.00010299       0.00009577
I        7.16135349       5.85083920       2.31906238       48       0.00005006       0.00021603      -0.00004816
I        9.24912847       1.21406237       6.97702829       49       0.00001853       0.00007293       0.00014932
Cs      10.78240983       4.09775164       9.11271348       50      -0.00019280       0.00001024      -0.00007069
Cs      15.18842395       1.09184236       8.52243525       51      -0.00015475      -0.00003059      -0.00002800
K       10.48503651      -1.78450672      12.77530742       52      -0.00008105       0.00003740      -0.00002832
In      10.33597631      -1.20533363       8.40179729       53      -0.00000827       0.00024865       0.00007316
I       11.79504897       0.54719900      10.36783484       54      -0.00004002       0.00006744       0.00009562
I       14.47365990       3.48390710      16.01411991       55       0.00003987      -0.00012127      -0.00008555
I       13.00216121      -2.33272412      15.28982278       56       0.00010524       0.00006045      -0.00000651
I       17.22973688      -1.95322476       9.85272275       57       0.00014579      -0.00007512       0.00003497
I        7.45948284       4.69255787      11.06609117       58      -0.00003667      -0.00017050      -0.00019388
I        9.54714737       0.05567529      15.72402620       59       0.00017915       0.00000602      -0.00000044
Cs       7.11723537      11.25644389      19.09907301       60      -0.00016444      -0.00002914      -0.00001003
Cs      11.52324511       8.25052672      18.50882010       61      -0.00017293      -0.00002055      -0.00001413
K        6.22348740       7.69111005       5.26789256       62       0.00021981      -0.00004034      -0.00023590
In       6.07456351       8.27030265       0.89428660       63       0.00007248      -0.00007309       0.00015055
I        7.53366661      10.02284190       2.86046168       64      -0.00012570      -0.00007647      -0.00013424
I       10.21228792      12.95945222       8.50659719       65      -0.00007551      -0.00013529      -0.00011486
I        8.74091816       7.14286035       7.78227492       66      -0.00031378      -0.00008352       0.00017181
I       12.96832520       7.52229893       2.34516760       67       0.00010520      -0.00002463       0.00024568
I        3.19805872      14.16795208       3.55851799       68       0.00004313       0.00023937      -0.00005489
I        5.28593188       9.53113636       8.21643450       69      -0.00021045       0.00022566       0.00022861
Cs       6.81906939      12.41490270      10.35214736       70      -0.00006995      -0.00006126      -0.00001574
Cs      11.22510811       9.40897330       9.76189067       71      -0.00013228      -0.00007104      -0.00004381
K        6.52174162       6.53257878      14.01472026       72      -0.00006709       0.00009097       0.00003771
In       6.37256002       7.11180727       9.64127226       73       0.00039094       0.00001692      -0.00008128
I        7.83183669       8.86425731      11.60723020       74      -0.00018469       0.00019632       0.00018177
I       10.51039014      11.80101502      17.25351852       75       0.00001421      -0.00010867       0.00005867
I        9.03883701       5.98440662      16.52929408       76       0.00021753       0.00004757      -0.00009913
I       13.26649236       6.36383720      11.09209292       77       0.00002839       0.00000234       0.00022896
I        3.49619301      13.00960184      12.30548521       78       0.00003891      -0.00008205      -0.00005636
I        5.58386142       8.37280103      16.96347929       79       0.00016923      -0.00003642      -0.00001553
