20
Lattice="17.046365958917526 0.0 0.0 4.261591489765251 7.381292981293879 0.0 4.261591489834154 2.4604309938181133 6.959149952369048" Properties=species:S:1:pos:R:3 pbc="T T T"
Cs       4.26155904       2.46042126       1.73978864
Cs      12.78480683       7.38130246       5.21936115
K        8.52318300       4.92086189       3.47957494
In       0.00000010       0.00000023       0.00000009
I        6.56467071       3.14825297       4.78382736
I       10.48169533       6.69347064       2.17532249
I        9.16762203       2.74295165       1.61728769
I        7.87874363       7.09877193       5.34186212
I        6.24251423       6.23773080       1.61729448
I       10.80385203       3.60399362       5.34185571
Cs      12.78474202       2.46042126       1.73978864
Cs      21.30798981       7.38130246       5.21936115
K       17.04636598       4.92086189       3.47957494
In       8.52318308       0.00000023       0.00000009
I       15.08785369       3.14825297       4.78382736
I       19.00487831       6.69347064       2.17532249
I       17.69080501       2.74295165       1.61728769
I       16.40192661       7.09877193       5.34186212
I       14.76569721       6.23773080       1.61729448
I       19.32703501       3.60399362       5.34185571
