40
Lattice="12.774061714992191 -1.1874993529736755e-09 -1.475977128402003e-17 -1.1874993561360341e-09 12.77406171499242 -4.4329176605496837e-17 -1.2817609177486512e-17 -4.593181927259184e-17 12.774061714794568" Properties=species:S:1:pos:R:3:spacegroup_kinds:I:1:forces:R:3 spacegroup="P 1" unit_cell=conventional occupancy="_JSON {\"0\": {\"Cs\": 1.0}, \"1\": {\"Pb\": 1.0}, \"2\": {\"I\": 1.0}, \"3\": {\"I\": 1.0}, \"4\": {\"I\": 1.0}, \"5\": {\"Cs\": 1.0}, \"6\": {\"Pb\": 1.0}, \"7\": {\"I\": 1.0}, \"8\": {\"I\": 1.0}, \"9\": {\"I\": 1.0}, \"10\": {\"Cs\": 1.0}, \"11\": {\"Pb\": 1.0}, \"12\": {\"I\": 1.0}, \"13\": {\"I\": 1.0}, \"14\": {\"I\": 1.0}, \"15\": {\"Cs\": 1.0}, \"16\": {\"Pb\": 1.0}, \"17\": {\"I\": 1.0}, \"18\": {\"I\": 1.0}, \"19\": {\"I\": 1.0}, \"20\": {\"Cs\": 1.0}, \"21\": {\"Pb\": 1.0}, \"22\": {\"I\": 1.0}, \"23\": {\"I\": 1.0}, \"24\": {\"I\": 1.0}, \"25\": {\"Cs\": 1.0}, \"26\": {\"Pb\": 1.0}, \"27\": {\"I\": 1.0}, \"28\": {\"I\": 1.0}, \"29\": {\"I\": 1.0}, \"30\": {\"Cs\": 1.0}, \"31\": {\"Pb\": 1.0}, \"32\": {\"I\": 1.0}, \"33\": {\"I\": 1.0}, \"34\": {\"I\": 1.0}, \"35\": {\"Cs\": 1.0}, \"36\": {\"Pb\": 1.0}, \"37\": {\"I\": 1.0}, \"38\": {\"I\": 1.0}, \"39\": {\"I\": 1.0}}" energy=-111.84593939348737 free_energy=-111.84593939348737 stress="-1.5587658980174264e-06 3.1887748517290306e-13 -1.8039943913965287e-18 3.1887748517290306e-13 -1.5587658955997737e-06 2.4741009193173698e-18 -1.8039943913965287e-18 2.4741009193173698e-18 -1.5587528313258156e-06" pbc="T T T"
Cs       3.19349228       3.19353857       3.19351543        0      -0.00000485       0.00000485      -0.00000000
Pb       0.00000520      -0.00000520      -0.00000000        1       0.00000012      -0.00000012      -0.00000000
I        0.00003659      -0.00003659       3.19351543        2      -0.00000137       0.00000137      -0.00000000
I        3.19352639      -0.00003659      -0.00000000        3       0.00000746       0.00000137      -0.00000000
I        0.00003659       3.19350447      -0.00000000        4      -0.00000137      -0.00000746      -0.00000000
Cs       3.19349228       3.19353857       9.58054629        5      -0.00000485       0.00000485       0.00000000
Pb       0.00000520      -0.00000520       6.38703086        6       0.00000012      -0.00000012       0.00000000
I        0.00003659      -0.00003659       9.58054629        7      -0.00000137       0.00000137       0.00000000
I        3.19352639      -0.00003659       6.38703086        8       0.00000746       0.00000137       0.00000000
I        0.00003659       3.19350447       6.38703086        9      -0.00000137      -0.00000746       0.00000000
Cs       3.19349228       9.58056943       3.19351543       10      -0.00000485       0.00000485      -0.00000000
Pb       0.00000520       6.38702565      -0.00000000       11       0.00000012      -0.00000012      -0.00000000
I        0.00003659       6.38699426       3.19351543       12      -0.00000137       0.00000137      -0.00000000
I        3.19352639       6.38699426      -0.00000000       13       0.00000746       0.00000137      -0.00000000
I        0.00003659       9.58053532      -0.00000000       14      -0.00000137      -0.00000746      -0.00000000
Cs       3.19349228       9.58056943       9.58054629       15      -0.00000485       0.00000485       0.00000000
Pb       0.00000520       6.38702565       6.38703086       16       0.00000012      -0.00000012       0.00000000
I        0.00003659       6.38699426       9.58054629       17      -0.00000137       0.00000137       0.00000000
I        3.19352639       6.38699426       6.38703086       18       0.00000746       0.00000137       0.00000000
I        0.00003659       9.58053532       6.38703086       19      -0.00000137      -0.00000746       0.00000000
Cs       9.58052314       3.19353857       3.19351543       20      -0.00000485       0.00000485      -0.00000000
Pb       6.38703606      -0.00000520      -0.00000000       21       0.00000012      -0.00000012      -0.00000000
I        6.38706745      -0.00003659       3.19351543       22      -0.00000137       0.00000137      -0.00000000
I        9.58055725      -0.00003659      -0.00000000       23       0.00000746       0.00000137      -0.00000000
I        6.38706745       3.19350447      -0.00000000       24      -0.00000137      -0.00000746      -0.00000000
Cs       9.58052314       3.19353857       9.58054629       25      -0.00000485       0.00000485       0.00000000
Pb       6.38703606      -0.00000520       6.38703086       26       0.00000012      -0.00000012       0.00000000
I        6.38706745      -0.00003659       9.58054629       27      -0.00000137       0.00000137       0.00000000
I        9.58055725      -0.00003659       6.38703086       28       0.00000746       0.00000137       0.00000000
I        6.38706745       3.19350447       6.38703086       29      -0.00000137      -0.00000746       0.00000000
Cs       9.58052314       9.58056943       3.19351543       30      -0.00000485       0.00000485      -0.00000000
Pb       6.38703606       6.38702565      -0.00000000       31       0.00000012      -0.00000012      -0.00000000
I        6.38706745       6.38699426       3.19351543       32      -0.00000137       0.00000137      -0.00000000
I        9.58055725       6.38699426      -0.00000000       33       0.00000746       0.00000137      -0.00000000
I        6.38706745       9.58053532      -0.00000000       34      -0.00000137      -0.00000746      -0.00000000
Cs       9.58052314       9.58056943       9.58054629       35      -0.00000485       0.00000485       0.00000000
Pb       6.38703606       6.38702565       6.38703086       36       0.00000012      -0.00000012       0.00000000
I        6.38706745       6.38699426       9.58054629       37      -0.00000137       0.00000137       0.00000000
I        9.58055725       6.38699426       6.38703086       38       0.00000746       0.00000137       0.00000000
I        6.38706745       9.58053532       6.38703086       39      -0.00000137      -0.00000746       0.00000000
