80
Lattice="17.667040509275754 0.0 0.0 -8.833520254637873 15.300105890721571 0.0 6.679637027247451 3.8564902357703055 14.896330660911731" Properties=species:S:1:pos:R:3 pbc="T T T"
Cs       9.13091983       4.48290728       7.44111845
Cs       1.38061916       5.10830439       0.00695368
K        1.66990926       0.96412256       3.72408267
In       1.37749460       0.00645501       0.00002617
I        8.56270579       0.39746551       1.48988212
I        1.94882484       9.19370743       5.95830297
I        3.20835260       2.39554806       1.48989148
I        7.30321840       7.19568572       5.95831232
I        7.61588702       6.03354046       1.48987836
I        2.89565164       3.55768352       5.95829920
Cs      12.47073835       6.41115240      14.88928378
Cs       4.72043767       7.03654951       7.45511901
K        5.00972777       2.89236768      11.17224800
In       4.71731311       1.93470013       7.44819150
I       11.90252431       2.32571062       8.93804745
I        5.28864335      11.12195254      13.40646830
I        6.54817112       4.32379318       8.93805681
I       10.64303691       9.12393084      13.40647765
I       10.95570554       7.96178557       8.93804369
I        6.23547015       5.48592863      13.40646453
Cs       4.71415971      12.13296022       7.44111845
Cs      -3.03614097      12.75835734       0.00695368
K       -2.74685087       8.61417550       3.72408267
In      -3.03926553       7.65650796       0.00002617
I        4.14594566       8.04751845       1.48988212
I       -2.46793529      16.84376037       5.95830297
I       -1.20840752      10.04560101       1.48989148
I        2.88645827      14.84573866       5.95831232
I        3.19912690      13.68359340       1.48987836
I       -1.52110849      11.20773646       5.95829920
Cs       8.05397822      14.06120534      14.88928378
Cs       0.30367755      14.68660246       7.45511901
K        0.59296764      10.54242062      11.17224800
In       0.30055298       9.58475307       7.44819150
I        7.48576418       9.97576357       8.93804745
I        0.87188322      18.77200549      13.40646830
I        2.13141099      11.97384613       8.93805681
I        6.22627678      16.77398378      13.40647765
I        6.53894541      15.61183852       8.93804369
I        1.81871002      13.13598158      13.40646453
Cs      17.96444009       4.48290728       7.44111845
Cs      10.21413941       5.10830439       0.00695368
K       10.50342951       0.96412256       3.72408267
In      10.21101485       0.00645501       0.00002617
I       17.39622605       0.39746551       1.48988212
I       10.78234509       9.19370743       5.95830297
I       12.04187286       2.39554806       1.48989148
I       16.13673865       7.19568572       5.95831232
I       16.44940728       6.03354046       1.48987836
I       11.72917189       3.55768352       5.95829920
Cs      21.30425860       6.41115240      14.88928378
Cs      13.55395793       7.03654951       7.45511901
K       13.84324803       2.89236768      11.17224800
In      13.55083337       1.93470013       7.44819150
I       20.73604456       2.32571062       8.93804745
I       14.12216360      11.12195254      13.40646830
I       15.38169137       4.32379318       8.93805681
I       19.47655716       9.12393084      13.40647765
I       19.78922579       7.96178557       8.93804369
I       15.06899040       5.48592863      13.40646453
Cs      13.54767996      12.13296022       7.44111845
Cs       5.79737929      12.75835734       0.00695368
K        6.08666938       8.61417550       3.72408267
In       5.79425473       7.65650796       0.00002617
I       12.97946592       8.04751845       1.48988212
I        6.36558496      16.84376037       5.95830297
I        7.62511273      10.04560101       1.48989148
I       11.71997852      14.84573866       5.95831232
I       12.03264715      13.68359340       1.48987836
I        7.31241176      11.20773646       5.95829920
Cs      16.88749847      14.06120534      14.88928378
Cs       9.13719780      14.68660246       7.45511901
K        9.42648790      10.54242062      11.17224800
In       9.13407324       9.58475307       7.44819150
I       16.31928443       9.97576357       8.93804745
I        9.70540348      18.77200549      13.40646830
I       10.96493124      11.97384613       8.93805681
I       15.05979704      16.77398378      13.40647765
I       15.37246567      15.61183852       8.93804369
I       10.65223028      13.13598158      13.40646453
