80
Lattice="16.87281708144794 -0.024222404488415977 -3.5255042366833425 -8.749088680247288 14.851250189191306 0.1683884984070387 3.561172487415232 1.904393839610182 17.028343276805323" Properties=species:S:1:pos:R:3:spacegroup_kinds:I:1:forces:R:3 spacegroup="P 1" unit_cell=conventional occupancy="_JSON {\"0\": {\"Cs\": 1.0}, \"1\": {\"Cs\": 1.0}, \"2\": {\"K\": 1.0}, \"3\": {\"In\": 1.0}, \"4\": {\"I\": 1.0}, \"5\": {\"I\": 1.0}, \"6\": {\"I\": 1.0}, \"7\": {\"I\": 1.0}, \"8\": {\"I\": 1.0}, \"9\": {\"I\": 1.0}, \"10\": {\"Cs\": 1.0}, \"11\": {\"Cs\": 1.0}, \"12\": {\"K\": 1.0}, \"13\": {\"In\": 1.0}, \"14\": {\"I\": 1.0}, \"15\": {\"I\": 1.0}, \"16\": {\"I\": 1.0}, \"17\": {\"I\": 1.0}, \"18\": {\"I\": 1.0}, \"19\": {\"I\": 1.0}, \"20\": {\"Cs\": 1.0}, \"21\": {\"Cs\": 1.0}, \"22\": {\"K\": 1.0}, \"23\": {\"In\": 1.0}, \"24\": {\"I\": 1.0}, \"25\": {\"I\": 1.0}, \"26\": {\"I\": 1.0}, \"27\": {\"I\": 1.0}, \"28\": {\"I\": 1.0}, \"29\": {\"I\": 1.0}, \"30\": {\"Cs\": 1.0}, \"31\": {\"Cs\": 1.0}, \"32\": {\"K\": 1.0}, \"33\": {\"In\": 1.0}, \"34\": {\"I\": 1.0}, \"35\": {\"I\": 1.0}, \"36\": {\"I\": 1.0}, \"37\": {\"I\": 1.0}, \"38\": {\"I\": 1.0}, \"39\": {\"I\": 1.0}, \"40\": {\"Cs\": 1.0}, \"41\": {\"Cs\": 1.0}, \"42\": {\"K\": 1.0}, \"43\": {\"In\": 1.0}, \"44\": {\"I\": 1.0}, \"45\": {\"I\": 1.0}, \"46\": {\"I\": 1.0}, \"47\": {\"I\": 1.0}, \"48\": {\"I\": 1.0}, \"49\": {\"I\": 1.0}, \"50\": {\"Cs\": 1.0}, \"51\": {\"Cs\": 1.0}, \"52\": {\"K\": 1.0}, \"53\": {\"In\": 1.0}, \"54\": {\"I\": 1.0}, \"55\": {\"I\": 1.0}, \"56\": {\"I\": 1.0}, \"57\": {\"I\": 1.0}, \"58\": {\"I\": 1.0}, \"59\": {\"I\": 1.0}, \"60\": {\"Cs\": 1.0}, \"61\": {\"Cs\": 1.0}, \"62\": {\"K\": 1.0}, \"63\": {\"In\": 1.0}, \"64\": {\"I\": 1.0}, \"65\": {\"I\": 1.0}, \"66\": {\"I\": 1.0}, \"67\": {\"I\": 1.0}, \"68\": {\"I\": 1.0}, \"69\": {\"I\": 1.0}, \"70\": {\"Cs\": 1.0}, \"71\": {\"Cs\": 1.0}, \"72\": {\"K\": 1.0}, \"73\": {\"In\": 1.0}, \"74\": {\"I\": 1.0}, \"75\": {\"I\": 1.0}, \"76\": {\"I\": 1.0}, \"77\": {\"I\": 1.0}, \"78\": {\"I\": 1.0}, \"79\": {\"I\": 1.0}}" energy=-206.20624036286685 free_energy=-206.20624036286685 stress="-7.453783750908604e-07 -2.873578404904902e-07 3.863306548039655e-07 -2.873578404904902e-07 -9.041638599978339e-07 -1.147667151432917e-07 3.863306548039655e-07 -1.147667151432917e-07 2.1178293001946487e-07" pbc="T T T"
Cs       6.87964611       3.28805522       5.91811272        0       0.00000769       0.00019401      -0.00002882
Cs       1.33089549       5.08442243       0.42193795        1       0.00006584       0.00000478      -0.00014445
K        2.07457496       0.47978111       4.00966811        2      -0.00005344       0.00034938       0.00017621
In       1.18501045       0.00445472      -0.24702251        3       0.00007006      -0.00061503      -0.00003821
I        7.76711910       1.12266508       0.04415656        4      -0.00026745       0.00016435       0.00000335
I        0.44360041       7.25194801       6.29529098        5       0.00040512       0.00002989       0.00029143
I        3.40424611       1.64785206       0.89754744        6      -0.00034839      -0.00016029      -0.00018907
I        4.80760071       6.72432722       5.44146593        7       0.00008612       0.00048179       0.00015561
I        5.94808920       5.21236171      -0.03513702        8      -0.00018878       0.00015445      -0.00007140
I        2.26248396       3.16153990       6.37391265        9       0.00038576      -0.00026584       0.00002181
Cs       8.66146557       4.24014151      14.43277968       10       0.00007625      -0.00003517      -0.00007422
Cs       3.11107021       6.03730272       8.93451754       11      -0.00037007       0.00006240      -0.00000921
K        3.85530655       1.43331482      12.52378991       12      -0.00030133      -0.00009613      -0.00003701
In       2.96369057       0.95693261       8.26719182       13      -0.00031473      -0.00012230      -0.00061028
I        9.54616131       2.07549097       8.55897619       14      -0.00005343       0.00009189      -0.00015149
I        2.22602019       8.20226531      14.81013000       15      -0.00026516       0.00027998       0.00025747
I        5.18233723       2.60125241       9.41095926       16       0.00039615       0.00017473       0.00028357
I        6.58986247       7.67585205      13.95620017       17      -0.00005647      -0.00005137       0.00014864
I        7.72632937       6.16473617       8.47851850       18       0.00056204      -0.00027867       0.00053798
I        4.04622372       4.11394587      14.88862816       19      -0.00019410      -0.00007213      -0.00051470
Cs       2.50432253      10.71579923       6.00221692       20      -0.00028893      -0.00022311      -0.00012318
Cs      -3.04344095      12.50919887       0.50608394       21       0.00010180       0.00022590       0.00002378
K       -2.30192688       7.90546099       4.09282482       22       0.00057864       0.00013885       0.00024619
In      -3.19016886       7.42828971      -0.16462094       23      -0.00007081       0.00040402       0.00021737
I        3.39071053       8.54684964       0.12576881       24       0.00035229      -0.00023807       0.00004106
I        4.81829867      -0.17398572       6.21346742       25       0.00003804      -0.00033456       0.00005315
I       -0.97172791       9.07237156       0.98082962       26      -0.00035643      -0.00015351      -0.00021971
I        0.43194293      14.15273323       5.52844492       27       0.00008431      -0.00016445      -0.00009494
I        1.57149097      12.63704630       0.05159366       28      -0.00013221      -0.00017025      -0.00005427
I       -2.11136838      10.58739246       6.45726436       29      -0.00000916      -0.00011438      -0.00002862
Cs       4.28479968      11.66699165      14.51602998       30       0.00000519       0.00008107       0.00011305
Cs      -1.26338943      13.46239344       9.02075481       31      -0.00014351       0.00000420      -0.00001431
K       -0.51939010       8.85709175      12.60704974       32      -0.00001686      -0.00019328      -0.00031431
In      -1.41067568       8.38195678       8.34954827       33       0.00028363      -0.00040477      -0.00008572
I        5.17097339       9.49963245       8.64054654       34       0.00049480       0.00007269      -0.00028360
I        6.59986121       0.77711171      14.72718569       35      -0.00021938       0.00002818       0.00006130
I        0.80813375      10.02577811       9.49437460       36      -0.00006753      -0.00008456       0.00027743
I        2.21360940      15.10473388      14.04234952       37      -0.00010260      -0.00017382      -0.00020172
I        3.35133993      13.59076424       8.56563165       38       0.00024367      -0.00067649       0.00044739
I       -0.32880181      11.53818067      14.97098010       39      -0.00002755       0.00027617       0.00012237
Cs      15.31530089       3.27616957       4.15564956       40      -0.00008913       0.00012797      -0.00011640
Cs       9.76792676       5.07193339      -1.34138821       41       0.00033361       0.00012704      -0.00014331
K       10.51066983       0.46755326       2.24734355       42      -0.00003691       0.00016170       0.00009229
In       9.62140950      -0.00860516      -2.00933833       43      -0.00035989      -0.00000046      -0.00027021
I       16.20364750       1.11107310      -1.71882288       44      -0.00047595       0.00004814       0.00018678
I        8.88044198       7.24045800       4.53213569       45       0.00055282      -0.00025700       0.00012049
I       11.84098648       1.63404633      -0.86470930       46      -0.00019636       0.00017080      -0.00019149
I       13.24366591       6.71322565       3.67970624       47      -0.00019897       0.00027600      -0.00017031
I       -2.49054318       5.22358786       1.72891058       48       0.00005931       0.00010560      -0.00026247
I       10.70029240       3.14961431       4.61156481       49       0.00006554      -0.00008753      -0.00001653
Cs      17.09712570       4.22737315      12.67010524       50       0.00000388       0.00023478      -0.00008700
Cs      11.54756770       6.02545506       7.17241636       51      -0.00022299      -0.00003801      -0.00006616
K       12.29170669       1.42074963      10.76142849       52      -0.00030089      -0.00008184      -0.00009799
In      11.40034926       0.94480837       6.50499964       53      -0.00053377       0.00022040      -0.00058752
I       17.98231797       2.06308051       6.79555712       54      -0.00024589       0.00006189       0.00025331
I       10.66300938       8.19236705      13.04649277       55      -0.00041465       0.00011929       0.00037755
I       13.61935800       2.58858130       7.64904153       56       0.00003699       0.00008434      -0.00005038
I       15.02561674       7.66428445      12.19335673       57       0.00004315       0.00003381       0.00019208
I       -0.71037476       6.17639433      10.24192270       58       0.00053908       0.00041549       0.00022933
I       12.48372385       4.10150428      13.12603718       59      -0.00045885      -0.00038450      -0.00015648
Cs      10.94156619      10.70386173       4.23937633       60      -0.00031795      -0.00020642       0.00009791
Cs       5.39218269      12.49811850      -1.25691689       61       0.00020154       0.00001969       0.00007450
K        6.13513520       7.89334626       2.32920780       62       0.00045411       0.00034036       0.00038266
In       5.24620293       7.41707556      -1.92807083       63       0.00010423       0.00032047       0.00011286
I       11.82720873       8.53539840      -1.63702269       64       0.00047340      -0.00012048       0.00002236
I       13.25427235      -0.18673242       4.45101171       65       0.00028318      -0.00010548      -0.00030351
I        7.46360307       9.06267787      -0.78308593       66      -0.00003703      -0.00029011       0.00003252
I        8.86882185      14.13973821       3.76517328       67       0.00005127      -0.00021093      -0.00003082
I       -6.86415595      12.65008739       1.81392281       68      -0.00010056       0.00006056      -0.00037291
I        6.32389388      10.57494080       4.69389018       69       0.00009185      -0.00007471       0.00019894
Cs      12.72230771      11.65619499      12.75283275       70       0.00000422      -0.00012273       0.00006185
Cs       7.17246853      13.45041653       7.25717414       71       0.00013451      -0.00018214       0.00026685
K        7.91684829       8.84525115      10.84389233       72      -0.00018838       0.00006628      -0.00023588
In       7.02548040       8.36968964       6.58594939       73      -0.00043708       0.00028608       0.00018969
I       13.60809054       9.48812149       6.87842202       74      -0.00009337       0.00032364       0.00008283
I       15.03577013       0.76381430      12.96466353       75       0.00003691       0.00023220      -0.00023985
I        9.24377242      10.01422614       7.73095094       76       0.00001444       0.00000198       0.00023501
I       10.65019198      15.09279527      12.27940188       77       0.00021948      -0.00013794       0.00000400
I       -5.08474058      13.60314984      10.32839556       78       0.00028673      -0.00034013      -0.00017446
I        8.10519207      11.52644948      13.20800563       79       0.00032932       0.00021137       0.00016991
