10
Lattice="9.868948713057517 0.0 0.0 4.934474356570291 8.546760294129756 0.0 4.934474356650074 2.8489200981051837 8.05796310274311" Properties=species:S:1:pos:R:3 pbc="T T T"
Cs       4.93444190       2.84891037       2.01449182
Cs      14.80345543       8.54676977       6.04347111
K        9.86894875       5.69784011       4.02898153
In       0.00000011       0.00000024       0.00000009
I        7.55031213       3.71731332       5.62727424
I       12.18758540       7.67836674       2.43068877
I       10.51338778       3.10409411       1.87265397
I        9.22450938       8.29158589       6.18530900
I        7.22815566       7.22262689       1.87266076
I       12.50974211       4.17305396       6.18530259
