10
Lattice="12.765129564825406 -0.4603241700378104 -0.14256692504068325 0.20908583372829512 6.2373772655339845 -1.3589614941130335 0.11796678040581164 1.3556222079788947 6.240043052696477" Properties=species:S:1:pos:R:3:spacegroup_kinds:I:1:forces:R:3 spacegroup="P 1" unit_cell=conventional occupancy="_JSON {\"0\": {\"Cs\": 1.0}, \"1\": {\"Pb\": 1.0}, \"2\": {\"I\": 1.0}, \"3\": {\"I\": 1.0}, \"4\": {\"I\": 1.0}, \"5\": {\"Cs\": 1.0}, \"6\": {\"Pb\": 1.0}, \"7\": {\"I\": 1.0}, \"8\": {\"I\": 1.0}, \"9\": {\"I\": 1.0}}" energy=-27.961484561549977 free_energy=-27.961484561549977 stress="-8.324939477845896e-07 -2.6462788429684302e-06 -1.7354103448090977e-06 -2.6462788429684302e-06 -5.217299783184924e-07 -2.2091986353364578e-06 -1.7354103448090977e-06 -2.2091986353364578e-06 -1.1282385786998907e-05" pbc="T T T"
Cs       3.35483929       3.68137131       2.40490413        0       0.00000239      -0.00000401      -0.00000005
Pb       0.00000114      -0.00001132       0.00001668        1       0.00000234       0.00001294      -0.00002891
I        0.05897536       0.67782568       3.12000147        2       0.00000033       0.00001276       0.00003559
I        3.19128402      -0.11506629      -0.03563816        3      -0.00000368       0.00000397      -0.00000671
I       12.86966324       2.65837809      -0.82204983        4      -0.00000137      -0.00002566       0.00000009
Cs       9.73740408       3.45120922       2.33362067        5       0.00000239      -0.00000401      -0.00000005
Pb       6.38256593      -0.23017341      -0.07126678        6       0.00000234       0.00001294      -0.00002891
I        6.44154014       0.44766360       3.04871801        7       0.00000033       0.00001276       0.00003559
I        9.57384880      -0.34522838      -0.10692163        8      -0.00000368       0.00000397      -0.00000671
I        6.48709846       2.88854018      -0.75076637        9      -0.00000137      -0.00002566       0.00000009
