10
Lattice="17.99791510204851 -0.8384402596132546 2.573571869677377 -9.024765905705479 7.385584349347132 0.42316709883456 7.0864403792836566 9.589661825046996 8.093711289547764" Properties=species:S:1:pos:R:3:spacegroup_kinds:I:1:forces:R:3 spacegroup="P 1" unit_cell=conventional occupancy="_JSON {\"0\": {\"Cs\": 1.0}, \"1\": {\"Cs\": 1.0}, \"2\": {\"K\": 1.0}, \"3\": {\"In\": 1.0}, \"4\": {\"I\": 1.0}, \"5\": {\"I\": 1.0}, \"6\": {\"I\": 1.0}, \"7\": {\"I\": 1.0}, \"8\": {\"I\": 1.0}, \"9\": {\"I\": 1.0}}" energy=-24.533359899722292 free_energy=-24.533359899722292 stress="6.7827686861466136e-06 -2.1430051059465575e-06 -2.068046445294134e-06 -2.1430051059465575e-06 -6.718029258719546e-06 -5.054758919347968e-06 -2.068046445294134e-06 -5.054758919347968e-06 -2.6206757263782307e-06" pbc="T T T"
Cs      19.07547568      11.48091718      12.03456903        0      -0.00011346      -0.00003149      -0.00012206
Cs       2.43985812       1.19312746       0.17619298        1      -0.00002109       0.00009147      -0.00016058
K       15.01832485      10.09743356       6.98040777        2      -0.00000166       0.00017656      -0.00000155
In      -1.89975638       3.72409229       0.95105733        3      -0.00004647      -0.00015801       0.00015723
I       12.30597534       7.72374051       7.12042692        4       0.00000157      -0.00016372      -0.00018902
I        5.82185606      11.27796267       6.71889715        5       0.00027768       0.00012179       0.00000576
I        9.41684278       4.37814606       2.85884187        6       0.00014397       0.00006128      -0.00009334
I       17.51612856      12.39653771       8.47016214        7      -0.00004034      -0.00015540       0.00034203
I        0.71994542       5.16717689       1.05300363        8      -0.00004743       0.00000207      -0.00010900
I        3.94621712       5.89665218       5.58831970        9      -0.00015276       0.00005545       0.00017052
