10
Lattice="10.442680112800934 0.0 0.0 -4.887076327175907 5.7509353339796485 0.0 3.9235545406251346 7.029308694431744 4.2548956620634595" Properties=species:S:1:pos:R:3 pbc="T T T"
Cs      11.97704070       7.45995614       4.25079275
Cs       2.95094258       2.36083912       0.00389516
K        1.96177727       3.51465435       2.12744783
In       2.72444175      -1.47973805       0.00004129
I       11.21383040      -0.06968014       0.85111273
I        3.71413366       9.89039465       3.40377686
I        4.97142154       1.43241486       0.85114407
I        9.95662541       8.38841407       3.40380820
I       10.34080384       4.16727601       0.85112796
I        4.58718248       5.65353864       3.40379209
