10
Lattice="9.179800171379744 -0.01726653552437278 0.007016886679779795 4.588595953082182 8.00003877020113 -0.02105347722634808 4.573737324901992 2.6262491672781985 6.935533195332392" Properties=species:S:1:pos:R:3:spacegroup_kinds:I:1:forces:R:3 spacegroup="P 1" unit_cell=conventional occupancy="_JSON {\"0\": {\"Cs\": 1.0}, \"1\": {\"Cs\": 1.0}, \"2\": {\"K\": 1.0}, \"3\": {\"In\": 1.0}, \"4\": {\"I\": 1.0}, \"5\": {\"I\": 1.0}, \"6\": {\"I\": 1.0}, \"7\": {\"I\": 1.0}, \"8\": {\"I\": 1.0}, \"9\": {\"I\": 1.0}}" energy=-25.648945855793862 free_energy=-25.648945855793862 stress="1.2868299426121008e-06 -1.6767060942807483e-06 -1.8279895693889364e-06 -1.6767060942807483e-06 2.0515336963494265e-06 2.3938215530278214e-07 -1.8279895693889364e-06 2.3938215530278214e-07 7.102781800537915e-07" pbc="T T T"
Cs       4.60062386       2.64019240       1.92105081        0      -0.00076300       0.00007776      -0.00036066
Cs      13.74285153       7.96901682       5.00142576        1      -0.00044592       0.00001471      -0.00003189
K        9.17130216       5.30401210       3.46073729        2      -0.00043097       0.00043103       0.00006714
In       9.17945900      -0.01734222       0.00694332        3       0.00020127       0.00004996       0.00000299
I        6.95698597       3.20612751       5.24969435        4       0.00021473      -0.00014051       0.00000080
I       11.38449529       7.40291881       1.67168214        5       0.00043007      -0.00010617      -0.00028530
I        9.87301829       2.29061087       1.74717103        6       0.00028084      -0.00005607       0.00010198
I        8.46852971       8.31838865       5.17395292        7       0.00048108       0.00001185       0.00009817
I        6.24705951       6.19735999       1.67654617        8      -0.00029514       0.00002845      -0.00000243
I       12.09507545       4.41204431       5.24454765        9       0.00032704      -0.00031099       0.00040919
