40
Lattice="17.046365958917544 0.0 0.0 8.523182979530546 14.762585962587638 0.0 4.261591489834156 2.460430993818154 6.959149952369036" Properties=species:S:1:pos:R:3 pbc="T T T"
Cs       4.26157324       2.46042552       1.73978785
Cs      12.78479266       7.38129831       5.21936201
K        8.52318303       4.92086196       3.47957499
In       0.00000009       0.00000015       0.00000005
I        6.42362215       3.34773895       5.02804581
I       10.62274394       6.49398488       1.93110414
I        8.88557354       2.54350060       1.61730174
I        8.16079234       7.29822319       5.34184818
I        6.24246235       6.23770649       1.61730556
I       10.80390387       3.60401779       5.34184458
Cs       8.52316473       9.84171850       1.73978785
Cs      17.04638415      14.76259129       5.21936201
K       12.78477452      12.30215494       3.47957499
In       4.26159158       7.38129313       0.00000005
I       10.68521364      10.72903194       5.02804581
I       14.88433543      13.87527786       1.93110414
I       13.14716503       9.92479358       1.61730174
I       12.42238383      14.67951617       5.34184818
I       10.50405384      13.61899948       1.61730556
I       15.06549536      10.98531077       5.34184458
Cs      12.78475622       2.46042552       1.73978785
Cs      21.30797564       7.38129831       5.21936201
K       17.04636601       4.92086196       3.47957499
In       8.52318307       0.00000015       0.00000005
I       14.94680513       3.34773895       5.02804581
I       19.14592692       6.49398488       1.93110414
I       17.40875652       2.54350060       1.61730174
I       16.68397532       7.29822319       5.34184818
I       14.76564533       6.23770649       1.61730556
I       19.32708685       3.60401779       5.34184458
Cs      17.04634771       9.84171850       1.73978785
Cs      25.56956713      14.76259129       5.21936201
K       21.30795750      12.30215494       3.47957499
In      12.78477456       7.38129313       0.00000005
I       19.20839662      10.72903194       5.02804581
I       23.40751841      13.87527786       1.93110414
I       21.67034801       9.92479358       1.61730174
I       20.94556681      14.67951617       5.34184818
I       19.02723682      13.61899948       1.61730556
I       23.58867834      10.98531077       5.34184458
