5
Lattice="6.3869886392276225 -2.229588673936885e-08 -3.209714423152564e-17 -2.2295886732743344e-08 6.386988639227724 2.8002059627822076e-16 -3.0006253188731933e-17 2.956646308890532e-16 6.386988636245774" Properties=species:S:1:pos:R:3:spacegroup_kinds:I:1:forces:R:3 spacegroup="P 1" unit_cell=conventional occupancy="_JSON {\"0\": {\"Cs\": 1.0}, \"1\": {\"Pb\": 1.0}, \"2\": {\"I\": 1.0}, \"3\": {\"I\": 1.0}, \"4\": {\"I\": 1.0}}" energy=-13.980742412896717 free_energy=-13.980742412896717 stress="-3.538562737106089e-06 -1.9239717381344568e-10 2.4468408760457267e-19 -1.9239717381344568e-10 -3.538562737284594e-06 1.3179421471869082e-17 2.4468408760457267e-19 1.3179421471869082e-17 -3.538568605649247e-06" pbc="T T T"
Cs       3.19380030       3.19318831       3.19349432        0       0.00000947      -0.00000947      -0.00000000
Pb       0.00000952      -0.00000952      -0.00000000        1       0.00000690      -0.00000690      -0.00000000
I        0.00002562      -0.00002562       3.19349432        2      -0.00002242       0.00002242      -0.00000000
I        3.19349987      -0.00002563      -0.00000000        3       0.00002847       0.00002242       0.00000000
I        0.00002560       3.19348877      -0.00000000        4      -0.00002242      -0.00002847       0.00000000
