40
Lattice="14.591820266315361 0.0 0.0 14.884160142528438 10.014735806197153 0.0 1.9688496705639336 -0.28522723720131044 6.946714128270315" Properties=species:S:1:pos:R:3 pbc="T T T"
Cs       4.17655282       1.18048815       1.73670231
Cs      12.53028676       3.54165128       5.21001101
K        8.35341967       2.36106951       3.47335653
In       0.00000026       0.00000087       0.00000038
I        6.49352992      -1.25744610       2.80421727
I       10.21330945       5.97958440       4.14249583
I       11.28537194       2.55009814       2.44777536
I        5.42146522       2.17204032       4.49893723
I        8.25049931       3.02844983       0.78080610
I        8.45634102       1.69369299       6.16590931
Cs      11.61863290       6.18785605       1.73670231
Cs      19.97236683       8.54901919       5.21001101
K       15.79549974       7.36843741       3.47335653
In       7.44208033       5.00736877       0.00000038
I       13.93560999       3.74992181       2.80421727
I       17.65538952      10.98695231       4.14249583
I       18.72745201       7.55746604       2.44777536
I       12.86354529       7.17940822       4.49893723
I       15.69257938       8.03581773       0.78080610
I       15.89842109       6.70106090       6.16590931
Cs      11.47246296       1.18048815       1.73670231
Cs      19.82619689       3.54165128       5.21001101
K       15.64932980       2.36106951       3.47335653
In       7.29591039       0.00000087       0.00000038
I       13.78944006      -1.25744610       2.80421727
I       17.50921958       5.97958440       4.14249583
I       18.58128208       2.55009814       2.44777536
I       12.71737535       2.17204032       4.49893723
I       15.54640944       3.02844983       0.78080610
I       15.75225116       1.69369299       6.16590931
Cs      18.91454303       6.18785605       1.73670231
Cs      27.26827696       8.54901919       5.21001101
K       23.09140987       7.36843741       3.47335653
In      14.73799046       5.00736877       0.00000038
I       21.23152013       3.74992181       2.80421727
I       24.95129965      10.98695231       4.14249583
I       26.02336215       7.55746604       2.44777536
I       20.15945543       7.17940822       4.49893723
I       22.98848951       8.03581773       0.78080610
I       23.19433123       6.70106090       6.16590931
