20
Lattice="8.547503531908678 -0.08372194700328964 -0.8180389123925221 -0.804456811918371 9.733127334326742 -1.214946834449633 0.9080261134725839 1.6694259689821458 12.39676941505912" Properties=species:S:1:pos:R:3:spacegroup_kinds:I:1:forces:R:3 spacegroup="P 1" unit_cell=conventional occupancy="_JSON {\"0\": {\"Cs\": 1.0}, \"1\": {\"Cs\": 1.0}, \"2\": {\"Cs\": 1.0}, \"3\": {\"Cs\": 1.0}, \"4\": {\"Pb\": 1.0}, \"5\": {\"Pb\": 1.0}, \"6\": {\"Pb\": 1.0}, \"7\": {\"Pb\": 1.0}, \"8\": {\"I\": 1.0}, \"9\": {\"I\": 1.0}, \"10\": {\"I\": 1.0}, \"11\": {\"I\": 1.0}, \"12\": {\"I\": 1.0}, \"13\": {\"I\": 1.0}, \"14\": {\"I\": 1.0}, \"15\": {\"I\": 1.0}, \"16\": {\"I\": 1.0}, \"17\": {\"I\": 1.0}, \"18\": {\"I\": 1.0}, \"19\": {\"I\": 1.0}}" energy=-55.98808768562403 free_energy=-55.98808768562403 stress="2.176781497103359e-06 1.7711291088192445e-06 1.9495188447379557e-06 1.7711291088192445e-06 -3.761043274876046e-06 -5.39833296992811e-07 1.9495188447379557e-06 -5.39833296992811e-07 -2.783917368518121e-06" pbc="T T T"
Cs       5.71112382       9.61689842       1.41903521        0       0.00046075       0.00038601       0.00014938
Cs       1.84505087       5.15546226       2.63861938        1      -0.00014405       0.00039977       0.00008427
Cs       7.31877681       2.40694789       8.26135771        2       0.00011915       0.00006073       0.00002699
Cs       1.78455365       7.67676857       8.39994447        3      -0.00040681      -0.00029727      -0.00014382
Pb       2.20587206       0.36055164      -0.26187704        4       0.00027358       0.00023200       0.00006941
Pb       4.51970860       4.67764437      -1.10858408        5       0.00008341       0.00023285       0.00020814
Pb       2.62488698       1.02319354       5.88638158        6      -0.00000067       0.00008522      -0.00001307
Pb       6.39668969       5.94028593       4.85423918        7      -0.00000174      -0.00008639      -0.00004719
I        2.95942220       7.54340622      -0.46205445        8       0.00029980       0.00017106      -0.00006284
I        5.42441284       1.80937571      -0.50205526        9      -0.00059021      -0.00034134       0.00030569
I        1.57757994       1.23234594       2.82401152       10      -0.00007045      -0.00021536      -0.00003993
I        2.48701389       5.28785676      11.40833270       11      -0.00008772       0.00010215      -0.00044998
I        8.24968337      10.05370259       9.90337969       12       0.00022298       0.00027074       0.00059848
I        6.48589214       5.76963171       1.73098470       13      -0.00013672      -0.00019469      -0.00031472
I        3.49109081       8.19443883       4.49633463       14       0.00002950       0.00019300      -0.00013405
I        4.97981649       3.07157145       4.83888465       15       0.00032236      -0.00050779       0.00003318
I        3.54962460       1.62868057       8.90816573       16       0.00003493      -0.00023335      -0.00005434
I        0.53756037       4.61440710       6.25606892       17       0.00016677       0.00006328      -0.00038920
I        7.77209200       9.02367661       4.85055560       18      -0.00034280      -0.00014964      -0.00009949
I        5.80135042       6.30166362       8.23351943       19      -0.00023207      -0.00017100       0.00027309
