20
Lattice="7.221773406900935 0.0 0.0 -0.5592150179566657 8.069487115324693 0.0 2.0882576761720015 3.065763710334839 13.217354950943376" Properties=species:S:1:pos:R:3 pbc="T T T"
Cs       5.26021425       8.61464135       3.30433875
Cs       2.32372528       4.58049123       3.30433875
Cs       7.17126946       3.33414551       9.91301622
Cs      10.10781954       7.36948250       9.91301622
Pb       1.84028786       0.40720975       0.00000350
Pb       3.33127919       4.03474356       0.00000000
Pb       2.88441670       1.94009161       6.60867400
Pb       6.21571426       5.97452962       6.60869063
I        2.93381808       6.17396480       0.54904425
I        4.02929116       2.13917361       0.54960467
I        8.96713732       1.24990721       3.30433875
I        9.49765034       5.77544918      12.66769068
I        8.40218200       9.81014511      12.66825111
I        6.30001328       5.28404318       3.30433875
I        3.80435799       7.45200137       6.05963325
I        4.89983107       3.41721018       6.05907283
I        3.46418710      10.70008123       9.91301622
I        8.62711043       4.49741262       7.15834177
I        7.53164209       8.53210855       7.15778134
I        6.13132695       6.66473009       9.91301622
