80
Lattice="18.58168484480593 0.6999563847815857 -0.06694243536029851 -9.902031339045374 15.65677142436189 -1.6734561604106384 -0.0018293638583935367 1.8684553627575506 17.558359558980076" Properties=species:S:1:pos:R:3:spacegroup_kinds:I:1 spacegroup="_JSON {\"number\": 1, \"setting\": 1}" unit_cell=conventional occupancy="_JSON {\"0\": {\"Cs\": 1.0}, \"1\": {\"Cs\": 1.0}, \"2\": {\"K\": 1.0}, \"3\": {\"In\": 1.0}, \"4\": {\"I\": 1.0}, \"5\": {\"I\": 1.0}, \"6\": {\"I\": 1.0}, \"7\": {\"I\": 1.0}, \"8\": {\"I\": 1.0}, \"9\": {\"I\": 1.0}, \"10\": {\"Cs\": 1.0}, \"11\": {\"Cs\": 1.0}, \"12\": {\"K\": 1.0}, \"13\": {\"In\": 1.0}, \"14\": {\"I\": 1.0}, \"15\": {\"I\": 1.0}, \"16\": {\"I\": 1.0}, \"17\": {\"I\": 1.0}, \"18\": {\"I\": 1.0}, \"19\": {\"I\": 1.0}, \"20\": {\"Cs\": 1.0}, \"21\": {\"Cs\": 1.0}, \"22\": {\"K\": 1.0}, \"23\": {\"In\": 1.0}, \"24\": {\"I\": 1.0}, \"25\": {\"I\": 1.0}, \"26\": {\"I\": 1.0}, \"27\": {\"I\": 1.0}, \"28\": {\"I\": 1.0}, \"29\": {\"I\": 1.0}, \"30\": {\"Cs\": 1.0}, \"31\": {\"Cs\": 1.0}, \"32\": {\"K\": 1.0}, \"33\": {\"In\": 1.0}, \"34\": {\"I\": 1.0}, \"35\": {\"I\": 1.0}, \"36\": {\"I\": 1.0}, \"37\": {\"I\": 1.0}, \"38\": {\"I\": 1.0}, \"39\": {\"I\": 1.0}, \"40\": {\"Cs\": 1.0}, \"41\": {\"Cs\": 1.0}, \"42\": {\"K\": 1.0}, \"43\": {\"In\": 1.0}, \"44\": {\"I\": 1.0}, \"45\": {\"I\": 1.0}, \"46\": {\"I\": 1.0}, \"47\": {\"I\": 1.0}, \"48\": {\"I\": 1.0}, \"49\": {\"I\": 1.0}, \"50\": {\"Cs\": 1.0}, \"51\": {\"Cs\": 1.0}, \"52\": {\"K\": 1.0}, \"53\": {\"In\": 1.0}, \"54\": {\"I\": 1.0}, \"55\": {\"I\": 1.0}, \"56\": {\"I\": 1.0}, \"57\": {\"I\": 1.0}, \"58\": {\"I\": 1.0}, \"59\": {\"I\": 1.0}, \"60\": {\"Cs\": 1.0}, \"61\": {\"Cs\": 1.0}, \"62\": {\"K\": 1.0}, \"63\": {\"In\": 1.0}, \"64\": {\"I\": 1.0}, \"65\": {\"I\": 1.0}, \"66\": {\"I\": 1.0}, \"67\": {\"I\": 1.0}, \"68\": {\"I\": 1.0}, \"69\": {\"I\": 1.0}, \"70\": {\"Cs\": 1.0}, \"71\": {\"Cs\": 1.0}, \"72\": {\"K\": 1.0}, \"73\": {\"In\": 1.0}, \"74\": {\"I\": 1.0}, \"75\": {\"I\": 1.0}, \"76\": {\"I\": 1.0}, \"77\": {\"I\": 1.0}, \"78\": {\"I\": 1.0}, \"79\": {\"I\": 1.0}}" pbc="T T T"
Cs       2.85769280       3.75448601      -0.39784871        0
Cs      -1.89103777       7.18009561       8.11132237        1
K       -1.68592515       1.37815141       4.29182071        2
In      16.89553186       1.61098204      -0.16471992        3
I       15.59768286       3.85071359       1.37279556        4
I        3.95066808       7.78400796       6.27362200        5
I       -0.54771707       3.80211607       6.69682991        6
I        1.51442370       7.13269608       1.01654350        7
I       -4.20116565       9.01764751       0.81281298        8
I        5.16761907       1.91706047       6.90057443        9
Cs       2.85676713       4.68879988       8.38099152       10
Cs      -1.89199904       8.11431785      16.89047268       11
K       -1.68825439       2.31238663      13.07098152       12
In      16.89450268       2.54530795       8.61437290       13
I       15.59683932       4.78488908      10.15189023       14
I        3.94965239       8.71811525      15.05290694       15
I       -0.54885117       4.73618493      15.47591333       16
I        1.51343013       8.06676778       9.79564602       17
I       -4.20202226       9.95189745       9.59200001       18
I        5.16681772       2.85125389      15.67973253       19
Cs      -2.09351317      11.58277891      -1.23467586       20
Cs      -6.84214855      15.00851645       7.27438981       21
K       -6.63755085       9.20653499       3.45508123       22
In      11.94444814       9.43939908      -1.00148320       23
I       10.64671020      11.67922494       0.53609752       24
I       -1.00024009      15.61221753       5.43701266       25
I       -5.49884436      11.63039113       5.86001964       26
I       -3.43663044      14.96098391       0.17975790       27
I        0.75009127       1.18922342       1.64942448       28
I        0.21667057       9.74543149       6.06381468       29
Cs      -2.09425211      12.51701649       7.54464699       30
Cs      -6.84287789      15.94283438      16.05385926       31
K       -6.63857531      10.14079965      12.23413447       32
In      11.94359257      10.37354984       7.77769646       33
I       10.64563694      12.61338188       9.31503902       34
I       -1.00131817      16.54646260      14.21610721       35
I       -5.49984982      12.56461743      14.63932099       36
I       -3.43763891      15.89524183       8.95893584       37
I        0.74887630       2.12332943      10.42857701       38
I        0.21556457      10.67967337      14.84306469       39
Cs      12.14847838       4.10439080      -0.43145176       40
Cs       7.39982644       7.53019350       8.07763345       41
K        7.60405691       1.72809905       4.25831725       42
In       7.60466965       1.26095018      -0.13124288       43
I        6.30675275       3.50078885       1.40616062       44
I       13.24160149       8.13380236       6.24018871       45
I        8.74298252       4.15200222       6.66338428       46
I       10.80525459       7.48263654       0.98309344       47
I        5.08982313       9.36768472       0.77927939       48
I       14.45846518       2.26700738       6.86704691       49
Cs      12.14753153       5.03884911       8.34800381       50
Cs       7.39888544       8.46444513      16.85698307       51
K        7.60350943       2.66244299      13.03742269       52
In       7.60375178       2.19519273       8.64785979       53
I        6.30568958       4.43503975      10.18539572       54
I       13.24061922       9.06802558      15.01938093       55
I        8.74205434       5.08630179      15.44250466       56
I       10.80428456       8.41685649       9.76216582       57
I        5.08879681      10.30194783       9.55852521       58
I       14.45743773       3.20117957      15.64636607       59
Cs       7.19741810      11.93286898      -1.26808683       60
Cs       2.44881199      15.35854536       7.24135445       61
K        2.65368343       9.55648161       3.42156193       62
In       2.65360295       9.08938539      -0.96802195       63
I        1.35586349      11.32917029       0.56944366       64
I        8.29037712      15.96236044       5.40347323       65
I        3.79195830      11.98038439       5.82664798       66
I        5.85420669      15.31115811       0.14637137       67
I       10.04066690       1.53931243       1.61598675       68
I        9.50751171      10.09542493       6.03026970       69
Cs       7.19656748      12.86707505       7.51094795       70
Cs       2.44788480      16.29277202      16.02018932       71
K        2.65190939      10.49076026      12.20067243       72
In       2.65275632      10.02354396       7.81117543       73
I        1.35485564      12.26327853       9.34864531       74
I        8.28953327      16.89648678      14.18265604       75
I        3.79106071      12.91450721      14.60575099       76
I        5.85324910      16.24528804       8.92543866       77
I       10.03985278       2.47347376      10.39517191       78
I        9.50655570      11.02954845      14.80958981       79
