80
Lattice="18.593687061394462 -0.4050080303186462 0.006381357997715762 -8.945322461510303 16.304657403357595 -0.005578088013139518 -0.00740297320748837 0.0029873456694641887 17.6573338119413" Properties=species:S:1:pos:R:3:spacegroup_kinds:I:1 spacegroup="_JSON {\"number\": 1, \"setting\": 1}" unit_cell=conventional occupancy="_JSON {\"0\": {\"Cs\": 1.0}, \"1\": {\"Cs\": 1.0}, \"2\": {\"K\": 1.0}, \"3\": {\"In\": 1.0}, \"4\": {\"I\": 1.0}, \"5\": {\"I\": 1.0}, \"6\": {\"I\": 1.0}, \"7\": {\"I\": 1.0}, \"8\": {\"I\": 1.0}, \"9\": {\"I\": 1.0}, \"10\": {\"Cs\": 1.0}, \"11\": {\"Cs\": 1.0}, \"12\": {\"K\": 1.0}, \"13\": {\"In\": 1.0}, \"14\": {\"I\": 1.0}, \"15\": {\"I\": 1.0}, \"16\": {\"I\": 1.0}, \"17\": {\"I\": 1.0}, \"18\": {\"I\": 1.0}, \"19\": {\"I\": 1.0}, \"20\": {\"Cs\": 1.0}, \"21\": {\"Cs\": 1.0}, \"22\": {\"K\": 1.0}, \"23\": {\"In\": 1.0}, \"24\": {\"I\": 1.0}, \"25\": {\"I\": 1.0}, \"26\": {\"I\": 1.0}, \"27\": {\"I\": 1.0}, \"28\": {\"I\": 1.0}, \"29\": {\"I\": 1.0}, \"30\": {\"Cs\": 1.0}, \"31\": {\"Cs\": 1.0}, \"32\": {\"K\": 1.0}, \"33\": {\"In\": 1.0}, \"34\": {\"I\": 1.0}, \"35\": {\"I\": 1.0}, \"36\": {\"I\": 1.0}, \"37\": {\"I\": 1.0}, \"38\": {\"I\": 1.0}, \"39\": {\"I\": 1.0}, \"40\": {\"Cs\": 1.0}, \"41\": {\"Cs\": 1.0}, \"42\": {\"K\": 1.0}, \"43\": {\"In\": 1.0}, \"44\": {\"I\": 1.0}, \"45\": {\"I\": 1.0}, \"46\": {\"I\": 1.0}, \"47\": {\"I\": 1.0}, \"48\": {\"I\": 1.0}, \"49\": {\"I\": 1.0}, \"50\": {\"Cs\": 1.0}, \"51\": {\"Cs\": 1.0}, \"52\": {\"K\": 1.0}, \"53\": {\"In\": 1.0}, \"54\": {\"I\": 1.0}, \"55\": {\"I\": 1.0}, \"56\": {\"I\": 1.0}, \"57\": {\"I\": 1.0}, \"58\": {\"I\": 1.0}, \"59\": {\"I\": 1.0}, \"60\": {\"Cs\": 1.0}, \"61\": {\"Cs\": 1.0}, \"62\": {\"K\": 1.0}, \"63\": {\"In\": 1.0}, \"64\": {\"I\": 1.0}, \"65\": {\"I\": 1.0}, \"66\": {\"I\": 1.0}, \"67\": {\"I\": 1.0}, \"68\": {\"I\": 1.0}, \"69\": {\"I\": 1.0}, \"70\": {\"Cs\": 1.0}, \"71\": {\"Cs\": 1.0}, \"72\": {\"K\": 1.0}, \"73\": {\"In\": 1.0}, \"74\": {\"I\": 1.0}, \"75\": {\"I\": 1.0}, \"76\": {\"I\": 1.0}, \"77\": {\"I\": 1.0}, \"78\": {\"I\": 1.0}, \"79\": {\"I\": 1.0}}" pbc="T T T"
Cs       2.67070974       4.01387174       0.01224988        0
Cs      -1.92249593       6.80058809       8.81544225        1
K       16.55524307       1.02749010       4.41957964        2
In      16.55767185       1.02715708       0.00543169        3
I       15.39069274       3.16852265       1.77131576        4
I        3.95122758       7.24178518       7.06268677        5
I       -0.76802430       3.51370002       7.06125862        6
I        1.51609415       7.30132277       1.76520811        7
I       -4.07205822       9.52382410       1.76381857        8
I        4.82009755       1.29126821       7.06375769        9
Cs       2.66700825       4.01536541       8.84091678       10
Cs      -1.92619742       6.80208177      17.64410917       11
K       16.55154159       1.02898377      13.24824655       12
In      16.55397036       1.02865076       8.83409850       13
I       15.38699125       3.17001633      10.59998268       14
I        3.94752610       7.24327885      15.89135367       15
I       -0.77172578       3.51519371      15.88992551       16
I        1.51239266       7.30281644      10.59387502       17
I       -4.07575968       9.52531777      10.59248554       18
I        4.81639607       1.29276189      15.89242461       19
Cs      -1.80195149      12.16620044       0.00946084       20
Cs      -6.39515716      14.95291679       8.81265321       21
K       12.08258184       9.17981880       4.41679060       22
In      12.08501061       9.17948578       0.00264275       23
I       10.91803151      11.32085134       1.76852669       24
I       -0.52143364      15.39411387       7.05989771       25
I       -5.24068553      11.66602872       7.05846960       26
I       -2.95656708      15.45365146       1.76241908       27
I        0.40060302       1.37149540       1.76660764       28
I        0.34743632       9.44359692       7.06096865       29
Cs      -1.80565298      12.16769412       8.83812773       30
Cs      -6.39885865      14.95441047      17.64132013       31
K       12.07888036       9.18131248      13.24545751       32
In      12.08130913       9.18097945       8.83130936       33
I       10.91433001      11.32234504      10.59719366       34
I       -0.52513513      15.39560755      15.88856462       35
I       -5.24438700      11.66752242      15.88713645       36
I       -2.96026857      15.45514514      10.59108598       37
I        0.39690154       1.37298907      10.59527456       38
I        0.34373483       9.44509059      15.88963556       39
Cs      11.96755327       3.81136773       0.01544056       40
Cs       7.37434760       6.59808408       8.81863293       41
K        7.25839954       1.22999412       4.41638897       42
In       7.26082831       1.22966110       0.00224094       43
I        6.09384920       3.37102667       1.76812509       44
I       13.24807111       7.03928118       7.06587747       45
I        8.52881924       3.31119601       7.06444929       46
I       10.81293769       7.09881876       1.76839876       47
I        5.22478532       9.32132008       1.76700928       48
I       14.11694108       1.08876420       7.06694838       49
Cs      11.96385178       3.81286140       8.84410745       50
Cs       7.37064611       6.59957775      17.64729985       51
K        7.25469806       1.23148779      13.24505587       52
In       7.25712683       1.23115478       8.83090788       53
I        6.09014772       3.37252034      10.59679199       54
I       13.24436964       7.04077482      15.89454431       55
I        8.52511775       3.31268968      15.89311620       56
I       10.80923619       7.10031241      10.59706573       57
I        5.22108384       9.32281376      10.59567619       58
I       14.11323959       1.09025787      15.89561527       59
Cs       7.49489204      11.96369643       0.01265152       60
Cs       2.90168637      14.75041278       8.81584389       61
K        2.78573831       9.38232282       4.41359992       62
In       2.78816709       9.38198978      -0.00054808       63
I        1.62118797      11.52335537       1.76533605       64
I        8.77540988      15.19160986       7.06308840       65
I        4.05615801      11.46352472       7.06166025       66
I        6.34027645      15.25114745       1.76560974       67
I        9.69744656       1.16899138       1.76979834       68
I        9.64427986       9.24109290       7.06415936       69
Cs       7.49119055      11.96519010       8.84131841       70
Cs       2.89798488      14.75190645      17.64451080       71
K        2.78203683       9.38381649      13.24226683       72
In       2.78446561       9.38348345       8.82811880       73
I        1.61748648      11.52484905      10.59400296       74
I        8.77170840      15.19310353      15.89175529       75
I        4.05245652      11.46501839      15.89032715       76
I        6.33657496      15.25264112      10.59427667       77
I        9.69374507       1.17048505      10.59846523       78
I        9.64057835       9.24258657      15.89282621       79
