20
Lattice="18.577622833042167 -0.8639093852043626 -0.00043982906293987725 -4.269793866966529 8.260526040037696 0.005585849565768824 0.0013203647060631295 -0.004497910358731143 8.828722027278783" Properties=species:S:1:pos:R:3:spacegroup_kinds:I:1 spacegroup="_JSON {\"number\": 1, \"setting\": 1}" unit_cell=conventional occupancy="_JSON {\"0\": {\"Cs\": 1.0}, \"1\": {\"Cs\": 1.0}, \"2\": {\"K\": 1.0}, \"3\": {\"In\": 1.0}, \"4\": {\"I\": 1.0}, \"5\": {\"I\": 1.0}, \"6\": {\"I\": 1.0}, \"7\": {\"I\": 1.0}, \"8\": {\"I\": 1.0}, \"9\": {\"I\": 1.0}, \"10\": {\"Cs\": 1.0}, \"11\": {\"Cs\": 1.0}, \"12\": {\"K\": 1.0}, \"13\": {\"In\": 1.0}, \"14\": {\"I\": 1.0}, \"15\": {\"I\": 1.0}, \"16\": {\"I\": 1.0}, \"17\": {\"I\": 1.0}, \"18\": {\"I\": 1.0}, \"19\": {\"I\": 1.0}}" pbc="T T T"
Cs       3.93292544       2.51712839      -0.00344472        0
Cs      -0.58463930       5.40978499       8.83738242        1
K       17.74229020      -0.81474355       4.41396355        2
In      17.74167017      -0.81262857      -0.00057038        3
I       16.61921465       1.35051178       1.76730767        4
I        5.30696251       5.71184323       7.06658673        5
I        0.47807448       2.10252226       7.06347186        6
I        2.87010508       5.82453700       1.77072887        7
I       -2.66995855       8.20071272       1.77180781        8
I        6.01805880      -0.27340875       7.06244565        9
Cs      13.22173686       2.08517370      -0.00366463       10
Cs       8.70417212       4.97783030       8.83716251       11
K        8.45347878      -0.38278886       4.41418346       12
In       8.45285875      -0.38067388      -0.00035046       13
I        7.33040324       1.78246647       1.76752759       14
I       14.59577392       5.27988854       7.06636682       15
I        9.76688590       1.67056757       7.06325195       16
I       12.15891650       5.39258231       1.77050896       17
I        6.61885287       7.76875803       1.77158790       18
I       15.30687022      -0.70536344       7.06222574       19
