80
Lattice="18.521681482998513 -1.5194104327019713 -0.7271600950437201 -7.874771523892805 16.67697769348103 2.399601909932786 0.5005429214211673 -2.2817961364877846 17.502226965727328" Properties=species:S:1:pos:R:3:spacegroup_kinds:I:1 spacegroup="_JSON {\"number\": 1, \"setting\": 1}" unit_cell=conventional occupancy="_JSON {\"0\": {\"Cs\": 1.0}, \"1\": {\"Cs\": 1.0}, \"2\": {\"K\": 1.0}, \"3\": {\"In\": 1.0}, \"4\": {\"I\": 1.0}, \"5\": {\"I\": 1.0}, \"6\": {\"I\": 1.0}, \"7\": {\"I\": 1.0}, \"8\": {\"I\": 1.0}, \"9\": {\"I\": 1.0}, \"10\": {\"Cs\": 1.0}, \"11\": {\"Cs\": 1.0}, \"12\": {\"K\": 1.0}, \"13\": {\"In\": 1.0}, \"14\": {\"I\": 1.0}, \"15\": {\"I\": 1.0}, \"16\": {\"I\": 1.0}, \"17\": {\"I\": 1.0}, \"18\": {\"I\": 1.0}, \"19\": {\"I\": 1.0}, \"20\": {\"Cs\": 1.0}, \"21\": {\"Cs\": 1.0}, \"22\": {\"K\": 1.0}, \"23\": {\"In\": 1.0}, \"24\": {\"I\": 1.0}, \"25\": {\"I\": 1.0}, \"26\": {\"I\": 1.0}, \"27\": {\"I\": 1.0}, \"28\": {\"I\": 1.0}, \"29\": {\"I\": 1.0}, \"30\": {\"Cs\": 1.0}, \"31\": {\"Cs\": 1.0}, \"32\": {\"K\": 1.0}, \"33\": {\"In\": 1.0}, \"34\": {\"I\": 1.0}, \"35\": {\"I\": 1.0}, \"36\": {\"I\": 1.0}, \"37\": {\"I\": 1.0}, \"38\": {\"I\": 1.0}, \"39\": {\"I\": 1.0}, \"40\": {\"Cs\": 1.0}, \"41\": {\"Cs\": 1.0}, \"42\": {\"K\": 1.0}, \"43\": {\"In\": 1.0}, \"44\": {\"I\": 1.0}, \"45\": {\"I\": 1.0}, \"46\": {\"I\": 1.0}, \"47\": {\"I\": 1.0}, \"48\": {\"I\": 1.0}, \"49\": {\"I\": 1.0}, \"50\": {\"Cs\": 1.0}, \"51\": {\"Cs\": 1.0}, \"52\": {\"K\": 1.0}, \"53\": {\"In\": 1.0}, \"54\": {\"I\": 1.0}, \"55\": {\"I\": 1.0}, \"56\": {\"I\": 1.0}, \"57\": {\"I\": 1.0}, \"58\": {\"I\": 1.0}, \"59\": {\"I\": 1.0}, \"60\": {\"Cs\": 1.0}, \"61\": {\"Cs\": 1.0}, \"62\": {\"K\": 1.0}, \"63\": {\"In\": 1.0}, \"64\": {\"I\": 1.0}, \"65\": {\"I\": 1.0}, \"66\": {\"I\": 1.0}, \"67\": {\"I\": 1.0}, \"68\": {\"I\": 1.0}, \"69\": {\"I\": 1.0}, \"70\": {\"Cs\": 1.0}, \"71\": {\"Cs\": 1.0}, \"72\": {\"K\": 1.0}, \"73\": {\"In\": 1.0}, \"74\": {\"I\": 1.0}, \"75\": {\"I\": 1.0}, \"76\": {\"I\": 1.0}, \"77\": {\"I\": 1.0}, \"78\": {\"I\": 1.0}, \"79\": {\"I\": 1.0}}" pbc="T T T"
Cs       3.85221985       3.18906205       0.30328370        0
Cs      -0.29650738       5.08073856       9.58072079        1
K       -0.88381682       0.34566450       4.52379929        2
In      17.51263897      -0.60366896      -0.57896899        3
I       16.52895498       1.35397359       1.48619872        4
I        5.54827048       5.39610937       7.67044683        5
I        0.58558714       1.99149071       7.36801950        6
I        2.97012807       6.27810477       2.51588768        7
I       -2.46798275       8.82842572       3.00393123        8
I        6.02360134      -0.55900768       6.88038915        9
Cs       4.10220749       2.04816742       9.05476930       10
Cs      -0.04630777       3.93952052      18.33147501       11
K       -0.63374784      -0.79555151      13.27480089       12
In      17.76309374      -1.74457803       8.17213101       13
I       16.77923985       0.21285973      10.23745565       14
I        5.79887067       4.25522097      16.42119868       15
I        0.83597827       0.85028697      16.11897992       16
I        3.22051721       5.13741190      11.26705272       17
I       -2.21779615       7.68729098      11.75474133       18
I        6.27383144      -1.69954309      15.63127708       19
Cs      -0.08515799      11.52767990       1.50284697       20
Cs      -4.23373479      13.41838370      10.77975711       21
K       13.70032598       7.16410880       4.99642323       22
In      13.57541148       7.73489257       0.62098385       23
I       12.59135703       9.69216828       2.68638947       24
I        1.61096912      13.73509122       8.87004683       25
I       -3.35164531      10.32941104       8.56738864       26
I       -0.96746128      14.61670983       3.71582718       27
I        1.46933456       0.48980410       1.80407869       28
I        2.08672088       7.77953226       8.07981091       29
Cs       0.16528063      10.38710977      10.25424930       30
Cs      -3.98390180      12.27790519      19.53150674       31
K       13.95046157       6.02345044      13.74764500       32
In      13.82543923       6.59395463       9.37214266       33
I       12.84187660       8.55146195      11.43743953       34
I        1.86158897      12.59387354      17.62102447       35
I       -3.10141626       9.18883178      17.31887533       36
I       -0.71738926      13.47596528      12.46699812       37
I        1.71972244      -0.65139432      10.55486639       38
I        2.33653962       6.63881171      16.83083638       39
Cs      13.11322315       2.42941258      -0.06026518       40
Cs       8.96424058       4.32076537       9.21673202       41
K        8.37665371      -0.41460071       4.16026448       42
In       8.25178299       0.15614157      -0.21530982       43
I        7.26809332       2.11351223       1.85002213       44
I       14.80896317       4.63664536       7.30654796       45
I        9.84612742       1.23177152       7.00425060       46
I       12.23077238       5.51860940       2.15236181       47
I        6.79289664       8.06875375       2.64021165       48
I       15.28476579      -1.31888773       6.51631905       49
Cs      13.36372123       1.28856344       8.69059676       50
Cs       9.21453066       3.17985809      17.96783540       51
K        8.62701932      -1.55512137      12.91141043       52
In       8.50183767      -0.98459061       8.53599381       53
I        7.51824368       0.97287522      10.60118891       54
I       15.05979089       3.49556008      16.05781926       55
I       10.09683766       0.09065317      15.75548935       56
I       12.48114568       4.37745751      10.90346070       57
I        7.04339319       6.92772069      11.39111894       58
I       15.53470955      -2.45925765      15.26759283       59
Cs       9.17573307      10.76802807       1.13945795       60
Cs       5.02654477      12.65885804      10.41725062       61
K        4.43979446       7.92370398       5.35992615       62
In       4.31452751       8.49441961       0.98439876       63
I        3.33050963      10.45170153       3.04967848       64
I       10.87243033      12.97531880       8.50652921       65
I        5.90921566       9.57012700       8.20394906       66
I        8.29324043      13.85714686       3.35224925       67
I       10.73008999      -0.26974494       1.44052644       68
I       11.34700830       7.02008501       7.71665032       69
Cs       9.42618313       9.62765369       9.89122934       70
Cs       5.27706171      11.51822590      19.16771989       71
K        4.68963379       6.78344432      14.11113460       72
In       4.56495797       7.35380001       9.73545770       73
I        3.58058551       9.31085877      11.80102610       74
I       11.12245309      11.83409363      17.25750416       75
I        6.15959077       8.42903583      16.95521175       76
I        8.54370227      12.71621653      12.10354253       77
I       10.98045965      -1.41087894      10.19133647       78
I       11.59750618       5.87917574      16.46738492       79
