10
Lattice="9.229377122528248 -0.9644683638385267 -0.6079866556524123 -3.791635448418899 8.489929565449133 0.09597572429487783 0.5990081786295417 0.16559113363461345 8.807331101000385" Properties=species:S:1:pos:R:3:spacegroup_kinds:I:1 spacegroup="_JSON {\"number\": 1, \"setting\": 1}" unit_cell=conventional occupancy="_JSON {\"0\": {\"Cs\": 1.0}, \"1\": {\"Cs\": 1.0}, \"2\": {\"K\": 1.0}, \"3\": {\"In\": 1.0}, \"4\": {\"I\": 1.0}, \"5\": {\"I\": 1.0}, \"6\": {\"I\": 1.0}, \"7\": {\"I\": 1.0}, \"8\": {\"I\": 1.0}, \"9\": {\"I\": 1.0}}" pbc="T T T"
Cs       3.34036584       2.36690129      -0.27522111        0
Cs      -0.40090806       5.68416122       8.77401305        1
K        7.98019765      -0.70165478       3.89740081        2
In       7.68059849      -0.78440612      -0.50626900        3
I        6.80405426       1.47415366       1.28137438        4
I        5.36474170       5.61258598       6.60926770        5
I        0.35416496       2.28698474       7.01288630        6
I        2.58526623       5.76391389       1.48572518        7
I        0.99130501      -0.03695131       1.70387431        8
I        5.74009855      -0.40198525       6.69867988        9
