40
Lattice="18.496666195249702 -1.9270400341990241 -0.18367816509093016 -7.619505189903625 16.812010000932833 -2.2739517433365877 0.22000989673501853 1.2801332498346076 8.731859916054677" Properties=species:S:1:pos:R:3:spacegroup_kinds:I:1 spacegroup="_JSON {\"number\": 1, \"setting\": 1}" unit_cell=conventional occupancy="_JSON {\"0\": {\"Cs\": 1.0}, \"1\": {\"Cs\": 1.0}, \"2\": {\"K\": 1.0}, \"3\": {\"In\": 1.0}, \"4\": {\"I\": 1.0}, \"5\": {\"I\": 1.0}, \"6\": {\"I\": 1.0}, \"7\": {\"I\": 1.0}, \"8\": {\"I\": 1.0}, \"9\": {\"I\": 1.0}, \"10\": {\"Cs\": 1.0}, \"11\": {\"Cs\": 1.0}, \"12\": {\"K\": 1.0}, \"13\": {\"In\": 1.0}, \"14\": {\"I\": 1.0}, \"15\": {\"I\": 1.0}, \"16\": {\"I\": 1.0}, \"17\": {\"I\": 1.0}, \"18\": {\"I\": 1.0}, \"19\": {\"I\": 1.0}, \"20\": {\"Cs\": 1.0}, \"21\": {\"Cs\": 1.0}, \"22\": {\"K\": 1.0}, \"23\": {\"In\": 1.0}, \"24\": {\"I\": 1.0}, \"25\": {\"I\": 1.0}, \"26\": {\"I\": 1.0}, \"27\": {\"I\": 1.0}, \"28\": {\"I\": 1.0}, \"29\": {\"I\": 1.0}, \"30\": {\"Cs\": 1.0}, \"31\": {\"Cs\": 1.0}, \"32\": {\"K\": 1.0}, \"33\": {\"In\": 1.0}, \"34\": {\"I\": 1.0}, \"35\": {\"I\": 1.0}, \"36\": {\"I\": 1.0}, \"37\": {\"I\": 1.0}, \"38\": {\"I\": 1.0}, \"39\": {\"I\": 1.0}}" pbc="T T T"
Cs       2.51885804       2.55508329      -0.45024142        0
Cs      -1.61335258       6.96164694       7.95626973        1
K       -2.26581514       1.03775246       4.36771299        2
In      16.11998250      -1.52998913      -0.18196402        3
I       15.15822668       0.92751482       1.26748904        4
I        4.24358505       6.66237630       6.05508541        5
I       17.71616682       1.44995682       6.48053771        6
I        1.68629708       6.14022296       0.84255889        7
I       14.78010405       6.88695061       0.40279809        8
I        4.62206459       0.70265616       6.91964984        9
Cs      -1.29090610      10.96108394      -1.58720256       10
Cs      -5.42315686      15.36773448       6.81927338       11
K       -6.07557572       9.44379911       3.23068327       12
In      12.31029315       6.87607055      -1.31888397       13
I       11.34852125       9.33348626       0.13056697       14
I        0.43385413      15.06833159       4.91809962       15
I       13.90646625       9.85601640       5.34351452       16
I       -2.12346923      14.54610574      -0.29430113       17
I       18.58997144      -1.51916338       1.53982367       18
I        0.81232108       9.10867615       5.78268148       19
Cs      11.76718594       1.59156515      -0.54206433       20
Cs       7.63492005       5.99817786       7.86442102       21
K        6.98249141       0.07426699       4.27584657       22
In       6.87159863      -0.56634820      -0.09014875       23
I        5.90996108       1.89095947       1.35937496       24
I       13.49199032       5.69874342       5.96324746       25
I        8.46786699       2.41345851       6.57239230       26
I       10.93461226       5.17655235       0.75087863       27
I        5.53181074       7.85042759       0.49465640       28
I       13.87043926      -0.26087444       6.82783707       29
Cs       7.95743493       9.99755217      -1.67905153       30
Cs       3.82523735      14.40414935       6.72744904       31
K        3.17276171       8.48024150       3.13887960       32
In       3.06192155       7.83943536      -1.22699636       33
I        2.10017233      10.29700966       0.22238491       34
I        9.68216645      14.10485454       4.82626016       35
I        4.65809421      10.81951143       5.43538341       36
I        7.12485790      13.58265297      -0.38622061       37
I        9.34154535      -0.55556201       1.63163034       38
I       10.06052478       8.14526257       5.69073547       39
