20
Lattice="12.773808800856411 -1.251546662585119e-09 1.9748482118551545e-16 -1.2515466656232589e-09 12.773808800856441 3.6290288126779076e-17 9.808565767936284e-17 1.79868986956614e-17 6.386904400344265" Properties=species:S:1:pos:R:3:spacegroup_kinds:I:1:forces:R:3 spacegroup="P 1" unit_cell=conventional occupancy="_JSON {\"0\": {\"Cs\": 1.0}, \"1\": {\"Pb\": 1.0}, \"2\": {\"I\": 1.0}, \"3\": {\"I\": 1.0}, \"4\": {\"I\": 1.0}, \"5\": {\"Cs\": 1.0}, \"6\": {\"Pb\": 1.0}, \"7\": {\"I\": 1.0}, \"8\": {\"I\": 1.0}, \"9\": {\"I\": 1.0}, \"10\": {\"Cs\": 1.0}, \"11\": {\"Pb\": 1.0}, \"12\": {\"I\": 1.0}, \"13\": {\"I\": 1.0}, \"14\": {\"I\": 1.0}, \"15\": {\"Cs\": 1.0}, \"16\": {\"Pb\": 1.0}, \"17\": {\"I\": 1.0}, \"18\": {\"I\": 1.0}, \"19\": {\"I\": 1.0}}" energy=-55.92296941593265 free_energy=-55.92296941593265 stress="-7.489152747923448e-06 -5.355251058861999e-12 9.133914594432068e-18 -5.355251058861999e-12 -7.48915274753796e-06 -3.8890408559507114e-18 9.133914594432068e-18 -3.8890408559507114e-18 -7.489153812430048e-06" pbc="T T T"
Cs       3.19347213       3.19343227       3.19345220        0      -0.00000119       0.00000119       0.00000000
Pb       0.00000397      -0.00000397      -0.00000000        1      -0.00000015       0.00000015       0.00000000
I        0.00001865      -0.00001865       3.19345220        2      -0.00000295       0.00000295      -0.00000000
I        3.19345721      -0.00001865      -0.00000000        3       0.00000725       0.00000295       0.00000000
I        0.00001865       3.19344719      -0.00000000        4      -0.00000295      -0.00000725       0.00000000
Cs       3.19347213       9.58033667       3.19345220        5      -0.00000119       0.00000119       0.00000000
Pb       0.00000397       6.38690043      -0.00000000        6      -0.00000015       0.00000015       0.00000000
I        0.00001865       6.38688575       3.19345220        7      -0.00000295       0.00000295      -0.00000000
I        3.19345721       6.38688575      -0.00000000        8       0.00000725       0.00000295       0.00000000
I        0.00001865       9.58035159      -0.00000000        9      -0.00000295      -0.00000725       0.00000000
Cs       9.58037653       3.19343227       3.19345220       10      -0.00000119       0.00000119       0.00000000
Pb       6.38690837      -0.00000397      -0.00000000       11      -0.00000015       0.00000015       0.00000000
I        6.38692305      -0.00001865       3.19345220       12      -0.00000295       0.00000295      -0.00000000
I        9.58036161      -0.00001865      -0.00000000       13       0.00000725       0.00000295       0.00000000
I        6.38692305       3.19344719      -0.00000000       14      -0.00000295      -0.00000725       0.00000000
Cs       9.58037653       9.58033667       3.19345220       15      -0.00000119       0.00000119       0.00000000
Pb       6.38690837       6.38690043      -0.00000000       16      -0.00000015       0.00000015       0.00000000
I        6.38692305       6.38688575       3.19345220       17      -0.00000295       0.00000295      -0.00000000
I        9.58036161       6.38688575      -0.00000000       18       0.00000725       0.00000295       0.00000000
I        6.38692305       9.58035159      -0.00000000       19      -0.00000295      -0.00000725       0.00000000
