20
Lattice="11.662765736045262 0.0 0.0 -2.130173056010513 15.110613243054189 0.0 -2.342205401015935 2.3359005560417017 4.403205487992434" Properties=species:S:1:pos:R:3:oxi_states:R:1 pbc="T T T"
Cs       1.21216213       4.94548693       2.20160274       1.00000000
Pb      -0.00000000      -0.00000000       0.00000000       2.00000000
I       -1.17110270       1.16795028       2.20160274      -1.00000000
I        2.91569143       0.00000000      -0.00000000      -1.00000000
I       -0.53254326       3.77765331       0.00000000      -1.00000000
Cs       0.14707560      12.50079355       2.20160274       1.00000000
Pb      -1.06508653       7.55530662       0.00000000       2.00000000
I       -2.23618923       8.72325690       2.20160274      -1.00000000
I        1.85060491       7.55530662      -0.00000000      -1.00000000
I       -1.59762979      11.33295993       0.00000000      -1.00000000
Cs       7.04354500       4.94548693       2.20160274       1.00000000
Pb       5.83138287      -0.00000000       0.00000000       2.00000000
I        4.66028017       1.16795028       2.20160274      -1.00000000
I        8.74707430       0.00000000      -0.00000000      -1.00000000
I        5.29883960       3.77765331       0.00000000      -1.00000000
Cs       5.97845847      12.50079355       2.20160274       1.00000000
Pb       4.76629634       7.55530662       0.00000000       2.00000000
I        3.59519364       8.72325690       2.20160274      -1.00000000
I        7.68198777       7.55530662      -0.00000000      -1.00000000
I        4.23375308      11.33295993       0.00000000      -1.00000000
