20
Lattice="12.461186243131822 1.6355752606786877 2.4160691035882205 -0.9350929218360557 12.513812570832165 -2.6202808920748595 -1.3466297759969525 1.179519125739317 6.138960958642455" Properties=species:S:1:pos:R:3:spacegroup_kinds:I:1:forces:R:3 spacegroup="P 1" unit_cell=conventional occupancy="_JSON {\"0\": {\"Cs\": 1.0}, \"1\": {\"Pb\": 1.0}, \"2\": {\"I\": 1.0}, \"3\": {\"I\": 1.0}, \"4\": {\"I\": 1.0}, \"5\": {\"Cs\": 1.0}, \"6\": {\"Pb\": 1.0}, \"7\": {\"I\": 1.0}, \"8\": {\"I\": 1.0}, \"9\": {\"I\": 1.0}, \"10\": {\"Cs\": 1.0}, \"11\": {\"Pb\": 1.0}, \"12\": {\"I\": 1.0}, \"13\": {\"I\": 1.0}, \"14\": {\"I\": 1.0}, \"15\": {\"Cs\": 1.0}, \"16\": {\"Pb\": 1.0}, \"17\": {\"I\": 1.0}, \"18\": {\"I\": 1.0}, \"19\": {\"I\": 1.0}}" energy=-55.93760269518099 free_energy=-55.93760269518099 stress="-1.051796210721591e-05 -6.720944328265466e-06 -8.037652052055958e-06 -6.720944328265466e-06 9.422201290146366e-06 -1.2641201408563374e-05 -8.037652052055958e-06 -1.2641201408563374e-05 1.5737942155012202e-05" pbc="T T T"
Cs       2.04045589       3.79993916       3.04733856        0       0.00020612      -0.00082314       0.00009859
Pb       0.00339621       0.00169094       0.00061573        1       0.00016252      -0.00014790      -0.00003527
I       -0.65628368       0.71134412       3.04915211        2      -0.00053078       0.00041732       0.00010538
I        3.13505994       0.54959583       0.57710009        3      -0.00017003       0.00094099       0.00007382
I       12.35508342       4.82713468       1.77875397        4       0.00036967      -0.00038265      -0.00023405
Cs       1.57290942      10.05684543       1.73719811        5       0.00020613      -0.00082301       0.00009858
Pb      -0.46415021       6.25859734      -1.30952489        6       0.00016220      -0.00014866      -0.00003494
I       -1.12383013       6.96825039       1.73901182        7      -0.00053069       0.00041733       0.00010506
I        2.66751353       6.80650212      -0.73304033        8      -0.00017038       0.00094102       0.00007378
I       11.88753695      11.08404110       0.46861336        9       0.00036978      -0.00038369      -0.00023377
Cs       8.27104844       4.61772666       4.25537275       10       0.00021022      -0.00082253       0.00009928
Pb       6.23399449       0.81947878       1.20865627       11       0.00013199      -0.00014926      -0.00004729
I        5.57430887       1.52913167       4.25718537       12      -0.00052920       0.00041851       0.00011070
I        9.36566088       1.36738472       1.78514114       13      -0.00022359       0.00093511       0.00006163
I        6.12448976       4.00934765       0.57071817       14       0.00037291      -0.00038510      -0.00023313
Cs       7.80350198      10.87463295       2.94523231       15       0.00021020      -0.00082253       0.00009929
Pb       5.76644790       7.07638510      -0.10148443       16       0.00013250      -0.00014966      -0.00004677
I        5.10676244       7.78603794       2.94704508       17      -0.00052915       0.00041849       0.00011033
I        8.89811440       7.62429100       0.47500067       18      -0.00022341       0.00093520       0.00006170
I        5.65694329      10.26625404      -0.73942240       19       0.00037299      -0.00038584      -0.00023292
