40
Lattice="17.4446016733464 -0.5512384844851012 -0.3713745971211843 8.256059714329082 15.342677080826519 -0.35125708763334 4.137158535997622 2.3831828541591875 7.3810825684259385" Properties=species:S:1:pos:R:3:spacegroup_kinds:I:1:forces:R:3 spacegroup="P 1" unit_cell=conventional occupancy="_JSON {\"0\": {\"Cs\": 1.0}, \"1\": {\"Cs\": 1.0}, \"2\": {\"K\": 1.0}, \"3\": {\"In\": 1.0}, \"4\": {\"I\": 1.0}, \"5\": {\"I\": 1.0}, \"6\": {\"I\": 1.0}, \"7\": {\"I\": 1.0}, \"8\": {\"I\": 1.0}, \"9\": {\"I\": 1.0}, \"10\": {\"Cs\": 1.0}, \"11\": {\"Cs\": 1.0}, \"12\": {\"K\": 1.0}, \"13\": {\"In\": 1.0}, \"14\": {\"I\": 1.0}, \"15\": {\"I\": 1.0}, \"16\": {\"I\": 1.0}, \"17\": {\"I\": 1.0}, \"18\": {\"I\": 1.0}, \"19\": {\"I\": 1.0}, \"20\": {\"Cs\": 1.0}, \"21\": {\"Cs\": 1.0}, \"22\": {\"K\": 1.0}, \"23\": {\"In\": 1.0}, \"24\": {\"I\": 1.0}, \"25\": {\"I\": 1.0}, \"26\": {\"I\": 1.0}, \"27\": {\"I\": 1.0}, \"28\": {\"I\": 1.0}, \"29\": {\"I\": 1.0}, \"30\": {\"Cs\": 1.0}, \"31\": {\"Cs\": 1.0}, \"32\": {\"K\": 1.0}, \"33\": {\"In\": 1.0}, \"34\": {\"I\": 1.0}, \"35\": {\"I\": 1.0}, \"36\": {\"I\": 1.0}, \"37\": {\"I\": 1.0}, \"38\": {\"I\": 1.0}, \"39\": {\"I\": 1.0}}" energy=-102.59578269411975 free_energy=-102.59578269411975 stress="-9.344123102223352e-07 5.802992159894653e-07 1.7803770981810195e-07 5.802992159894653e-07 1.1335377104217221e-07 -2.0003342664504477e-07 1.7803770981810195e-07 -2.0003342664504477e-07 -6.607009276037715e-08" pbc="T T T"
Cs       4.10418108       2.34484730       1.68038861        0      -0.00053268      -0.00026093      -0.00017441
Cs      12.88616852       7.43375192       5.33873995        1      -0.00053543      -0.00006594       0.00000425
K        8.49263602       4.88935414       3.50946192        2       0.00020649       0.00024496       0.00031067
In      17.44441913      -0.55129683      -0.37147647        3      -0.00052226      -0.00031103       0.00041251
I        8.75750855       1.66337732       2.07751063        4       0.00023297      -0.00021928      -0.00011981
I        8.22869857       8.11538103       4.94217185        5       0.00029416       0.00052651      -0.00006312
I       11.11049230       5.59139617       1.23647637        6      -0.00001626      -0.00075720       0.00039162
I       23.31966950       3.63742571       5.41154434        7       0.00054298       0.00032666      -0.00055205
I        6.53020238       6.30870505       0.93315303        8       0.00032780      -0.00006494      -0.00009652
I       10.45794326       3.47126157       6.08496826        9       0.00005789      -0.00010025      -0.00024125
Cs       8.23260888      10.01574244       1.50494163       10      -0.00052675      -0.00020137      -0.00008253
Cs      17.01440602      15.10522815       5.16316251       11      -0.00050416      -0.00025891      -0.00013115
K       12.62070260      12.56098269       3.33370827       12       0.00012920       0.00016874       0.00044156
In      21.57237199       7.12015129      -0.54703415       13       0.00006598      -0.00059550      -0.00046329
I       12.88505982       9.33451858       1.90217429       14       0.00034052       0.00000867      -0.00063274
I       12.35638470      15.78756120       4.76607856       15       0.00027070      -0.00023353      -0.00033163
I       15.23870562      13.26229338       1.06142428       16       0.00059188       0.00031938      -0.00036120
I       27.44766044      11.30880799       5.23539349       17       0.00016876      -0.00051328       0.00005014
I       10.65840018      13.97970588       0.75704999       18       0.00025277      -0.00016686       0.00006824
I       14.58578602      11.14232716       5.90892144       19       0.00045235       0.00009417      -0.00002633
Cs      12.82603569       2.07039458       1.49600799       20      -0.00061325       0.00003185      -0.00020562
Cs      21.60742918       7.15918513       5.15426321       21      -0.00048834       0.00006191      -0.00020173
K       17.21634029       4.61331694       3.32396382       22       0.00035805       0.00026423       0.00017825
In       8.72200979      -0.27557205      -0.18570392       23       0.00060416       0.00012727       0.00013685
I       17.48022029       1.38677736       1.89229250       24       0.00012383       0.00013818       0.00037412
I       16.95165797       7.84024777       4.75612147       25       0.00025849      -0.00030633       0.00035119
I        2.38991930       5.86544511       1.42306753       26      -0.00013813       0.00046537       0.00004637
I       14.59917667       3.91210653       5.59721759       27      -0.00067886      -0.00044432       0.00057064
I       15.25137572       6.03215271       0.74921864       28       0.00003815       0.00007733       0.00004130
I       19.17896470       3.19486488       5.90104447       29       0.00016264      -0.00002303       0.00007049
Cs      16.95412392       9.74142690       1.32013102       30      -0.00058197      -0.00004689      -0.00019654
Cs      25.73579047      14.83046499       4.97912242       31      -0.00046887       0.00012833      -0.00019566
K       21.34439554      12.28494099       3.14823616       32       0.00032980       0.00023158       0.00025310
In      12.85011811       7.39580566      -0.36137660       33      -0.00012136       0.00012528      -0.00016847
I       21.60784180       9.05885014       1.71605827       34       0.00019599      -0.00010179       0.00053163
I       21.07940105      15.51146956       4.58087499       35       0.00025737      -0.00020683       0.00000406
I        6.51803916      13.53652011       1.24723294       36       0.00003142       0.00036957      -0.00003831
I       18.72720128      11.58315601       5.42191937       37      -0.00012940       0.00054714       0.00001118
I       19.37953955      13.70351761       0.57353115       38      -0.00028233       0.00038429      -0.00007980
I       23.30702689      10.86553709       5.72474283       39      -0.00015432       0.00023678       0.00011400
