40
Lattice="17.556761125043376 0.0 0.0 -9.201842814658008 15.93805927825028 0.0 1.164456918974144 4.701202739183442 7.337479163089102" Properties=species:S:1:pos:R:3 pbc="T T T"
Cs       1.58610733       2.88636251       0.02323206
Cs      -1.71661882      10.21396922       7.31398305
K       -2.15394134       2.56569810       3.66873110
In      -2.73622801       0.21507087       0.00009436
I       -3.69512023       3.25391483       1.46781263
I        3.56458471       9.84661175       5.86968154
I       -0.69445520       6.05624044       5.86974013
I        0.56390729       7.04393779       1.46787122
I       -4.80208440       9.10669415       1.46783375
I        4.67160305       3.99364085       5.86970266
Cs      -3.01481407      10.85539215       0.02323206
Cs      -6.31754023      18.18299886       7.31398305
K       -6.75486274      10.53472774       3.66873110
In      -7.33714942       8.18410051       0.00009436
I       -8.29604164      11.22294447       1.46781263
I       -1.03633669      17.81564139       5.86968154
I       -5.29537661      14.02527008       5.86974013
I       -4.03701411      15.01296743       1.46787122
I       -9.40300581      17.07572379       1.46783375
I        0.07068165      11.96267049       5.86970266
Cs      10.36448790       2.88636251       0.02323206
Cs       7.06176174      10.21396922       7.31398305
K        6.62443923       2.56569810       3.66873110
In       6.04215255       0.21507087       0.00009436
I        5.08326033       3.25391483       1.46781263
I       12.34296528       9.84661175       5.86968154
I        8.08392536       6.05624044       5.86974013
I        9.34228786       7.04393779       1.46787122
I        3.97629616       9.10669415       1.46783375
I       13.44998362       3.99364085       5.86970266
Cs       5.76356649      10.85539215       0.02323206
Cs       2.46084033      18.18299886       7.31398305
K        2.02351782      10.53472774       3.66873110
In       1.44123114       8.18410051       0.00009436
I        0.48233892      11.22294447       1.46781263
I        7.74204387      17.81564139       5.86968154
I        3.48300395      14.02527008       5.86974013
I        4.74136645      15.01296743       1.46787122
I       -0.62462525      17.07572379       1.46783375
I        8.84906221      11.96267049       5.86970266
