20
Lattice="18.51270855249084 1.7131541450547663 -0.023881207716343077 -5.373579318023173 7.592803344636176 -0.018821662189129243 0.017456541330688795 0.024126644833905173 8.828481367825148" Properties=species:S:1:pos:R:3:spacegroup_kinds:I:1:forces:R:3 spacegroup="P 1" unit_cell=conventional occupancy="_JSON {\"0\": {\"Cs\": 1.0}, \"1\": {\"Cs\": 1.0}, \"2\": {\"K\": 1.0}, \"3\": {\"In\": 1.0}, \"4\": {\"I\": 1.0}, \"5\": {\"I\": 1.0}, \"6\": {\"I\": 1.0}, \"7\": {\"I\": 1.0}, \"8\": {\"I\": 1.0}, \"9\": {\"I\": 1.0}, \"10\": {\"Cs\": 1.0}, \"11\": {\"Cs\": 1.0}, \"12\": {\"K\": 1.0}, \"13\": {\"In\": 1.0}, \"14\": {\"I\": 1.0}, \"15\": {\"I\": 1.0}, \"16\": {\"I\": 1.0}, \"17\": {\"I\": 1.0}, \"18\": {\"I\": 1.0}, \"19\": {\"I\": 1.0}}" energy=-51.58761968240336 free_energy=-51.58761968240336 stress="-3.7740663607876686e-06 -5.765532035695856e-06 8.475870973449536e-06 -5.765532035695856e-06 7.531819472141792e-06 -5.065010133865678e-06 8.475870973449536e-06 -5.065010133865678e-06 -9.231087787913076e-08" pbc="T T T"
Cs       4.05884968       3.07838209      -0.03577658        0       0.00003079      -0.00012257      -0.00028107
Cs      -0.80141414       5.34490303       8.83447963        1      -0.00006148       0.00033969       0.00040098
K       18.19997380       1.70031498       4.39067343        2       0.00003585      -0.00007375       0.00012400
In      18.19132995       1.68816596      -0.02366819        3      -0.00016093      -0.00021350       0.00052866
I       16.77317106       3.67475203       1.73932331        4       0.00042070       0.00011163      -0.00033792
I        4.99687752       6.46171210       7.03534004        5      -0.00038563       0.00012765       0.00007628
I        0.69905313       2.21525049       7.05445024        6      -0.00002545      -0.00033977      -0.00006965
I        2.55842677       6.20841209       1.74416325        7      -0.00004229       0.00010033      -0.00034238
I       -3.26579834       7.81246551       1.74330606        8       0.00003575      -0.00016578       0.00012671
I        6.52310514       0.61093432       7.05517955        9       0.00015269       0.00023606      -0.00022561
Cs      13.31520396       3.93495916      -0.04771718       10       0.00003079      -0.00012257      -0.00028107
Cs       8.45494014       6.20148010       8.82253902       11      -0.00006148       0.00033969       0.00040098
K        8.94361952       0.84373791       4.40261404       12       0.00003585      -0.00007375       0.00012400
In       8.93497567       0.83158888      -0.01172758       13      -0.00016093      -0.00021350       0.00052866
I        7.51681679       2.81817496       1.75126392       14       0.00042070       0.00011163      -0.00033792
I       14.25323179       7.31828917       7.02339944       15      -0.00038563       0.00012765       0.00007628
I        9.95540740       3.07182757       7.04250964       16      -0.00002545      -0.00033977      -0.00006964
I       11.81478105       7.06498916       1.73222264       17      -0.00004229       0.00010033      -0.00034238
I        5.99055594       8.66904258       1.73136545       18       0.00003575      -0.00016578       0.00012671
I       15.77945942       1.46751140       7.04323895       19       0.00015269       0.00023606      -0.00022561
