20
Lattice="16.73756840674311 0.0 0.0 -5.449623982827106 6.351231966193403 0.0 0.0 0.0 7.945756492015823" Properties=species:S:1:pos:R:3 pbc="T T T"
Cs       3.47170303       2.12078001       0.02528681
Cs      -1.13443303       4.23785733       7.92044136
K       -0.29094048       0.00370786       3.97287715
In      -0.29094658       0.00370480       0.00000983
I       -1.70716974       1.67605894       1.58948671
I        4.04443726       4.68259904       6.35627074
I        0.48988843       1.66183364       6.35627705
I        1.84737772       4.69678724       1.58949303
I       -3.54350864       6.34072806       1.58948927
I        5.88078183       0.01790959       6.35627330
Cs      11.84048724       2.12078001       0.02528681
Cs       7.23435117       4.23785733       7.92044136
K        8.07784373       0.00370786       3.97287715
In       8.07783762       0.00370480       0.00000983
I        6.66161446       1.67605894       1.58948671
I       12.41322146       4.68259904       6.35627074
I        8.85867264       1.66183364       6.35627705
I       10.21616193       4.69678724       1.58949303
I        4.82527556       6.34072806       1.58948927
I       14.24956603       0.01790959       6.35627330
