80
Lattice="19.14628520538864 2.336886777308563 1.5529270260941572 11.776803467996151 20.06708854191538 -0.0031553973522760515 11.659025606109086 6.980022406643004 14.018531274914478" Properties=species:S:1:pos:R:3:spacegroup_kinds:I:1:forces:R:3 spacegroup="P 1" unit_cell=conventional occupancy="_JSON {\"0\": {\"Cs\": 1.0}, \"1\": {\"Cs\": 1.0}, \"2\": {\"K\": 1.0}, \"3\": {\"In\": 1.0}, \"4\": {\"I\": 1.0}, \"5\": {\"I\": 1.0}, \"6\": {\"I\": 1.0}, \"7\": {\"I\": 1.0}, \"8\": {\"I\": 1.0}, \"9\": {\"I\": 1.0}, \"10\": {\"Cs\": 1.0}, \"11\": {\"Cs\": 1.0}, \"12\": {\"K\": 1.0}, \"13\": {\"In\": 1.0}, \"14\": {\"I\": 1.0}, \"15\": {\"I\": 1.0}, \"16\": {\"I\": 1.0}, \"17\": {\"I\": 1.0}, \"18\": {\"I\": 1.0}, \"19\": {\"I\": 1.0}, \"20\": {\"Cs\": 1.0}, \"21\": {\"Cs\": 1.0}, \"22\": {\"K\": 1.0}, \"23\": {\"In\": 1.0}, \"24\": {\"I\": 1.0}, \"25\": {\"I\": 1.0}, \"26\": {\"I\": 1.0}, \"27\": {\"I\": 1.0}, \"28\": {\"I\": 1.0}, \"29\": {\"I\": 1.0}, \"30\": {\"Cs\": 1.0}, \"31\": {\"Cs\": 1.0}, \"32\": {\"K\": 1.0}, \"33\": {\"In\": 1.0}, \"34\": {\"I\": 1.0}, \"35\": {\"I\": 1.0}, \"36\": {\"I\": 1.0}, \"37\": {\"I\": 1.0}, \"38\": {\"I\": 1.0}, \"39\": {\"I\": 1.0}, \"40\": {\"Cs\": 1.0}, \"41\": {\"Cs\": 1.0}, \"42\": {\"K\": 1.0}, \"43\": {\"In\": 1.0}, \"44\": {\"I\": 1.0}, \"45\": {\"I\": 1.0}, \"46\": {\"I\": 1.0}, \"47\": {\"I\": 1.0}, \"48\": {\"I\": 1.0}, \"49\": {\"I\": 1.0}, \"50\": {\"Cs\": 1.0}, \"51\": {\"Cs\": 1.0}, \"52\": {\"K\": 1.0}, \"53\": {\"In\": 1.0}, \"54\": {\"I\": 1.0}, \"55\": {\"I\": 1.0}, \"56\": {\"I\": 1.0}, \"57\": {\"I\": 1.0}, \"58\": {\"I\": 1.0}, \"59\": {\"I\": 1.0}, \"60\": {\"Cs\": 1.0}, \"61\": {\"Cs\": 1.0}, \"62\": {\"K\": 1.0}, \"63\": {\"In\": 1.0}, \"64\": {\"I\": 1.0}, \"65\": {\"I\": 1.0}, \"66\": {\"I\": 1.0}, \"67\": {\"I\": 1.0}, \"68\": {\"I\": 1.0}, \"69\": {\"I\": 1.0}, \"70\": {\"Cs\": 1.0}, \"71\": {\"Cs\": 1.0}, \"72\": {\"K\": 1.0}, \"73\": {\"In\": 1.0}, \"74\": {\"I\": 1.0}, \"75\": {\"I\": 1.0}, \"76\": {\"I\": 1.0}, \"77\": {\"I\": 1.0}, \"78\": {\"I\": 1.0}, \"79\": {\"I\": 1.0}}" energy=-195.88153919105665 free_energy=-195.88153919105665 stress="-1.4384808206019473e-07 4.2549579799796833e-07 -3.8863477577664934e-07 4.2549579799796833e-07 1.5537896522947634e-06 3.8839007306603527e-07 -3.8863477577664934e-07 3.8839007306603527e-07 4.0678571726956467e-07" pbc="T T T"
Cs       5.65082617       4.80393463       1.84711139        0       0.00011548      -0.00025328      -0.00037085
Cs      15.47246432      10.12853553       5.87099660        1      -0.00019557      -0.00000722      -0.00034750
K       10.26697612       6.49239630       4.22995673        2       0.00035674       0.00005168       0.00019749
In      19.64961541       3.00108376       1.71100705        3      -0.00015464       0.00033121       0.00003193
I        8.62112484       3.26375477       3.77844949        4       0.00004790      -0.00023111       0.00038966
I       12.04445327      11.57518229       4.55005008        5      -0.00034623       0.00002033      -0.00001798
I       11.94633309       4.56359271       1.08319798        6       0.00040675       0.00030014       0.00007115
I        9.93326400       9.90871936       5.58439923        7       0.00007780      -0.00018551       0.00013307
I        7.88524620       8.01762330       1.95415843        8      -0.00004494       0.00000138       0.00005836
I       13.47382188       6.69465610       5.96675892        9       0.00005872      -0.00000357       0.00002780
Cs      11.48107044       8.29379060       8.85514942       10      -0.00011523      -0.00011137       0.00042476
Cs      21.30167555      13.61635752      12.87908503       11      -0.00006914       0.00012798       0.00000576
K       16.09595157       9.98360067      11.24027931       12       0.00018045      -0.00018015       0.00003752
In      25.48035457       6.49104480       8.72001234       13       0.00012727       0.00014299      -0.00035612
I       14.45197186       6.75370056      10.78601422       14       0.00009332       0.00023186       0.00072433
I       17.87382598      15.06440850      11.55899755       15      -0.00012964       0.00021947      -0.00014469
I       17.77690189       8.05602920       8.09261287       16      -0.00010178      -0.00023686       0.00010210
I       15.76182419      13.39943205      12.59423950       17       0.00017434      -0.00023443       0.00031124
I       13.71339051      11.50883017       8.96429034       18       0.00014746      -0.00012873       0.00029358
I       19.30243816      10.18329237      12.97682995       19      -0.00001370       0.00027454       0.00013826
Cs      11.54326505      14.83709413       1.84675157       20      -0.00023630      -0.00001363      -0.00045354
Cs      21.36313692      20.16280724       5.86681245       21      -0.00042714       0.00011063       0.00030774
K       16.15800295      16.52761003       4.22966118       22      -0.00012111      -0.00027339       0.00000056
In      25.54009340      13.03649615       1.71037504       23      -0.00003306      -0.00010104       0.00015200
I       14.51177746      13.29832093       3.78116492       24       0.00030032       0.00013006      -0.00024427
I       17.93175573      21.60688096       4.54758966       25      -0.00019065       0.00013525      -0.00008823
I       17.83799180      14.60025543       1.08360345       26      -0.00047482       0.00010309      -0.00008500
I       15.82225294      19.94136382       5.58644449       27       0.00015212      -0.00024320      -0.00042956
I       13.77517832      18.05271061       1.95381267       28       0.00004612      -0.00007231       0.00024175
I       19.36469832      16.72886674       5.96573475       29      -0.00006070       0.00011502       0.00013623
Cs      17.37358163      18.32689145       8.85540985       30      -0.00032648       0.00006278       0.00029197
Cs      27.19364760      23.65458048      12.87858017       31      -0.00011000      -0.00012204      -0.00009666
K       21.98954512      20.01535488      11.23725150       32      -0.00038930       0.00022306       0.00002597
In      31.36949323      16.52646143       8.72036620       33      -0.00003498       0.00029916      -0.00019148
I       20.34185131      16.78574379      10.78908646       34      -0.00017151       0.00046266      -0.00027149
I       23.76319386      25.09676455      11.55535979       35      -0.00014290       0.00011421       0.00006806
I       23.66567498      18.09197284       8.09411249       36       0.00034001      -0.00013223       0.00010848
I       21.65387215      23.43053541      12.59359773       37       0.00026899      -0.00027191      -0.00014316
I       19.60660160      21.54186037       8.96181760       38      -0.00034052      -0.00002537       0.00012825
I       25.19524313      20.22041192      12.97524808       39      -0.00015870       0.00006902       0.00037824
Cs      15.22390884       5.97031574       2.62306197       40      -0.00005878       0.00039620      -0.00003136
Cs      25.04624354      11.29562991       6.64618709       41      -0.00010995       0.00006915       0.00011874
K       19.84009889       7.66001266       5.00544555       42       0.00052984       0.00008665       0.00038536
In      10.07732472       1.83170537       0.93428085       43      -0.00041275       0.00007708      -0.00025446
I       18.19351899       4.43283687       4.55591665       44       0.00016685      -0.00070094       0.00030116
I       21.61682405      12.74185160       5.32671393       45       0.00001079       0.00009892      -0.00003685
I       21.51899721       5.73293735       1.86091910       46       0.00014744       0.00012811      -0.00011223
I       19.50639363      11.07486881       6.36089045       47       0.00010152      -0.00018780       0.00044054
I       17.45568807       9.18609503       2.73154431       48       0.00052765      -0.00020301      -0.00034378
I       23.04670580       7.86273808       6.74440055       49       0.00000256      -0.00010721      -0.00034978
Cs      21.05437591       9.46204426       9.63332962       50       0.00027737      -0.00035708      -0.00021354
Cs      30.87387890      14.78615678      13.65672599       51       0.00046503      -0.00013736      -0.00009980
K       25.66977121      11.15099669      12.01603652       52       0.00035688      -0.00028227      -0.00037124
In      15.90797799       5.32327102       7.94210623       53       0.00020524      -0.00009593      -0.00039624
I       24.02551280       7.92202466      11.56435289       54      -0.00068173       0.00009312       0.00042357
I       27.44527078      16.23278471      12.33639559       55       0.00018352      -0.00017526       0.00016021
I       27.34964711       9.22292013       8.86908290       56       0.00035362       0.00009918      -0.00001413
I       25.33450850      14.56585884      13.37081345       57       0.00016567       0.00015555       0.00018410
I       23.28763836      12.67681467       9.73951938       58       0.00001660      -0.00006390       0.00018916
I       28.87615266      11.35236704      13.75231042       59      -0.00000162       0.00015710       0.00001825
Cs      21.11698317      16.00411546       2.62368568       60       0.00004118       0.00009175      -0.00034297
Cs      30.93531728      21.33223403       6.64486970       61       0.00021114      -0.00007015       0.00029207
K       25.73173328      17.69435660       5.00545704       62      -0.00006594      -0.00004390      -0.00007526
In      15.96820151      11.86803399       0.93308188       63      -0.00011339       0.00010383       0.00001229
I       24.08504288      14.46631515       4.55939403       64      -0.00007756       0.00029444      -0.00040309
I       27.50394625      22.77437983       5.32387170       65      -0.00006984       0.00018685       0.00013938
I       27.41118440      15.76685362       1.85967488       66      -0.00008871       0.00031332      -0.00033104
I       25.39539032      21.10756704       6.36218129       67       0.00020978       0.00005841       0.00001493
I       23.34920737      19.21987616       2.72900178       68       0.00009073       0.00002400       0.00030707
I       28.93750421      17.89810632       6.74251033       69      -0.00000987       0.00000488       0.00010091
Cs      26.94654208      19.49506660       9.63290095       70      -0.00044444       0.00054493      -0.00025632
Cs      36.76788393      24.82189356      13.65352956       71      -0.00015628      -0.00008216       0.00030745
K       31.56211311      21.18529255      12.01368346       72      -0.00016483      -0.00002479       0.00016521
In      21.79878675      15.35743704       7.94150087       73      -0.00026694      -0.00028473      -0.00019095
I       29.91343160      17.95650158      11.56870674       74      -0.00006066       0.00000829      -0.00039080
I       33.33576636      26.26486420      12.33322743       75       0.00007503      -0.00013157       0.00017753
I       33.23856366      19.25942501       8.87059045       76      -0.00007952      -0.00000283       0.00006055
I       31.22671723      24.59888134      13.37218841       77       0.00029312      -0.00011317      -0.00075554
I       29.17789512      22.71176291       9.73948202       78       0.00000378      -0.00027937      -0.00030236
I       34.76843312      21.38929559      13.75126085       79      -0.00007726      -0.00034751      -0.00007247
