80
Lattice="18.41608560739581 0.0 0.0 6.3333495204097625 18.015607149322282 0.0 14.38028619879057 7.7945073927560475 10.953961609633065" Properties=species:S:1:pos:R:3 pbc="T T T"
Cs       4.89111620       3.22623464       1.36925805
Cs      14.67374426       9.67882185       4.10772225
K        9.78243024       6.45252820       2.73849009
In       0.00000018       0.00000059       0.00000024
I        9.37192394       3.70335323       2.59711784
I       10.19293655       9.20170271       2.87986235
I       11.62151055       4.00407649       1.69157706
I        7.94334861       8.90097949       3.78540285
I        6.43513995       7.44382738       0.85397034
I       13.12972115       5.46123131       4.62301122
Cs      12.08125930       7.12348834       6.84623886
Cs      21.86388736      13.57607555       9.58470305
K       16.97257334      10.34978190       8.21547089
In       7.19014328       3.89725428       5.47698105
I       16.56206704       7.60060692       8.07409864
I       17.38307965      13.09895640       8.35684315
I       18.81165364       7.90133019       7.16855786
I       15.13349171      12.79823318       9.26238365
I       13.62528304      11.34108107       6.33095114
I       20.31986425       9.35848500      10.09999202
Cs       8.05779096      12.23403822       1.36925805
Cs      17.84041903      18.68662542       4.10772225
K       12.94910500      15.46033178       2.73849009
In       3.16667494       9.00780416       0.00000024
I       12.53859870      12.71115680       2.59711784
I       13.35961131      18.20950628       2.87986235
I       14.78818531      13.01188006       1.69157706
I       11.11002337      17.90878306       3.78540285
I        9.60181471      16.45163095       0.85397034
I       16.29639591      14.46903488       4.62301122
Cs      15.24793406      16.13129191       6.84623886
Cs      25.03056212      22.58387912       9.58470305
K       20.13924810      19.35758547       8.21547089
In      10.35681804      12.90505786       5.47698105
I       19.72874180      16.60841050       8.07409864
I       20.54975441      22.10675998       8.35684315
I       21.97832841      16.90913376       7.16855786
I       18.30016647      21.80603676       9.26238365
I       16.79195780      20.34888465       6.33095114
I       23.48653901      18.36628858      10.09999202
Cs      14.09915900       3.22623464       1.36925805
Cs      23.88178707       9.67882185       4.10772225
K       18.99047304       6.45252820       2.73849009
In       9.20804299       0.00000059       0.00000024
I       18.57996674       3.70335323       2.59711784
I       19.40097935       9.20170271       2.87986235
I       20.82955335       4.00407649       1.69157706
I       17.15139142       8.90097949       3.78540285
I       15.64318275       7.44382738       0.85397034
I       22.33776395       5.46123131       4.62301122
Cs      21.28930210       7.12348834       6.84623886
Cs      31.07193017      13.57607555       9.58470305
K       26.18061614      10.34978190       8.21547089
In      16.39818609       3.89725428       5.47698105
I       25.77010984       7.60060692       8.07409864
I       26.59112245      13.09895640       8.35684315
I       28.01969645       7.90133019       7.16855786
I       24.34153452      12.79823318       9.26238365
I       22.83332585      11.34108107       6.33095114
I       29.52790705       9.35848500      10.09999202
Cs      17.26583376      12.23403822       1.36925805
Cs      27.04846183      18.68662542       4.10772225
K       22.15714780      15.46033178       2.73849009
In      12.37471775       9.00780416       0.00000024
I       21.74664150      12.71115680       2.59711784
I       22.56765411      18.20950628       2.87986235
I       23.99622811      13.01188006       1.69157706
I       20.31806618      17.90878306       3.78540285
I       18.80985751      16.45163095       0.85397034
I       25.50443871      14.46903488       4.62301122
Cs      24.45597686      16.13129191       6.84623886
Cs      34.23860493      22.58387912       9.58470305
K       29.34729090      19.35758547       8.21547089
In      19.56486085      12.90505786       5.47698105
I       28.93678460      16.60841050       8.07409864
I       29.75779721      22.10675998       8.35684315
I       31.18637121      16.90913376       7.16855786
I       27.50820928      21.80603676       9.26238365
I       26.00000061      20.34888465       6.33095114
I       32.69458181      18.36628858      10.09999202
