80
Lattice="18.596884746606058 0.0 0.0 -10.595730627728862 16.013845966538895 0.0 9.408487884754022 0.35053439485924043 16.71383995832337" Properties=species:S:1:pos:R:3 pbc="T T T"
Cs      12.04247863       2.85771550       8.34896716
Cs       2.48164152       5.35175208       0.00775596
K        2.35212197       0.08763360       4.17845999
In       2.90968004       0.01363491       0.00005529
I       10.71035696       0.05422202       1.67167322
I        3.81374552       8.15516373       6.68528849
I        4.90480327       2.14554626       1.67169298
I        9.61938449       6.06396802       6.68530825
I        9.23583210       5.95324343       1.67166527
I        5.28828735       2.25625013       6.68528054
Cs      16.74672257       3.03298269      16.70588714
Cs       7.18588546       5.52701928       8.36467594
K        7.05636591       0.26290080      12.53537997
In       7.61392398       0.18890211       8.35697527
I       15.41460090       0.22948922      10.02859320
I        8.51798946       8.33043092      15.04220847
I        9.60904721       2.32081346      10.02861296
I       14.32362843       6.23923522      15.04222823
I       13.94007604       6.12851063      10.02858525
I        9.99253129       2.43151733      15.04220052
Cs       6.74461332      10.86463848       8.34896716
Cs      -2.81622380      13.35867507       0.00775596
K       -2.94574334       8.09455658       4.17845999
In      -2.38818528       8.02055790       0.00005529
I        5.41249165       8.06114500       1.67167322
I       -1.48411980      16.16208671       6.68528849
I       -0.39306205      10.15246925       1.67169298
I        4.32151917      14.07089100       6.68530825
I        3.93796678      13.96016641       1.67166527
I       -0.00957796      10.26317312       6.68528054
Cs      11.44885726      11.03990568      16.70588714
Cs       1.88802014      13.53394226       8.36467594
K        1.75850060       8.26982378      12.53537997
In       2.31605867       8.19582509       8.35697527
I       10.11673559       8.23641220      10.02859320
I        3.22012415      16.33735391      15.04220847
I        4.31118190      10.32773644      10.02861296
I        9.02576312      14.24615820      15.04222823
I        8.64221073      14.13543361      10.02858525
I        4.69466598      10.43844031      15.04220052
Cs      21.34092101       2.85771550       8.34896716
Cs      11.78008389       5.35175208       0.00775596
K       11.65056434       0.08763360       4.17845999
In      12.20812241       0.01363491       0.00005529
I       20.00879934       0.05422202       1.67167322
I       13.11218789       8.15516373       6.68528849
I       14.20324564       2.14554626       1.67169298
I       18.91782686       6.06396802       6.68530825
I       18.53427447       5.95324343       1.67166527
I       14.58672972       2.25625013       6.68528054
Cs      26.04516495       3.03298269      16.70588714
Cs      16.48432783       5.52701928       8.36467594
K       16.35480829       0.26290080      12.53537997
In      16.91236635       0.18890211       8.35697527
I       24.71304328       0.22948922      10.02859320
I       17.81643183       8.33043092      15.04220847
I       18.90748958       2.32081346      10.02861296
I       23.62207080       6.23923522      15.04222823
I       23.23851841       6.12851063      10.02858525
I       19.29097367       2.43151733      15.04220052
Cs      16.04305569      10.86463848       8.34896716
Cs       6.48221857      13.35867507       0.00775596
K        6.35269903       8.09455658       4.17845999
In       6.91025710       8.02055790       0.00005529
I       14.71093402       8.06114500       1.67167322
I        7.81432258      16.16208671       6.68528849
I        8.90538033      10.15246925       1.67169298
I       13.61996155      14.07089100       6.68530825
I       13.23640916      13.96016641       1.67166527
I        9.28886441      10.26317312       6.68528054
Cs      20.74729963      11.03990568      16.70588714
Cs      11.18646252      13.53394226       8.36467594
K       11.05694297       8.26982378      12.53537997
In      11.61450104       8.19582509       8.35697527
I       19.41517796       8.23641220      10.02859320
I       12.51856652      16.33735391      15.04220847
I       13.60962427      10.32773644      10.02861296
I       18.32420549      14.24615820      15.04222823
I       17.94065310      14.13543361      10.02858525
I       13.99310835      10.43844031      15.04220052
