20
Lattice="18.477376918975818 0.058905583623992834 0.059885885552635576 4.637340809994305 7.972402566634214 0.026370845513387364 4.646764343735342 2.6946029454114977 6.958852330207716" Properties=species:S:1:pos:R:3:spacegroup_kinds:I:1:forces:R:3 spacegroup="P 1" unit_cell=conventional occupancy="_JSON {\"0\": {\"Cs\": 1.0}, \"1\": {\"Cs\": 1.0}, \"2\": {\"K\": 1.0}, \"3\": {\"In\": 1.0}, \"4\": {\"I\": 1.0}, \"5\": {\"I\": 1.0}, \"6\": {\"I\": 1.0}, \"7\": {\"I\": 1.0}, \"8\": {\"I\": 1.0}, \"9\": {\"I\": 1.0}, \"10\": {\"Cs\": 1.0}, \"11\": {\"Cs\": 1.0}, \"12\": {\"K\": 1.0}, \"13\": {\"In\": 1.0}, \"14\": {\"I\": 1.0}, \"15\": {\"I\": 1.0}, \"16\": {\"I\": 1.0}, \"17\": {\"I\": 1.0}, \"18\": {\"I\": 1.0}, \"19\": {\"I\": 1.0}}" energy=-51.29789262089815 free_energy=-51.29789262089815 stress="1.779753878962191e-08 2.1719057568671388e-07 4.818426412423587e-07 2.1719057568671388e-07 6.091184357207829e-07 3.676049996933098e-07 4.818426412423587e-07 3.676049996933098e-07 7.627445458164688e-07" pbc="T T T"
Cs       4.64831425       2.66789666       1.94364860        0       0.00019536       0.00010287      -0.00007456
Cs      13.87492319       8.02861895       5.07190961        1      -0.00043150       0.00005125      -0.00004273
K        9.26112256       5.34843237       3.50757362        2       0.00019697      -0.00012689       0.00002594
In      18.47737569       0.05880878       0.06000029        3      -0.00014509       0.00010535      -0.00034604
I        8.55016357       2.38320281       1.71683267        4      -0.00021538       0.00003752      -0.00056586
I        9.97265092       8.31295655       5.29920771        5       0.00049675      -0.00015334      -0.00016987
I       12.22309616       6.24775214       1.79574771        6      -0.00035518      -0.00063040       0.00040194
I       24.77671285       4.50794637       5.27862880        7      -0.00011194      -0.00019355       0.00061887
I        7.02788016       7.43654670       1.72400165        8      -0.00066600      -0.00017495      -0.00016177
I       11.49542565       3.26018295       5.29065912        9      -0.00009505       0.00014148       0.00001742
Cs      13.88734083       2.69742572       1.97354656       10      -0.00030930      -0.00008423      -0.00014821
Cs      23.11316819       8.05818310       5.10187096       11       0.00023209      -0.00001722      -0.00008413
K       18.49986408       5.37780540       3.53747405       12      -0.00001591      -0.00007157       0.00004152
In       9.23849947       0.02948739       0.02979260       13       0.00020339      -0.00018312       0.00026540
I       17.78860462       2.41241780       1.74653475       14       0.00016730       0.00027779       0.00000246
I       19.21191247       8.34213124       5.32913428       15      -0.00055359       0.00031864      -0.00011812
I        2.98416618       6.21777115       1.76599163       16       0.00060783       0.00049435      -0.00030495
I       15.53786672       4.47825591       5.24884656       17       0.00042570       0.00040662      -0.00016048
I       16.26606178       7.46581571       1.75386124       18       0.00053565      -0.00005114       0.00036781
I       20.73424789       3.28991017       5.32054227       19      -0.00016211      -0.00024946       0.00043536
