80
Lattice="18.44442112265965 0.08569673431502159 0.031244795306700116 9.300697424130533 14.913545457202783 0.4196378289638188 9.290333001534117 5.372697554144839 15.042151982202496" Properties=species:S:1:pos:R:3:spacegroup_kinds:I:1:forces:R:3 spacegroup="P 1" unit_cell=conventional occupancy="_JSON {\"0\": {\"Cs\": 1.0}, \"1\": {\"Cs\": 1.0}, \"2\": {\"K\": 1.0}, \"3\": {\"In\": 1.0}, \"4\": {\"I\": 1.0}, \"5\": {\"I\": 1.0}, \"6\": {\"I\": 1.0}, \"7\": {\"I\": 1.0}, \"8\": {\"I\": 1.0}, \"9\": {\"I\": 1.0}, \"10\": {\"Cs\": 1.0}, \"11\": {\"Cs\": 1.0}, \"12\": {\"K\": 1.0}, \"13\": {\"In\": 1.0}, \"14\": {\"I\": 1.0}, \"15\": {\"I\": 1.0}, \"16\": {\"I\": 1.0}, \"17\": {\"I\": 1.0}, \"18\": {\"I\": 1.0}, \"19\": {\"I\": 1.0}, \"20\": {\"Cs\": 1.0}, \"21\": {\"Cs\": 1.0}, \"22\": {\"K\": 1.0}, \"23\": {\"In\": 1.0}, \"24\": {\"I\": 1.0}, \"25\": {\"I\": 1.0}, \"26\": {\"I\": 1.0}, \"27\": {\"I\": 1.0}, \"28\": {\"I\": 1.0}, \"29\": {\"I\": 1.0}, \"30\": {\"Cs\": 1.0}, \"31\": {\"Cs\": 1.0}, \"32\": {\"K\": 1.0}, \"33\": {\"In\": 1.0}, \"34\": {\"I\": 1.0}, \"35\": {\"I\": 1.0}, \"36\": {\"I\": 1.0}, \"37\": {\"I\": 1.0}, \"38\": {\"I\": 1.0}, \"39\": {\"I\": 1.0}, \"40\": {\"Cs\": 1.0}, \"41\": {\"Cs\": 1.0}, \"42\": {\"K\": 1.0}, \"43\": {\"In\": 1.0}, \"44\": {\"I\": 1.0}, \"45\": {\"I\": 1.0}, \"46\": {\"I\": 1.0}, \"47\": {\"I\": 1.0}, \"48\": {\"I\": 1.0}, \"49\": {\"I\": 1.0}, \"50\": {\"Cs\": 1.0}, \"51\": {\"Cs\": 1.0}, \"52\": {\"K\": 1.0}, \"53\": {\"In\": 1.0}, \"54\": {\"I\": 1.0}, \"55\": {\"I\": 1.0}, \"56\": {\"I\": 1.0}, \"57\": {\"I\": 1.0}, \"58\": {\"I\": 1.0}, \"59\": {\"I\": 1.0}, \"60\": {\"Cs\": 1.0}, \"61\": {\"Cs\": 1.0}, \"62\": {\"K\": 1.0}, \"63\": {\"In\": 1.0}, \"64\": {\"I\": 1.0}, \"65\": {\"I\": 1.0}, \"66\": {\"I\": 1.0}, \"67\": {\"I\": 1.0}, \"68\": {\"I\": 1.0}, \"69\": {\"I\": 1.0}, \"70\": {\"Cs\": 1.0}, \"71\": {\"Cs\": 1.0}, \"72\": {\"K\": 1.0}, \"73\": {\"In\": 1.0}, \"74\": {\"I\": 1.0}, \"75\": {\"I\": 1.0}, \"76\": {\"I\": 1.0}, \"77\": {\"I\": 1.0}, \"78\": {\"I\": 1.0}, \"79\": {\"I\": 1.0}}" energy=-205.1915735061788 free_energy=-205.1915735061788 stress="-3.230363263935034e-07 8.122550227781551e-08 -5.337671566465181e-07 8.122550227781551e-08 3.109531217436956e-08 2.2520371074187724e-07 -5.337671566465181e-07 2.2520371074187724e-07 2.5547772309155887e-07" pbc="T T T"
Cs       4.63308328       2.73111910       1.89143193        0      -0.00025403       0.00001379      -0.00039570
Cs      13.88515980       7.45498084       5.85572708        1       0.00012603       0.00010696      -0.00001414
K        9.25916835       5.09287626       3.87312406        2      -0.00032514       0.00018176      -0.00006332
In      18.44445208       0.08574562       0.03125733        3       0.00007719       0.00015126      -0.00024740
I        6.33758958       3.68825111       5.28703421        4       0.00025283       0.00010922       0.00043022
I       12.18030246       6.49818954       2.45982953        5      -0.00014440      -0.00039464      -0.00024643
I        9.95183004       2.42200410       1.65565008        6       0.00013334       0.00018875       0.00011814
I        8.56599910       7.76373714       6.09080463        7       0.00030116       0.00001650       0.00028793
I        6.99775182       6.00212264       1.30994503        8       0.00007296       0.00008179      -0.00017494
I       11.52029288       4.18401369       6.43614877        9      -0.00036348      -0.00031052       0.00043507
Cs       9.27861676       5.41776669       9.41262279       10       0.00008560      -0.00004070      -0.00028717
Cs      18.53016121      10.14102216      13.37660249       11      -0.00017371       0.00004298      -0.00007907
K       13.90420580       7.77949831      11.39427297       12      -0.00014677       0.00000211       0.00003773
In      23.08960936       2.77186937       7.55251232       13      -0.00000700       0.00030496      -0.00021203
I       10.98294058       6.37547162      12.80851641       14       0.00012698      -0.00024674      -0.00016184
I       16.82521276       9.18369357       9.98045998       15       0.00017019      -0.00005680       0.00017378
I       14.59668168       5.10879965       9.17640861       16       0.00006675      -0.00009020       0.00026945
I       13.21106424      10.44992903      13.61214003       17       0.00010456      -0.00022209       0.00011414
I       11.64290114       8.68877374       8.83098593       18       0.00004756      -0.00020296       0.00027910
I       16.16545571       6.87042921      13.95745981       19      -0.00002824      -0.00032434       0.00020972
Cs       9.28327343      10.18879580       2.10071209       20       0.00020396      -0.00036528       0.00002527
Cs      18.53500624      14.91139384       6.06508353       21       0.00000037      -0.00008318       0.00016095
K       13.90900668      12.54963582       4.08311300       22       0.00025252       0.00013940       0.00008388
In      23.09473089       7.54221759       0.24106703       23      -0.00022643      -0.00012832       0.00003192
I       10.98805702      11.14513077       5.49701382       24      -0.00032167       0.00006836       0.00006365
I       16.83041428      13.95425618       2.66911541       25      -0.00013622       0.00011362      -0.00012750
I       14.60192092       9.87913868       1.86535266       26       0.00012622       0.00002633      -0.00004285
I       13.21599699      15.22096447       6.30041165       27      -0.00002364      -0.00028781      -0.00013377
I       11.64816623      13.45935956       1.52000824       28       0.00002987       0.00014711      -0.00025690
I       16.17000119      11.63973904       6.64627959       29       0.00008850       0.00021340      -0.00023502
Cs      13.92779318      12.87460752       9.62096277       30       0.00023969      -0.00012855       0.00016448
Cs      23.18043737      17.59772025      13.58652469       31      -0.00011971      -0.00002066       0.00015147
K       18.55435072      15.23574366      11.60418124       32      -0.00010564       0.00010700       0.00003316
In      27.73983922      10.22858166       7.76224395       33       0.00006108       0.00027662      -0.00032127
I       15.63240282      13.83118662      13.01739325       34       0.00018619       0.00021674       0.00023432
I       21.47579952      16.64076758      10.19042572       35      -0.00025716       0.00015643      -0.00028911
I       19.24676052      12.56524419       9.38656956       36       0.00016060      -0.00015615      -0.00017850
I       17.86218112      17.90704468      13.82137885       37      -0.00022974       0.00034004       0.00008791
I       16.29318397      16.14485167       9.04096307       38      -0.00025108       0.00017066      -0.00046421
I       20.81533509      14.32658668      14.16740681       39      -0.00026082       0.00027389      -0.00002367
Cs      13.85572045       2.77454715       1.90647238       40      -0.00029612       0.00004994       0.00000420
Cs      23.10718604       7.49739200       5.87190834       41      -0.00015193      -0.00018473      -0.00025851
K       18.48122972       5.13586457       3.88885432       42       0.00004759       0.00006501       0.00008355
In       9.22225949       0.04302488       0.01550040       43       0.00024013      -0.00034604       0.00014345
I       15.55995768       3.73167702       5.30264445       44      -0.00002395      -0.00028837      -0.00010886
I       21.40252056       6.54017580       2.47541708       45       0.00023255      -0.00000734       0.00012706
I       19.17340610       2.46510678       1.67134434       46       0.00012045      -0.00022406       0.00026030
I       17.78882770       7.80642798       6.10662058       47      -0.00003142       0.00012291      -0.00000868
I       16.21973331       6.04519450       1.32543560       48       0.00034577       0.00008107       0.00034983
I       20.74227203       4.22683764       6.45270975       49       0.00033510      -0.00011788       0.00017002
Cs      18.50046434       5.46035834       9.42844089       50      -0.00024968      -0.00000206      -0.00042400
Cs      27.75217137      10.18386309      13.39270647       51      -0.00001640       0.00014468      -0.00024889
K       23.12648879       7.82231149      11.40997918       52      -0.00023993      -0.00011011      -0.00009402
In      13.86729018       2.72942242       7.53650316       53       0.00036630      -0.00001470       0.00026307
I       20.20525762       6.41763890      12.82364767       54       0.00012505       0.00006790       0.00029912
I       26.04725718       9.22689640       9.99622473       55       0.00029746      -0.00024762       0.00012755
I       23.81962925       5.15074179       9.19287740       56      -0.00028263       0.00007171      -0.00001831
I       22.43337557      10.49303231      13.62767310       57       0.00011843       0.00004004       0.00007470
I       20.86510273       8.73156821       8.84684926       58       0.00015232       0.00017833       0.00011753
I       25.38747504       6.91297340      13.97306584       59       0.00005949      -0.00045356       0.00018532
Cs      18.50553465      10.23133556       2.11629606       60      -0.00009346      -0.00007436       0.00011236
Cs      27.75657702      14.95378303       6.08063302       61       0.00027480       0.00011636       0.00027734
K       23.13129674      12.59241168       4.09865287       62       0.00005396      -0.00004158      -0.00011787
In      13.87249274       7.49977818       0.22531609       63      -0.00017689      -0.00018973       0.00050965
I       20.21000487      11.18844154       5.51250735       64      -0.00006053      -0.00013479       0.00026045
I       26.05268910      13.99667740       2.68465798       65      -0.00031503       0.00013258      -0.00010121
I       23.82431002       9.92151268       1.88096541       66      -0.00012482       0.00012264      -0.00018361
I       22.43890501      15.26345006       6.31627707       67      -0.00019439       0.00026910      -0.00015644
I       20.87039228      13.50200141       1.53550611       68      -0.00021693       0.00011904      -0.00027359
I       25.39230545      11.68282903       6.66193480       69       0.00011221       0.00010389      -0.00037559
Cs      23.15055643      12.91775852       9.63635479       70      -0.00002867      -0.00001611       0.00069464
Cs      32.40238665      17.64033031      13.60199078       71       0.00012424      -0.00012741       0.00011743
K       27.77629751      15.27885001      11.61964489       72       0.00024462      -0.00003967       0.00019870
In      18.51772872      10.18585159       7.74654176       73      -0.00011996      -0.00002912      -0.00012731
I       24.85511935      13.87471613      13.03364070       74      -0.00003723      -0.00010096      -0.00071516
I       30.69776732      16.68305029      10.20605802       75       0.00001398       0.00018589       0.00002898
I       28.46912700      12.60805464       9.40217674       76      -0.00033146      -0.00010536      -0.00021208
I       27.08406728      17.94992658      13.83725570       77      -0.00006953       0.00016052      -0.00009191
I       25.51544625      16.18853793       9.05636479       78       0.00007273       0.00011204       0.00001506
I       30.03707843      14.36888246      14.18350196       79       0.00018451       0.00032115      -0.00034172
