10
Lattice="9.178005244244995 -0.016359880325790718 0.00557583384853838 4.585180979618333 8.001434974341382 -0.025593874511258035 4.572986111179806 2.6251801640835666 6.934446660809567" Properties=species:S:1:pos:R:3:spacegroup_kinds:I:1:forces:R:3 spacegroup="P 1" unit_cell=conventional occupancy="_JSON {\"0\": {\"Cs\": 1.0}, \"1\": {\"Cs\": 1.0}, \"2\": {\"K\": 1.0}, \"3\": {\"In\": 1.0}, \"4\": {\"I\": 1.0}, \"5\": {\"I\": 1.0}, \"6\": {\"I\": 1.0}, \"7\": {\"I\": 1.0}, \"8\": {\"I\": 1.0}, \"9\": {\"I\": 1.0}}" energy=-25.64894361647515 free_energy=-25.64894361647515 stress="2.257090251984237e-06 -4.912378040029032e-06 -1.9853430455501962e-06 -4.912378040029032e-06 -3.4392801297294407e-06 -3.6361176505555976e-07 -1.9853430455501962e-06 -3.6361176505555976e-07 4.70474893992803e-06" pbc="T T T"
Cs       4.59908995       2.63888401       1.91965900        0       0.00048534       0.00037349      -0.00044127
Cs      13.73630858       7.97109399       4.99519412        1       0.00046839       0.00006398       0.00026231
K        9.16764858       5.30460648       3.45773468        2       0.00052714       0.00055386      -0.00031341
In       9.17802977      -0.01625251       0.00555823        3      -0.00025048      -0.00011832       0.00006298
I        6.95594278       3.20725095       5.24835042        4       0.00005587       0.00007401       0.00039775
I       11.38027951       7.40255936       1.66568584        5      -0.00010133       0.00025770      -0.00031914
I        9.87158437       2.28965878       1.74799493        6      -0.00034569       0.00002286      -0.00028327
I        8.46502231       8.32090271       5.16612534        7      -0.00033813      -0.00018258       0.00037130
I        6.24491718       6.19739768       1.66996880        8      -0.00028632      -0.00026944       0.00016142
I       12.09195814       4.41368726       5.24423335        9      -0.00021479      -0.00077556       0.00010134
