20
Lattice="12.774387858231727 9.06460678359424e-10 6.3982232738579234e-18 9.064606786590342e-10 12.774387858232004 1.255337163456414e-16 3.380912655187665e-18 6.23178995442939e-17 6.387193925147004" Properties=species:S:1:pos:R:3:spacegroup_kinds:I:1:forces:R:3 spacegroup="P 1" unit_cell=conventional occupancy="_JSON {\"0\": {\"Cs\": 1.0}, \"1\": {\"Pb\": 1.0}, \"2\": {\"I\": 1.0}, \"3\": {\"I\": 1.0}, \"4\": {\"I\": 1.0}, \"5\": {\"Cs\": 1.0}, \"6\": {\"Pb\": 1.0}, \"7\": {\"I\": 1.0}, \"8\": {\"I\": 1.0}, \"9\": {\"I\": 1.0}, \"10\": {\"Cs\": 1.0}, \"11\": {\"Pb\": 1.0}, \"12\": {\"I\": 1.0}, \"13\": {\"I\": 1.0}, \"14\": {\"I\": 1.0}, \"15\": {\"Cs\": 1.0}, \"16\": {\"Pb\": 1.0}, \"17\": {\"I\": 1.0}, \"18\": {\"I\": 1.0}, \"19\": {\"I\": 1.0}}" energy=-55.92296954496402 free_energy=-55.92296954496402 stress="6.08583307398831e-06 -7.303826920417931e-11 1.0165637050070049e-17 -7.303826920417931e-11 6.0858330601376355e-06 -5.74281132482278e-19 1.0165637050070049e-17 -5.74281132482278e-19 6.08618184105177e-06" pbc="T T T"
Cs       3.19399432       3.19319961       3.19359696        0       0.00002589      -0.00002589      -0.00000000
Pb       0.00000173      -0.00000173      -0.00000000        1       0.00006000      -0.00006000      -0.00000000
I       -0.00006250       0.00006250       3.19359696        2      -0.00000378       0.00000378       0.00000000
I        3.19364200       0.00006250       0.00000000        3      -0.00007833       0.00000378       0.00000000
I       -0.00006250       3.19355193       0.00000000        4      -0.00000378       0.00007834       0.00000000
Cs       3.19399432       9.58039354       3.19359696        5       0.00002589      -0.00002589      -0.00000000
Pb       0.00000174       6.38719219      -0.00000000        6       0.00006000      -0.00006000      -0.00000000
I       -0.00006250       6.38725643       3.19359696        7      -0.00000378       0.00000378       0.00000000
I        3.19364200       6.38725643       0.00000000        8      -0.00007833       0.00000378       0.00000000
I       -0.00006250       9.58074585       0.00000000        9      -0.00000378       0.00007834       0.00000000
Cs       9.58118825       3.19319961       3.19359696       10       0.00002589      -0.00002589      -0.00000000
Pb       6.38719566      -0.00000173      -0.00000000       11       0.00006000      -0.00006000      -0.00000000
I        6.38713143       0.00006250       3.19359696       12      -0.00000378       0.00000378       0.00000000
I        9.58083593       0.00006250       0.00000000       13      -0.00007833       0.00000378       0.00000000
I        6.38713143       3.19355193       0.00000000       14      -0.00000378       0.00007834       0.00000000
Cs       9.58118825       9.58039354       3.19359696       15       0.00002589      -0.00002589      -0.00000000
Pb       6.38719566       6.38719219      -0.00000000       16       0.00006000      -0.00006000      -0.00000000
I        6.38713143       6.38725643       3.19359696       17      -0.00000378       0.00000378       0.00000000
I        9.58083593       6.38725643       0.00000000       18      -0.00007833       0.00000378       0.00000000
I        6.38713143       9.58074586       0.00000000       19      -0.00000378       0.00007834       0.00000000
