10
Lattice="10.229080729087281 0.0 0.0 -4.355670833396773 7.544243184489089 0.0 0.0 0.0 10.152509478218935" Properties=species:S:1:pos:R:3 pbc="T T T"
Cs       3.41559366       5.02949823      -0.00008689
Cs       8.27717752       2.51475050      -0.00008689
K        2.90969627       0.00000277       5.07626715
In       2.90971394       0.00000277       0.00005517
I        4.44972671       1.97810599       2.03122483
I        7.24311631       5.56614273       8.12137192
I        2.68206858      -0.00000000       8.12132828
I        7.54701215      -0.00000000       2.03118119
I       -3.21361240       5.56613996       2.03118119
I       -1.14205843       1.97810322       8.12132828
