10
Lattice="8.613876863733283 -0.32246546697587153 -0.02587445503367271 -4.029238324386245 7.618764899713795 0.02698825289380798 0.025499538658406325 -0.017315992545577637 8.750844103833991" Properties=species:S:1:pos:R:3:spacegroup_kinds:I:1:forces:R:3 spacegroup="P 1" unit_cell=conventional occupancy="_JSON {\"0\": {\"Cs\": 1.0}, \"1\": {\"Cs\": 1.0}, \"2\": {\"K\": 1.0}, \"3\": {\"In\": 1.0}, \"4\": {\"I\": 1.0}, \"5\": {\"I\": 1.0}, \"6\": {\"I\": 1.0}, \"7\": {\"I\": 1.0}, \"8\": {\"I\": 1.0}, \"9\": {\"I\": 1.0}}" energy=-25.775777929331863 free_energy=-25.775777929331863 stress="6.762329063440442e-07 -1.6258224123115335e-07 1.3126967209958116e-06 -1.6258224123115335e-07 -5.641861083168369e-06 3.22616522548221e-06 1.3126967209958116e-06 3.22616522548221e-06 4.168543751900633e-08" pbc="T T T"
Cs       2.53784101       4.86958122       7.51971437        0      -0.00014828      -0.00002122      -0.00072776
Cs       6.76120553       2.21769851       9.96977592        1      -0.00047417      -0.00015272      -0.00001283
K        2.34302539      -0.09620054       4.36829596        2       0.00068005       0.00012169       0.00010558
In       2.33195769      -0.08703538      -0.00725018        3      -0.00035709      -0.00047798       0.00067179
I        2.12621648       2.32741804       1.74329957        4      -0.00064506      -0.00026658      -0.00032132
I       -1.46493322       5.09980668       7.02060803        5      -0.00043434      -0.00053471       0.00002407
I        4.34031248       1.29170385       6.99651412        6       0.00067895       0.00011223       0.00011562
I        4.53624411      -1.11805966       1.72890388        7       0.00034959       0.00073914       0.00008108
I        4.93227843       5.81326100       1.74024424        8       0.00026512       0.00006845       0.00086331
I        8.76539066       0.60267851       6.98282680        9       0.00008524       0.00041169      -0.00079953
