20
Lattice="18.320794403237546 -3.138885533044391 0.6194650562293051 -3.201624611359211 8.375461326909791 -2.4637561093897804 0.14977010769790106 2.544192110574378 8.45267378400787" Properties=species:S:1:pos:R:3:spacegroup_kinds:I:1:forces:R:3 spacegroup="P 1" unit_cell=conventional occupancy="_JSON {\"0\": {\"Cs\": 1.0}, \"1\": {\"Cs\": 1.0}, \"2\": {\"K\": 1.0}, \"3\": {\"In\": 1.0}, \"4\": {\"I\": 1.0}, \"5\": {\"I\": 1.0}, \"6\": {\"I\": 1.0}, \"7\": {\"I\": 1.0}, \"8\": {\"I\": 1.0}, \"9\": {\"I\": 1.0}, \"10\": {\"Cs\": 1.0}, \"11\": {\"Cs\": 1.0}, \"12\": {\"K\": 1.0}, \"13\": {\"In\": 1.0}, \"14\": {\"I\": 1.0}, \"15\": {\"I\": 1.0}, \"16\": {\"I\": 1.0}, \"17\": {\"I\": 1.0}, \"18\": {\"I\": 1.0}, \"19\": {\"I\": 1.0}}" energy=-51.58763358107459 free_energy=-51.58763358107459 stress="-4.213936763885455e-07 -8.560136905633817e-08 -2.595495495618291e-07 -8.560136905633817e-08 -8.116478963323781e-07 1.1135166781821933e-07 -2.595495495618291e-07 1.1135166781821933e-07 -1.9831812050399654e-06" pbc="T T T"
Cs       1.88178160       7.62366584       6.87673669        0       0.00061852       0.00002346      -0.00022235
Cs       6.00318908       4.31847092       7.83196739        1       0.00016885      -0.00015869      -0.00014935
K        0.88859867       1.29577503       4.20513417        2      -0.00020305      -0.00018178      -0.00030145
In       0.81356287       0.02336529      -0.02147998        3       0.00025562       0.00025609       0.00020350
I        2.39802585       2.32338353       1.10320579        4      -0.00021095       0.00001109      -0.00000298
I        5.33780731       7.07386575       5.15210059        5      -0.00050967       0.00029818       0.00070265
I        3.33719409       1.65718428       6.81818412        6      -0.00039159      -0.00007293       0.00028231
I        7.60029749      -0.63481534       1.90095362        7      -0.00046328      -0.00019891      -0.00017649
I       -1.50874603       6.71518445      -0.14916573        8      -0.00012428       0.00011716       0.00013997
I        0.08406294       4.25160134       6.09537452        9      -0.00000601      -0.00034663      -0.00013700
Cs      11.04257248       6.05394271       7.18541134       10      -0.00057365       0.00018187       0.00019289
Cs      15.16361859       2.74831554       8.14207929       11       0.00000256       0.00008962       0.00003319
K       10.04891165      -0.27365609       4.51421449       12      -0.00001911       0.00011515       0.00023483
In       9.97372844      -1.54554847       0.28804183       13      -0.00011767      -0.00033817      -0.00028521
I       11.55799081       0.75458804       1.41254824       14       0.00029862      -0.00006935      -0.00006449
I       14.49790664       5.50421941       5.46264316       15       0.00055418      -0.00016256      -0.00068836
I       12.49712768       0.08788251       7.12801247       16       0.00039641       0.00005349      -0.00024551
I       16.76059783      -2.20526142       2.21088945       17       0.00020244       0.00045301       0.00038566
I        7.65142459       5.14626161       0.16031254       18       0.00026593      -0.00023130      -0.00015519
I        9.24429321       2.68207898       6.40446943       19      -0.00014389       0.00016118       0.00025340
