40
Lattice="17.239403888547987 2.078815402481277 -1.8047160419813923 8.079598853813087 16.32396742071119 2.297407859486156 5.478509043302183 1.4406291212352402 7.298390943294581" Properties=species:S:1:pos:R:3:spacegroup_kinds:I:1:forces:R:3 spacegroup="P 1" unit_cell=conventional occupancy="_JSON {\"0\": {\"Cs\": 1.0}, \"1\": {\"Cs\": 1.0}, \"2\": {\"K\": 1.0}, \"3\": {\"In\": 1.0}, \"4\": {\"I\": 1.0}, \"5\": {\"I\": 1.0}, \"6\": {\"I\": 1.0}, \"7\": {\"I\": 1.0}, \"8\": {\"I\": 1.0}, \"9\": {\"I\": 1.0}, \"10\": {\"Cs\": 1.0}, \"11\": {\"Cs\": 1.0}, \"12\": {\"K\": 1.0}, \"13\": {\"In\": 1.0}, \"14\": {\"I\": 1.0}, \"15\": {\"I\": 1.0}, \"16\": {\"I\": 1.0}, \"17\": {\"I\": 1.0}, \"18\": {\"I\": 1.0}, \"19\": {\"I\": 1.0}, \"20\": {\"Cs\": 1.0}, \"21\": {\"Cs\": 1.0}, \"22\": {\"K\": 1.0}, \"23\": {\"In\": 1.0}, \"24\": {\"I\": 1.0}, \"25\": {\"I\": 1.0}, \"26\": {\"I\": 1.0}, \"27\": {\"I\": 1.0}, \"28\": {\"I\": 1.0}, \"29\": {\"I\": 1.0}, \"30\": {\"Cs\": 1.0}, \"31\": {\"Cs\": 1.0}, \"32\": {\"K\": 1.0}, \"33\": {\"In\": 1.0}, \"34\": {\"I\": 1.0}, \"35\": {\"I\": 1.0}, \"36\": {\"I\": 1.0}, \"37\": {\"I\": 1.0}, \"38\": {\"I\": 1.0}, \"39\": {\"I\": 1.0}}" energy=-102.59578628738268 free_energy=-102.59578628738268 stress="-1.7620699813788421e-06 -3.552071789411165e-07 4.5060296744014134e-07 -3.552071789411165e-07 -3.8378341803764884e-07 8.234839617798719e-08 4.5060296744014134e-07 8.234839617798719e-08 -1.0628127851756181e-07" pbc="T T T"
Cs       4.67179893       2.59209292       1.77377457        0       0.00003988      -0.00001280      -0.00032310
Cs      13.46598140       8.04944924       5.77143223        1       0.00021771       0.00028320      -0.00006654
K        9.06922742       5.32109815       3.77227300        2      -0.00008843      -0.00013423      -0.00013288
In      17.23949359       2.07888000      -1.80473956        3      -0.00014633      -0.00007461      -0.00006547
I        7.59945498       3.22235953       6.20941260        4       0.00046534       0.00005789       0.00020493
I       10.53803754       7.42044719       1.33521655        5      -0.00018274      -0.00033826       0.00000690
I        8.79784773       2.45260895       1.71566109        6      -0.00015342       0.00006391      -0.00001355
I        9.34054335       8.18904462       5.82921090        7      -0.00001339       0.00027312       0.00002940
I        6.10549817       6.23356243       2.07056409        8      -0.00000396       0.00000839       0.00028178
I       12.03247605       4.40860688       5.47396508        9       0.00014828      -0.00045282       0.00007107
Cs       8.71136312      10.75383693       2.92225951       10       0.00037735       0.00022673      -0.00003870
Cs      17.50588569      16.21157155       6.92030225       11      -0.00001293       0.00009387      -0.00025467
K       13.10918346      13.48321118       4.92099957       12      -0.00030580      -0.00031608      -0.00016833
In      21.27929632      10.24096716      -0.65605580       13       0.00005543      -0.00049186       0.00000779
I       11.63934622      11.38471119       7.35862564       14       0.00009789      -0.00020457      -0.00038052
I       14.57773744      15.58214676       2.48353640       15       0.00024979      -0.00007928       0.00033712
I       12.83766387      10.61457070       2.86435115       16      -0.00006380       0.00044265      -0.00005733
I       13.38033646      16.35103407       6.97792139       17      -0.00015967       0.00009670       0.00000136
I       10.14518462      14.39564732       3.21958401       18       0.00012035      -0.00044040       0.00013956
I       16.07238710      12.57042465       6.62229046       19       0.00004316       0.00007167       0.00023508
Cs      13.29166169       3.63148490       0.87128563       20      -0.00016117      -0.00003440      -0.00015821
Cs      22.08587735       9.08889004       4.86882741       21      -0.00002035       0.00022910       0.00022236
K       17.68900007       6.36034072       2.86952820       22      -0.00011058       0.00004262       0.00029972
In       8.61981442       1.03934567      -0.90239215       23      -0.00030366       0.00063913      -0.00001829
I       16.21912632       4.26199594       5.30715016       24       0.00028220      -0.00029878       0.00009965
I       19.15774364       8.45974567       0.43271827       25       0.00003312      -0.00042535       0.00005313
I       17.41747269       3.49195452       0.81332507       26       0.00003305       0.00024071       0.00012955
I       17.96000741       9.22841313       4.92699076       27       0.00015122      -0.00010645      -0.00024498
I       14.72506682       7.27280821       1.16867200       28       0.00005868       0.00025996      -0.00026033
I       20.65231976       5.44785754       4.57159614       29      -0.00029457       0.00014158      -0.00022994
Cs      17.33134657      11.79336718       2.01986122       30      -0.00006033       0.00009479      -0.00001435
Cs      26.12578120      17.25101253       6.01783104       31      -0.00017244       0.00000615      -0.00010790
K       21.72875279      14.52232471       4.01822717       32      -0.00002766       0.00009061       0.00029501
In      12.65961665       9.20144572       0.24627753       33       0.00002539       0.00015125       0.00012982
I       20.25909787      12.42390612       6.45571356       34       0.00004385      -0.00053225       0.00030006
I       23.19740351      16.62176030       1.58132819       35       0.00014867      -0.00028336       0.00017138
I       21.45716774      11.65394166       1.96210040       36       0.00003461       0.00015926       0.00001613
I       21.99995312      17.39043365       6.07561791       37       0.00008390      -0.00000419      -0.00013145
I       18.76510309      15.43503097       2.31732425       38      -0.00022748      -0.00016176      -0.00016576
I       24.69196484      13.60949559       5.72017989       39      -0.00020113       0.00071816      -0.00019953
