80
Lattice="16.824406863571507 1.5315143793756065 -2.771287047374341e-07 9.536497890561632 19.60453955635755 -1.9785303178470808e-07 -2.0352532119318e-07 -7.386189669901988e-08 12.374406466222728" Properties=species:S:1:pos:R:3:spacegroup_kinds:I:1:forces:R:3 spacegroup="P 1" unit_cell=conventional occupancy="_JSON {\"0\": {\"Cs\": 1.0}, \"1\": {\"Cs\": 1.0}, \"2\": {\"Cs\": 1.0}, \"3\": {\"Cs\": 1.0}, \"4\": {\"Pb\": 1.0}, \"5\": {\"Pb\": 1.0}, \"6\": {\"Pb\": 1.0}, \"7\": {\"Pb\": 1.0}, \"8\": {\"I\": 1.0}, \"9\": {\"I\": 1.0}, \"10\": {\"I\": 1.0}, \"11\": {\"I\": 1.0}, \"12\": {\"I\": 1.0}, \"13\": {\"I\": 1.0}, \"14\": {\"I\": 1.0}, \"15\": {\"I\": 1.0}, \"16\": {\"I\": 1.0}, \"17\": {\"I\": 1.0}, \"18\": {\"I\": 1.0}, \"19\": {\"I\": 1.0}, \"20\": {\"Cs\": 1.0}, \"21\": {\"Cs\": 1.0}, \"22\": {\"Cs\": 1.0}, \"23\": {\"Cs\": 1.0}, \"24\": {\"Pb\": 1.0}, \"25\": {\"Pb\": 1.0}, \"26\": {\"Pb\": 1.0}, \"27\": {\"Pb\": 1.0}, \"28\": {\"I\": 1.0}, \"29\": {\"I\": 1.0}, \"30\": {\"I\": 1.0}, \"31\": {\"I\": 1.0}, \"32\": {\"I\": 1.0}, \"33\": {\"I\": 1.0}, \"34\": {\"I\": 1.0}, \"35\": {\"I\": 1.0}, \"36\": {\"I\": 1.0}, \"37\": {\"I\": 1.0}, \"38\": {\"I\": 1.0}, \"39\": {\"I\": 1.0}, \"40\": {\"Cs\": 1.0}, \"41\": {\"Cs\": 1.0}, \"42\": {\"Cs\": 1.0}, \"43\": {\"Cs\": 1.0}, \"44\": {\"Pb\": 1.0}, \"45\": {\"Pb\": 1.0}, \"46\": {\"Pb\": 1.0}, \"47\": {\"Pb\": 1.0}, \"48\": {\"I\": 1.0}, \"49\": {\"I\": 1.0}, \"50\": {\"I\": 1.0}, \"51\": {\"I\": 1.0}, \"52\": {\"I\": 1.0}, \"53\": {\"I\": 1.0}, \"54\": {\"I\": 1.0}, \"55\": {\"I\": 1.0}, \"56\": {\"I\": 1.0}, \"57\": {\"I\": 1.0}, \"58\": {\"I\": 1.0}, \"59\": {\"I\": 1.0}, \"60\": {\"Cs\": 1.0}, \"61\": {\"Cs\": 1.0}, \"62\": {\"Cs\": 1.0}, \"63\": {\"Cs\": 1.0}, \"64\": {\"Pb\": 1.0}, \"65\": {\"Pb\": 1.0}, \"66\": {\"Pb\": 1.0}, \"67\": {\"Pb\": 1.0}, \"68\": {\"I\": 1.0}, \"69\": {\"I\": 1.0}, \"70\": {\"I\": 1.0}, \"71\": {\"I\": 1.0}, \"72\": {\"I\": 1.0}, \"73\": {\"I\": 1.0}, \"74\": {\"I\": 1.0}, \"75\": {\"I\": 1.0}, \"76\": {\"I\": 1.0}, \"77\": {\"I\": 1.0}, \"78\": {\"I\": 1.0}, \"79\": {\"I\": 1.0}}" energy=-226.4798590486493 free_energy=-226.4798590486493 stress="-1.0966326734489465e-05 -1.25044096893182e-06 -1.2824503181839778e-07 -1.25044096893182e-06 -9.751651109029167e-06 -4.6514055973892354e-08 -1.2824503181839778e-07 -4.6514055973892354e-08 1.610344266527756e-05" pbc="T T T"
Cs       9.97847122       9.09810846       3.09360666        0      -0.00027750      -0.00014630      -0.00002655
Cs       3.38719464       3.81381285       3.09359832        1      -0.00013780       0.00014861       0.00001728
Cs       4.34670047       1.57389756       9.28080820        2      -0.00024927       0.00002237      -0.00001747
Cs      10.93730522       6.85760970       9.28079982        3      -0.00021106       0.00037580       0.00002459
Pb       0.57221452       0.05253947      -0.00012543        4      -0.00016743      -0.00034225       0.00026227
Pb       7.16150601       5.33633361      12.37457196        5       0.00037783      -0.00003198      -0.00019928
Pb       0.57221838       0.05242060       6.18732553        6      -0.00026799       0.00010478      -0.00024575
Pb       7.16148753       5.33643586       6.18703598        7       0.00054517      -0.00042350       0.00020700
I        4.24604284       6.78700135       0.54404397        8       0.00020222      -0.00003720       0.00001729
I        6.06840441       2.26842955       0.54439039        9       0.00002969       0.00007902      -0.00001452
I        9.88573316       1.18034475       3.09359140       10      -0.00063912       0.00003812       0.00005057
I       10.07771499       3.88566832      11.83044719       11       0.00023838      -0.00013305      -0.00013518
I        8.25594400       8.40345171      11.82992400       12       0.00000050       0.00010513       0.00002624
I        8.06202137       5.69980820       3.09359833       13       0.00033414      -0.00004871       0.00001532
I        4.24606808       6.78701303       5.64316394       14       0.00007417      -0.00006257      -0.00004222
I        6.06837898       2.26841796       5.64280664       15       0.00015777       0.00010525       0.00004588
I        4.43949677       9.49114467       9.28081544       16       0.00037719       0.00002466      -0.00005291
I       10.07774806       3.88569731       6.73117041       17       0.00008096      -0.00022024       0.00009277
I        8.25592311       8.40343486       6.73168158       18       0.00010149       0.00015469      -0.00000578
I        6.26202851       4.97190805       9.28080762       19      -0.00020513       0.00031036      -0.00001386
Cs      14.74671955      18.90038365       3.09360739       20      -0.00026688      -0.00017477      -0.00003146
Cs       8.15544450      13.61608105       3.09359918       21      -0.00014594       0.00015726       0.00001164
Cs       9.11494908      11.37616044       9.28080775       22      -0.00025270       0.00005694      -0.00001565
Cs      15.70555492      16.65988138       9.28079814       23      -0.00021458       0.00036636       0.00003364
Pb       5.34048013       9.85479181      -0.00012578       24      -0.00032116      -0.00025379       0.00026265
Pb      11.92973223      15.13858321      12.37456973       25       0.00054106       0.00005343      -0.00018193
Pb       5.34048568       9.85468567       6.18732664       26      -0.00042199       0.00014031      -0.00025177
Pb      11.92971569      15.13868635       6.18703854       27       0.00069753      -0.00034199       0.00018615
I        9.01429686      16.58926572       0.54404240       28       0.00015185      -0.00000981       0.00002934
I       10.83666350      12.07071877       0.54438749       29      -0.00003288      -0.00000993       0.00000591
I       14.65398894      10.98262181       3.09359209       30      -0.00068626       0.00000536       0.00004596
I       14.84597870      13.68796062      11.83044406       31       0.00014541      -0.00023138      -0.00011255
I       13.02420389      18.20571974      11.82992195       32      -0.00008816       0.00011912       0.00004194
I       12.83027515      15.50208104       3.09359252       33       0.00029797      -0.00006075       0.00004881
I        9.01432274      16.58928162       5.64316506       34       0.00002346      -0.00005355      -0.00005272
I       10.83663735      12.07070055       5.64280865       35       0.00009465       0.00004327       0.00002935
I        9.20774890      19.29341396       9.28081624       36       0.00034931       0.00002840      -0.00005856
I       14.84600818      13.68797994       6.73117271       37       0.00000150      -0.00028274       0.00007347
I       13.02418338      18.20570757       6.73168408       38       0.00001519       0.00014980      -0.00002518
I       11.03028305      14.77418320       9.28081309       39      -0.00024493       0.00028801      -0.00004627
Cs      18.39067421       9.86386487       3.09360660       40      -0.00027451      -0.00014274      -0.00002702
Cs      11.79939848       4.57956966       3.09359797       41      -0.00014205       0.00014976       0.00001856
Cs      12.75890321       2.33965400       9.28080810       42      -0.00024461       0.00002523      -0.00001778
Cs       2.52510285       6.09185293       9.28079974       43      -0.00021851       0.00037450       0.00002577
Pb       8.98444194       0.81831472      -0.00012286       44      -0.00033915      -0.00041693       0.00024228
Pb      15.57368688       6.10207162      12.37456924       45       0.00054058       0.00004910      -0.00017950
Pb       8.98444461       0.81819138       6.18732222       46      -0.00043544       0.00004668      -0.00022289
Pb      15.57366973       6.10217202       6.18703873       47       0.00069828      -0.00033490       0.00018524
I       12.65825536       7.55276381       0.54404194       48       0.00013269      -0.00006296       0.00003307
I       14.48061880       3.03419665       0.54438779       49      -0.00004759       0.00003804       0.00000399
I       18.29794203       1.94610580       3.09359119       50      -0.00067843       0.00002233       0.00005101
I       18.48992813       4.65143375      11.83044501       51       0.00016780      -0.00016885      -0.00011878
I       16.66815739       9.16921578      11.82992160       52      -0.00007410       0.00007460       0.00004386
I       16.47422986       6.46556929       3.09359765       53       0.00029692      -0.00006541       0.00001828
I       12.65827971       7.55277514       5.64316551       54       0.00001040      -0.00008726      -0.00005675
I       14.48059310       3.03418456       5.64280884       55       0.00008135       0.00006594       0.00002792
I       12.85170483      10.25690489       9.28081514       56       0.00034196       0.00001123      -0.00005185
I       18.48995986       4.65146110       6.73117201       57       0.00001653      -0.00025086       0.00007789
I       16.66813683       9.16919989       6.73168381       58       0.00002661       0.00012123      -0.00002379
I       14.67423741       5.73766965       9.28080790       59      -0.00024453       0.00029213      -0.00001606
Cs      23.15892349      19.66614137       3.09360720       60      -0.00027081      -0.00017701      -0.00003114
Cs      16.56764667      14.38183774       3.09359925       61      -0.00013795       0.00015852       0.00001036
Cs      17.52715279      12.14191851       9.28080754       62      -0.00025512       0.00005348      -0.00001517
Cs       7.29335099      15.89412467       9.28079849       63      -0.00021006       0.00036434       0.00003245
Pb      13.75266223      10.62053711      -0.00012628       64      -0.00015954      -0.00020084       0.00027071
Pb      20.34195847      15.90436053      12.37457233       65       0.00037714      -0.00003167      -0.00020238
Pb      13.75266862      10.62043358       6.18732717       66      -0.00026412       0.00018341      -0.00026194
Pb      20.34194039      15.90446504       6.18703533       67       0.00054369      -0.00043300       0.00020879
I       17.42649052      17.35501431       0.54404434       68       0.00022315       0.00002691       0.00001275
I       19.24885663      12.83646827       0.54438970       69       0.00004161       0.00002328      -0.00001194
I       23.06618772      11.74837600       3.09359178       70      -0.00065039       0.00001902       0.00004679
I       23.25817248      14.45371023      11.83044610       71       0.00021643      -0.00019937      -0.00012942
I       21.43639632      18.97146715      11.82992426       72      -0.00001073       0.00016021       0.00002338
I       21.24247302      16.26783376       3.09359175       73       0.00033774      -0.00004234       0.00005183
I       17.42651729      17.35503142       5.64316301       74       0.00008968      -0.00002125      -0.00003726
I       19.24883044      12.83644963       5.64280611       75       0.00016914       0.00007806       0.00004750
I       17.61994685      20.05916746       9.28081607       76       0.00038896       0.00004424      -0.00005858
I       23.25820347      14.45373063       6.73117078       77       0.00006528      -0.00025384       0.00008839
I       21.43637575      18.97145533       6.73168153       78       0.00009224       0.00018924      -0.00000703
I       19.44248138      15.53993631       9.28081367       79      -0.00020720       0.00030515      -0.00005006
