5
Lattice="6.120171279969641 -1.7894910043863694 0.3647274895666042 1.8129804532471856 6.1054586387199725 -0.48482510489012914 -0.2131677215891777 0.5668105175814 6.35839362785539" Properties=species:S:1:pos:R:3:spacegroup_kinds:I:1:forces:R:3 spacegroup="P 1" unit_cell=conventional occupancy="_JSON {\"0\": {\"Cs\": 1.0}, \"1\": {\"Pb\": 1.0}, \"2\": {\"I\": 1.0}, \"3\": {\"I\": 1.0}, \"4\": {\"I\": 1.0}}" energy=-13.980742151616354 free_energy=-13.980742151616354 stress="-5.135938935973682e-06 8.233326943708271e-07 -1.5875224797444634e-06 8.233326943708271e-07 9.55920137268936e-06 -4.8270815510142e-06 -1.5875224797444634e-06 -4.8270815510142e-06 4.7353624060746e-06" pbc="T T T"
Cs       3.86062010       2.44078295       3.11916500        0       0.00005376      -0.00005000      -0.00000572
Pb       6.12011438      -1.78944023       0.36477302        1       0.00010181      -0.00007685      -0.00012472
I       -0.10689636       0.28372402       3.17905531        2      -0.00000221       0.00002156       0.00021569
I        3.06009809      -0.89468278       0.18237285        3      -0.00016015       0.00005866      -0.00004346
I        0.90630935       3.05281457      -0.24233174        4       0.00000679       0.00004663      -0.00004179
