10
Lattice="8.512326304502464 0.02909436207803407 -0.2759498177007504 -4.1596317453327645 9.065735604312112 0.03600069221362012 -1.1514303737345537 -2.185801159110682 9.05571690400962" Properties=species:S:1:pos:R:3:spacegroup_kinds:I:1:forces:R:3 spacegroup="P 1" unit_cell=conventional occupancy="_JSON {\"0\": {\"Cs\": 1.0}, \"1\": {\"Cs\": 1.0}, \"2\": {\"K\": 1.0}, \"3\": {\"In\": 1.0}, \"4\": {\"I\": 1.0}, \"5\": {\"I\": 1.0}, \"6\": {\"I\": 1.0}, \"7\": {\"I\": 1.0}, \"8\": {\"I\": 1.0}, \"9\": {\"I\": 1.0}}" energy=-25.303428231871454 free_energy=-25.303428231871454 stress="-1.1659904928624186e-06 -4.970526567131632e-07 1.0843964584174117e-06 -4.970526567131632e-07 1.271456537919604e-06 2.1503318602422183e-06 1.0843964584174117e-06 2.1503318602422183e-06 5.842203041076421e-07" pbc="T T T"
Cs       1.86799736       5.56459068       8.48842458        0      -0.00002335       0.00000331       0.00001455
Cs      -2.66138158       1.91190956       8.74627045        1      -0.00005154      -0.00006457      -0.00010431
K        0.53261934      -0.95425697       4.78813411        2       0.00000060      -0.00005319      -0.00018943
In       2.93535232       1.38169516       0.15078459        3       0.00037024      -0.00039832       0.00016475
I        2.86604300       3.56857456      -1.59068987        4       0.00003652       0.00020476      -0.00030479
I       -4.59933857       8.45144391      10.89970875        5      -0.00014608      -0.00007251       0.00019179
I        1.67200370      -3.05512061       7.55118984        6      -0.00006867       0.00010584       0.00007067
I        5.20865556       1.26007717       1.67587245        7      -0.00013148      -0.00002698      -0.00009231
I       -3.39090610       5.98478459       2.24701287        8       0.00004892       0.00011622       0.00012537
I       -2.57600247      -0.79392323       6.19990847        9      -0.00003517       0.00018544       0.00012372
