80
Lattice="19.677426971449645 1.327284116721475 -0.3395734795509595 -9.107057364532439 16.700558688024913 -0.41661143802850387 -7.328464739262071 2.4210919077866975 13.692218197979797" Properties=species:S:1:pos:R:3:spacegroup_kinds:I:1:forces:R:3 spacegroup="P 1" unit_cell=conventional occupancy="_JSON {\"0\": {\"Cs\": 1.0}, \"1\": {\"Cs\": 1.0}, \"2\": {\"Cs\": 1.0}, \"3\": {\"Cs\": 1.0}, \"4\": {\"Pb\": 1.0}, \"5\": {\"Pb\": 1.0}, \"6\": {\"Pb\": 1.0}, \"7\": {\"Pb\": 1.0}, \"8\": {\"I\": 1.0}, \"9\": {\"I\": 1.0}, \"10\": {\"I\": 1.0}, \"11\": {\"I\": 1.0}, \"12\": {\"I\": 1.0}, \"13\": {\"I\": 1.0}, \"14\": {\"I\": 1.0}, \"15\": {\"I\": 1.0}, \"16\": {\"I\": 1.0}, \"17\": {\"I\": 1.0}, \"18\": {\"I\": 1.0}, \"19\": {\"I\": 1.0}, \"20\": {\"Cs\": 1.0}, \"21\": {\"Cs\": 1.0}, \"22\": {\"Cs\": 1.0}, \"23\": {\"Cs\": 1.0}, \"24\": {\"Pb\": 1.0}, \"25\": {\"Pb\": 1.0}, \"26\": {\"Pb\": 1.0}, \"27\": {\"Pb\": 1.0}, \"28\": {\"I\": 1.0}, \"29\": {\"I\": 1.0}, \"30\": {\"I\": 1.0}, \"31\": {\"I\": 1.0}, \"32\": {\"I\": 1.0}, \"33\": {\"I\": 1.0}, \"34\": {\"I\": 1.0}, \"35\": {\"I\": 1.0}, \"36\": {\"I\": 1.0}, \"37\": {\"I\": 1.0}, \"38\": {\"I\": 1.0}, \"39\": {\"I\": 1.0}, \"40\": {\"Cs\": 1.0}, \"41\": {\"Cs\": 1.0}, \"42\": {\"Cs\": 1.0}, \"43\": {\"Cs\": 1.0}, \"44\": {\"Pb\": 1.0}, \"45\": {\"Pb\": 1.0}, \"46\": {\"Pb\": 1.0}, \"47\": {\"Pb\": 1.0}, \"48\": {\"I\": 1.0}, \"49\": {\"I\": 1.0}, \"50\": {\"I\": 1.0}, \"51\": {\"I\": 1.0}, \"52\": {\"I\": 1.0}, \"53\": {\"I\": 1.0}, \"54\": {\"I\": 1.0}, \"55\": {\"I\": 1.0}, \"56\": {\"I\": 1.0}, \"57\": {\"I\": 1.0}, \"58\": {\"I\": 1.0}, \"59\": {\"I\": 1.0}, \"60\": {\"Cs\": 1.0}, \"61\": {\"Cs\": 1.0}, \"62\": {\"Cs\": 1.0}, \"63\": {\"Cs\": 1.0}, \"64\": {\"Pb\": 1.0}, \"65\": {\"Pb\": 1.0}, \"66\": {\"Pb\": 1.0}, \"67\": {\"Pb\": 1.0}, \"68\": {\"I\": 1.0}, \"69\": {\"I\": 1.0}, \"70\": {\"I\": 1.0}, \"71\": {\"I\": 1.0}, \"72\": {\"I\": 1.0}, \"73\": {\"I\": 1.0}, \"74\": {\"I\": 1.0}, \"75\": {\"I\": 1.0}, \"76\": {\"I\": 1.0}, \"77\": {\"I\": 1.0}, \"78\": {\"I\": 1.0}, \"79\": {\"I\": 1.0}}" energy=-221.8830894619416 free_energy=-221.8830894619416 stress="1.2045180259188265e-06 -1.7698341764945072e-06 8.040438583980742e-06 -1.7698341764945072e-06 -2.731581233167025e-06 4.4657292161054424e-06 8.040438583980742e-06 4.4657292161054424e-06 1.138252004681677e-06" pbc="T T T"
Cs      -0.04100363       9.05115631       2.20193624        0       0.00011628       0.00004195       0.00002773
Cs      -5.43100890       4.76992978       2.80187833        1       0.00009988       0.00000718       0.00002331
Cs       1.44268825       1.56349661       8.47762935        2       0.00003697       0.00010417      -0.00023870
Cs       2.67491387       8.05226724      11.64823978        3       0.00008820       0.00021055      -0.00006263
Pb      -0.34359212       0.42794242       0.49091740        4       0.00027720      -0.00034785      -0.00035735
Pb      -0.83985742       4.56418521       3.20346085        5       0.00000044      -0.00015834       0.00010995
Pb      -3.37493765       0.24216617       7.05579115        6       0.00007510      -0.00015307       0.00026287
Pb      -2.02082896       5.16205740       7.74585026        7       0.00041726       0.00009241       0.00026728
I       -2.40786070       6.56038474       0.73074155        8      -0.00028681      -0.00030508      -0.00009168
I        1.52061580       3.14176498       1.48491975        9      -0.00005336       0.00025796       0.00003230
I        7.18360853       3.15012161       1.28722849       10       0.00046615      -0.00013614       0.00002099
I        2.28576458       4.23378609      11.12263072       11      -0.00004477      -0.00004862      -0.00018231
I       -4.65138044       9.75634626      13.54445571       12      -0.00034435      -0.00005092       0.00006517
I        1.41447288       6.50203091       4.63457825       13       0.00023644       0.00006168       0.00014348
I       -2.85326313       6.46943300       5.05881010       14      -0.00014982       0.00000793      -0.00016032
I       -1.03041678       2.49828070       5.55370675       15       0.00005167       0.00005657      -0.00019307
I       -7.05564252      10.47853278       9.18869004       16      -0.00005556       0.00013790      -0.00017084
I        4.27269483       2.64234243       5.81867552       17       0.00009946      -0.00025518       0.00025651
I        0.01719783       7.58435391       8.66265183       18      -0.00023662      -0.00008041      -0.00020979
I       -4.43932805       6.38370885       9.03359200       19       0.00008687       0.00020322       0.00001458
Cs      -4.59565571      17.40126986       1.99327024       20      -0.00004685       0.00003268       0.00000325
Cs      -9.98391547      13.12026072       2.59284512       21      -0.00011366      -0.00001317      -0.00012416
Cs      -3.11006917       9.91299808       8.26827531       22       0.00001672       0.00001255       0.00009534
Cs      -1.87852315      16.40300279      11.43971816       23       0.00004869      -0.00022375      -0.00010330
Pb      -4.89670187       8.77802420       0.28154288       24      -0.00019165       0.00002615       0.00006227
Pb      -5.39225588      12.91415092       2.99545883       25      -0.00025458      -0.00006069       0.00022237
Pb      -7.92777094       8.59128911       6.84835538       26       0.00017440      -0.00000776      -0.00034572
Pb      -6.57338345      13.51246774       7.53810035       27       0.00023934      -0.00009487      -0.00021136
I       -6.96247641      14.90987534       0.52222563       28       0.00016899       0.00014017       0.00009826
I       -3.03208494      11.49167746       1.27613771       29      -0.00033238       0.00003439      -0.00018170
I        2.63138631      11.50042015       1.07911944       30      -0.00019185       0.00009368       0.00016829
I       -2.27003271      12.58441880      10.91310311       31       0.00021337       0.00019086       0.00011601
I       -9.20591815      18.10703450      13.33558728       32      -0.00022684      -0.00029785      -0.00010476
I       -3.13801957      14.85339878       4.42557094       33       0.00021073      -0.00018602       0.00042819
I       -7.40618067      14.81880030       4.85058267       34       0.00012287       0.00002380       0.00028851
I       -5.58260249      10.84871533       5.34554324       35       0.00000911       0.00010830      -0.00001273
I      -11.60999251      18.82968332       8.98016233       36       0.00002436      -0.00017295       0.00006262
I       -0.27965534      10.99217392       5.61052786       37      -0.00039802       0.00029240      -0.00001160
I       -4.53677298      15.93549265       8.45436987       38       0.00003948      -0.00019373      -0.00024475
I       -8.99162581      14.73432126       8.82594369       39      -0.00033018      -0.00004279       0.00016241
Cs       9.79714148       9.71444773       2.03309126       40       0.00002598      -0.00008417       0.00018604
Cs       4.40789282       5.43377712       2.63191645       41       0.00004446      -0.00001285      -0.00021164
Cs      11.28141554       2.22697928       8.30798148       42      -0.00010190       0.00013663      -0.00026000
Cs      12.51431386       8.71564027      11.47865964       43       0.00010111       0.00015110      -0.00017101
Pb       9.49534483       1.09166013       0.32070600       44      -0.00018863       0.00037246       0.00011516
Pb       8.99900834       5.22757588       3.03400358       45      -0.00020737       0.00012512      -0.00025157
Pb       6.46392100       0.90530411       6.88570685       46      -0.00042540       0.00001801      -0.00033290
Pb       7.81835398       5.82576851       7.57637158       47      -0.00014405      -0.00008962      -0.00005637
I        7.43036057       7.22416383       0.56095710       48      -0.00010711      -0.00014419      -0.00012749
I       11.35909653       3.80557539       1.31513126       49       0.00041975       0.00003148      -0.00015650
I       17.02244324       3.81357603       1.11740535       50      -0.00004756       0.00028376       0.00011970
I       12.12377015       4.89718411      10.95316003       51      -0.00006211       0.00007576       0.00003171
I        5.18680715      10.41953692      13.37522230       52       0.00007566       0.00032231      -0.00007947
I       11.25328048       7.16531370       4.46559540       53       0.00018750       0.00015131      -0.00001607
I        6.98545829       7.13283660       4.88931886       54      -0.00019667       0.00020897       0.00015295
I        8.80864921       3.16170586       5.38366677       55       0.00006302      -0.00021400       0.00027064
I        2.78309708      11.14218983       9.01815335       56      -0.00010086      -0.00005416      -0.00008023
I       14.11126633       3.30654671       5.64956364       57      -0.00018221      -0.00003737      -0.00016082
I        9.85578141       8.24815617       8.49320479       58      -0.00012721      -0.00008737       0.00043525
I        5.39969880       7.04678452       8.86444069       59       0.00049284       0.00020664      -0.00021676
Cs       5.24301850      18.06526493       1.82402698       60      -0.00002492      -0.00010143       0.00019908
Cs      -0.14534259      13.78413249       2.42205835       61       0.00002713      -0.00001349       0.00010847
Cs       6.72841829      10.57617169       8.09852302       62      -0.00005425       0.00008533       0.00005591
Cs       7.96042396      17.06587824      11.26991540       63      -0.00000939       0.00011304      -0.00014425
Pb       4.94230115       9.44231003       0.11147953       64       0.00016482      -0.00034245      -0.00023395
Pb       4.44643951      13.57791990       2.82589487       65       0.00028995      -0.00000404      -0.00015136
Pb       1.91096855       9.25478432       6.67767406       66       0.00011938      -0.00019923       0.00050174
Pb       3.26564457      14.17607473       7.36833649       67      -0.00021912       0.00001515      -0.00021094
I        2.87633812      15.57430894       0.35254697       68       0.00006973      -0.00002347      -0.00013365
I        6.80671374      12.15554697       1.10628122       69      -0.00016857       0.00038602       0.00009549
I       12.46984724      12.16320700       0.91038326       70       0.00014559      -0.00011388      -0.00028010
I        7.56839759      13.24745357      10.74365219       71       0.00010686       0.00015030       0.00006920
I        0.63265878      18.77041659      13.16659177       72       0.00002008      -0.00003232       0.00004624
I        6.70081170      15.51732883       4.25637827       73      -0.00034775      -0.00034306       0.00016016
I        2.43220841      15.48211050       4.68074192       74       0.00015321      -0.00001340       0.00035627
I        4.25640431      11.51211378       5.17531104       75      -0.00007067      -0.00008133      -0.00003044
I       -1.77112632      19.49296510       8.80977005       76       0.00002965       0.00000759       0.00052645
I        9.55894475      11.65607184       5.44155231       77      -0.00010654       0.00004130       0.00002916
I        5.30161074      16.59933159       8.28473445       78       0.00044846      -0.00012397      -0.00011791
I        0.84742526      15.39770451       8.65642345       79      -0.00015559      -0.00007378       0.00003887
