20
Lattice="11.877215822539124 2.5949632905966493 -3.05030229661629 -3.2495235458648093 12.023737623465122 -1.395226770378197 1.3619459244563037 1.0914522829666247 6.231826513998633" Properties=species:S:1:pos:R:3:spacegroup_kinds:I:1:forces:R:3 spacegroup="P 1" unit_cell=conventional occupancy="_JSON {\"0\": {\"Cs\": 1.0}, \"1\": {\"Pb\": 1.0}, \"2\": {\"I\": 1.0}, \"3\": {\"I\": 1.0}, \"4\": {\"I\": 1.0}, \"5\": {\"Cs\": 1.0}, \"6\": {\"Pb\": 1.0}, \"7\": {\"I\": 1.0}, \"8\": {\"I\": 1.0}, \"9\": {\"I\": 1.0}, \"10\": {\"Cs\": 1.0}, \"11\": {\"Pb\": 1.0}, \"12\": {\"I\": 1.0}, \"13\": {\"I\": 1.0}, \"14\": {\"I\": 1.0}, \"15\": {\"Cs\": 1.0}, \"16\": {\"Pb\": 1.0}, \"17\": {\"I\": 1.0}, \"18\": {\"I\": 1.0}, \"19\": {\"I\": 1.0}}" energy=-56.27544786069779 free_energy=-56.27544786069779 stress="1.3148458516540137e-06 4.613888959415626e-07 -1.3363896527111405e-07 4.613888959415626e-07 5.0531311551227774e-08 1.180288080317871e-07 -1.3363896527111405e-07 1.180288080317871e-07 1.0150196740533064e-06" pbc="T T T"
Cs       2.83127907       3.09859464       2.19855841        0      -0.00021307      -0.00069016       0.00005310
Pb      -0.29156792      -0.52685730       0.15491166        1      -0.00016017       0.00053739       0.00020914
I       10.69049826       8.50242736      -0.46563880        2       0.00051311       0.00041548       0.00013848
I        2.90629817      -0.56364111      -0.53711502        3       0.00006254      -0.00015216       0.00020263
I       -0.11828216       2.63820687      -0.43747297        4       0.00037854       0.00027904       0.00042958
Cs       0.43997572       9.58762496       1.58514599        5      -0.00021098       0.00040205       0.00002287
Pb      -1.76711053       5.39230687      -0.55792878        6      -0.00021754       0.00026725      -0.00025361
I        9.03932791      14.53085251      -1.16064953        7      -0.00001019      -0.00000941       0.00016827
I        0.88381446       7.01382013      -1.42083668        8      -0.00021204       0.00001271      -0.00023767
I       -3.27807142       8.28973213      -0.73535256        9       0.00043003       0.00008169      -0.00001818
Cs       7.99442738       4.87243416       0.75947092       10       0.00080110       0.00006668      -0.00017764
Pb       5.79517259       0.68069093      -1.38550999       11       0.00031640      -0.00024923      -0.00003436
I        4.72303371       7.22849353       1.06318900       12      -0.00042393      -0.00024988      -0.00021072
I        8.44646041       2.29987753      -2.24905148       13      -0.00020030       0.00027641      -0.00011348
I        4.28545962       3.57890867      -1.56253733       14      -0.00016416      -0.00030895      -0.00007361
Cs       7.15023698      10.40557377      -0.02357187       15      -0.00032531       0.00021486       0.00009113
Pb       4.02231407       6.78734882      -2.06685534       16       0.00018533      -0.00041843       0.00000928
I        3.12290810      13.21939069       0.36329391       17      -0.00009151      -0.00012102      -0.00002127
I        7.22044014       6.74579346      -2.76001355       18       0.00017640      -0.00012281       0.00018858
I        4.19812475       9.95174981      -2.65843590       19      -0.00063428      -0.00023151      -0.00037253
