10
Lattice="12.774135559927005 -3.1307605257176e-09 3.7680612958612956e-17 -1.5653802625746558e-09 6.387067779963598 2.715805681200527e-16 1.8947438398977195e-17 2.7147872829256826e-16 6.387067779232201" Properties=species:S:1:pos:R:3:spacegroup_kinds:I:1:forces:R:3 spacegroup="P 1" unit_cell=conventional occupancy="_JSON {\"0\": {\"Cs\": 1.0}, \"1\": {\"Pb\": 1.0}, \"2\": {\"I\": 1.0}, \"3\": {\"I\": 1.0}, \"4\": {\"I\": 1.0}, \"5\": {\"Cs\": 1.0}, \"6\": {\"Pb\": 1.0}, \"7\": {\"I\": 1.0}, \"8\": {\"I\": 1.0}, \"9\": {\"I\": 1.0}}" energy=-27.9614848590711 free_energy=-27.9614848590711 stress="1.7237694899740748e-07 -1.6256006903540643e-11 2.4997422645997693e-18 -1.6256006903540643e-11 1.7237694845068188e-07 3.812946432075932e-18 2.4997422645997693e-18 3.812946432075932e-18 1.7243689865488733e-07" pbc="T T T"
Cs       3.19373181       3.19333596       3.19353389        0       0.00001153      -0.00001153      -0.00000000
Pb       0.00000384      -0.00000384      -0.00000000        1       0.00001987      -0.00001987      -0.00000000
I       -0.00002245       0.00002245       3.19353389        2      -0.00000553       0.00000553       0.00000000
I        3.19354832       0.00002245       0.00000000        3      -0.00002033       0.00000553       0.00000000
I       -0.00002245       3.19351946       0.00000000        4      -0.00000553       0.00002033       0.00000000
Cs       9.58079959       3.19333596       3.19353389        5       0.00001153      -0.00001153      -0.00000000
Pb       6.38707162      -0.00000384      -0.00000000        6       0.00001987      -0.00001987      -0.00000000
I        6.38704533       0.00002245       3.19353389        7      -0.00000553       0.00000553       0.00000000
I        9.58061610       0.00002245       0.00000000        8      -0.00002033       0.00000553       0.00000000
I        6.38704533       3.19351946       0.00000000        9      -0.00000553       0.00002033       0.00000000
