20
Lattice="17.891715385564677 -5.003540800861848 0.80282921498208 -2.2768363803027714 8.93571454389907 -1.1927453728200772 -0.0764445431467859 1.1493930905353393 8.753771428254394" Properties=species:S:1:pos:R:3:spacegroup_kinds:I:1:forces:R:3 spacegroup="P 1" unit_cell=conventional occupancy="_JSON {\"0\": {\"Cs\": 1.0}, \"1\": {\"Cs\": 1.0}, \"2\": {\"K\": 1.0}, \"3\": {\"In\": 1.0}, \"4\": {\"I\": 1.0}, \"5\": {\"I\": 1.0}, \"6\": {\"I\": 1.0}, \"7\": {\"I\": 1.0}, \"8\": {\"I\": 1.0}, \"9\": {\"I\": 1.0}, \"10\": {\"Cs\": 1.0}, \"11\": {\"Cs\": 1.0}, \"12\": {\"K\": 1.0}, \"13\": {\"In\": 1.0}, \"14\": {\"I\": 1.0}, \"15\": {\"I\": 1.0}, \"16\": {\"I\": 1.0}, \"17\": {\"I\": 1.0}, \"18\": {\"I\": 1.0}, \"19\": {\"I\": 1.0}}" energy=-51.587630437370585 free_energy=-51.587630437370585 stress="-1.3493325666670638e-06 1.9767471502423736e-06 -9.096778020196171e-06 1.9767471502423736e-06 8.895880930420682e-08 4.143214650249124e-08 -9.096778020196171e-06 4.143214650249124e-08 5.298590279452984e-06" pbc="T T T"
Cs       1.87339241       6.77826862       8.02400417        0      -0.00063900      -0.00015645       0.00026386
Cs       5.61284408       2.96814102       8.56659283        1       0.00009461       0.00028406      -0.00011969
K        0.44638100       1.08160603       4.31428137        2       0.00022046       0.00000774      -0.00000659
In       0.48489656       0.50696378      -0.06261521        3       0.00042313      -0.00000015      -0.00006345
I        2.21581070       2.42617876       1.48185313        4       0.00009666      -0.00003410      -0.00039155
I        5.34643303       6.17109194       6.35511784        5       0.00013145       0.00002086       0.00064920
I        2.77023284       0.77335681       7.04534032        6      -0.00045775       0.00019580       0.00005977
I        7.06896637      -1.11222312       1.98455862        7       0.00035722       0.00009538       0.00007981
I       16.68548820       2.32695497       1.61152050        8       0.00042206      -0.00018425      -0.00028218
I       -0.17719194       3.76863548       6.62700436        9      -0.00039301      -0.00027019       0.00040877
Cs      10.81918281       4.27643039       8.42563137       10      -0.00044621       0.00006729      -0.00000559
Cs      14.55847423       0.46653978       8.96794617       11       0.00058223       0.00001221       0.00001101
K        9.39223314      -1.42019760       4.71573050       12       0.00012660       0.00006937      -0.00018519
In       9.43084940      -1.99483907       0.33886311       13      -0.00031939      -0.00018641      -0.00022886
I       11.16171789      -0.07550146       1.88323812       14       0.00000749      -0.00026208       0.00000888
I       14.29247748       3.66922536       6.75685050       15      -0.00023331       0.00000738       0.00003556
I       11.71587717      -1.72814990       7.44660401       16       0.00007653      -0.00020445       0.00011436
I       16.01483017      -3.61399360       2.38593301       17       0.00006697       0.00040022      -0.00006126
I        7.73982395       4.82842724       1.20987331       18       0.00015646       0.00044215      -0.00000337
I        8.76855823       1.26696769       7.02881582       19      -0.00027322      -0.00030438      -0.00028349
