10
Lattice="8.833520254637877 0.0 0.0 -2.2003216758119146 7.593254095754956 0.0 -1.083121316398389 3.002432053736098 7.756283498239212" Properties=species:S:1:pos:R:3 pbc="T T T"
Cs       5.35575259       5.53670544       7.74895025
Cs       2.75889062       5.07100186       0.00724649
K        0.74072625       1.50722102       3.87814372
In       1.28229640       0.00600891       0.00002436
I        7.58431941       0.61185302       1.55151497
I        0.53031602       9.99581822       6.20478692
I        2.80885749       2.59509867       1.55152367
I        5.30581552       8.01262922       6.20479563
I        8.27042458       6.20608060       1.55151146
I       -0.15578167       4.40163815       6.20478342
