10
Lattice="9.165669462340084 -1.2711091377126391 0.9207907744930919 -3.354085272107816 8.47064106964988 -1.8551369562029152 -0.6387739688654657 1.641541800740283 8.651740694162656" Properties=species:S:1:pos:R:3:spacegroup_kinds:I:1:forces:R:3 spacegroup="P 1" unit_cell=conventional occupancy="_JSON {\"0\": {\"Cs\": 1.0}, \"1\": {\"Cs\": 1.0}, \"2\": {\"K\": 1.0}, \"3\": {\"In\": 1.0}, \"4\": {\"I\": 1.0}, \"5\": {\"I\": 1.0}, \"6\": {\"I\": 1.0}, \"7\": {\"I\": 1.0}, \"8\": {\"I\": 1.0}, \"9\": {\"I\": 1.0}}" energy=-25.793813115149142 free_energy=-25.793813115149142 stress="2.2658606097421312e-06 4.761629144176871e-06 3.862354218823206e-06 4.761629144176871e-06 -3.341164928124253e-06 6.311190879266113e-07 3.862354218823206e-06 6.311190879266113e-07 4.782556201219172e-06" pbc="T T T"
Cs       5.68099340       3.44587734       8.81302532        0      -0.00037751      -0.00007802      -0.00005883
Cs       2.15124029       5.03907434      -0.83079987        1       0.00012045       0.00007042       0.00006045
K        1.01071391       0.64289146       4.45808563        2      -0.00049415      -0.00007127       0.00020324
In       1.32955138      -0.17820307       0.13233602        3      -0.00016377       0.00025741       0.00020402
I        7.96050739      -0.80882436       2.54633758        4       0.00031472       0.00016689       0.00071367
I        3.22530212       0.82334064       7.29072277        5       0.00049004      -0.00052895      -0.00024587
I        2.70811924       2.05072831       1.61435942        6       0.00032249       0.00057204      -0.00009599
I        5.12395473       6.43387520       6.36796309        7      -0.00014460      -0.00012466      -0.00047726
I       -1.25295238       6.40758522       0.49479384        8       0.00006455      -0.00018256      -0.00019648
I       -0.08061457       3.34855933       6.56674382        9      -0.00013222      -0.00008130      -0.00010695
