20
Lattice="18.599217795494837 -0.1149941872380143 -0.010943631398578253 -4.600859502803346 8.081134140310235 0.004630810164005958 -0.005279630196472687 0.002097620900070643 8.828159236336134" Properties=species:S:1:pos:R:3:spacegroup_kinds:I:1:forces:R:3 spacegroup="P 1" unit_cell=conventional occupancy="_JSON {\"0\": {\"Cs\": 1.0}, \"1\": {\"Cs\": 1.0}, \"2\": {\"K\": 1.0}, \"3\": {\"In\": 1.0}, \"4\": {\"I\": 1.0}, \"5\": {\"I\": 1.0}, \"6\": {\"I\": 1.0}, \"7\": {\"I\": 1.0}, \"8\": {\"I\": 1.0}, \"9\": {\"I\": 1.0}, \"10\": {\"Cs\": 1.0}, \"11\": {\"Cs\": 1.0}, \"12\": {\"K\": 1.0}, \"13\": {\"In\": 1.0}, \"14\": {\"I\": 1.0}, \"15\": {\"I\": 1.0}, \"16\": {\"I\": 1.0}, \"17\": {\"I\": 1.0}, \"18\": {\"I\": 1.0}, \"19\": {\"I\": 1.0}}" energy=-51.587618532843265 free_energy=-51.587618532843265 stress="1.6344966203938422e-06 -2.315368787027065e-06 -1.2734829851353759e-05 -2.315368787027065e-06 1.3361524390575974e-06 6.129502063095802e-06 -1.2734829851353759e-05 6.129502063095802e-06 -4.04838844635004e-06" pbc="T T T"
Cs       4.36602310       2.66016191       0.02267887        0       0.00014073       0.00014016       0.00001682
Cs      -0.27231260       5.37706520       8.80499121        1      -0.00012171      -0.00006859      -0.00002415
K       18.29669753      -0.10818375       4.40327717        2      -0.00001432      -0.00006183       0.00016502
In      18.29937051      -0.10915749      -0.01071372        3      -0.00014645      -0.00045850      -0.00040551
I       17.10722559       2.01762378       1.75562518        4      -0.00041210       0.00036661       0.00011527
I        5.58576142       5.90450482       7.06107180        5       0.00016561       0.00012185       0.00012733
I        0.94007447       2.10427770       7.06215038        6       0.00005186      -0.00010322      -0.00015920
I        3.15365041       5.93299777       1.76555668        7      -0.00006189       0.00006036       0.00001825
I       -2.46264516       8.05582309       1.77100194        8      -0.00010024       0.00003108       0.00002373
I        6.55626662      -0.01858020       7.05665702        9       0.00049852      -0.00002793       0.00012245
Cs      13.66563200       2.60266482       0.01720706       10       0.00014073       0.00014016       0.00001682
Cs       9.02729629       5.31956810       8.79951939       11      -0.00012171      -0.00006859      -0.00002415
K        8.99708863      -0.05068666       4.40874899       12      -0.00001432      -0.00006183       0.00016502
In       8.99976162      -0.05166040      -0.00524190       13      -0.00014645      -0.00045850      -0.00040551
I        7.80761669       2.07512087       1.76109699       14      -0.00041210       0.00036661       0.00011527
I       14.88537032       5.84700772       7.05559998       15       0.00016561       0.00012185       0.00012733
I       10.23968337       2.04678060       7.05667856       16       0.00005186      -0.00010322      -0.00015920
I       12.45325931       5.87550068       1.76008486       17      -0.00006189       0.00006036       0.00001825
I        6.83696374       7.99832600       1.76553012       18      -0.00010024       0.00003108       0.00002373
I       15.85587552      -0.07607730       7.05118520       19       0.00049852      -0.00002793       0.00012245
