20
Lattice="18.046592345393876 0.0 0.0 -4.416858329557208 7.650223036626888 0.0 0.0 0.0 8.387187408238924" Properties=species:S:1:pos:R:3 pbc="T T T"
Cs       4.25229956       2.55377703       0.02669242
Cs      -0.22775194       5.10385138       8.36046667
K       -0.29094048       0.00370786       4.19359261
In      -0.29094658       0.00370480       0.00000983
I       -1.43376768       2.01809690       1.67779150
I        5.45831282       5.63955215       6.70939686
I        0.93185617       2.00096596       6.70940318
I        3.09268761       5.65664600       1.67779782
I       -2.34217731       7.63681348       1.67779407
I        6.36672813       0.02081524       6.70939943
Cs      13.27559574       2.55377703       0.02669242
Cs       8.79554424       5.10385138       8.36046667
K        8.73235570       0.00370786       4.19359261
In       8.73234959       0.00370480       0.00000983
I        7.58952849       2.01809690       1.67779150
I       14.48160899       5.63955215       6.70939686
I        9.95515234       2.00096596       6.70940318
I       12.11598378       5.65664600       1.67779782
I        6.68111886       7.63681348       1.67779407
I       15.39002430       0.02081524       6.70939943
