10
Lattice="12.153975794307515 2.6833044862661533 -2.936517995296078 -1.5494532406877388 6.15868516604545 -0.7842924148105588 1.2742807666300617 1.0137255476487688 6.201857587058888" Properties=species:S:1:pos:R:3:spacegroup_kinds:I:1:forces:R:3 spacegroup="P 1" unit_cell=conventional occupancy="_JSON {\"0\": {\"Cs\": 1.0}, \"1\": {\"Pb\": 1.0}, \"2\": {\"I\": 1.0}, \"3\": {\"I\": 1.0}, \"4\": {\"I\": 1.0}, \"5\": {\"Cs\": 1.0}, \"6\": {\"Pb\": 1.0}, \"7\": {\"I\": 1.0}, \"8\": {\"I\": 1.0}, \"9\": {\"I\": 1.0}}" energy=-27.968838547268028 free_energy=-27.968838547268028 stress="7.388948966857121e-06 1.0765671661479594e-06 -3.5305444175813174e-06 1.0765671661479594e-06 8.3249697403349e-07 5.88087394144805e-07 -3.5305444175813174e-06 5.88087394144805e-07 2.319369713502522e-06" pbc="T T T"
Cs       2.75449958       3.51268472       2.47757305        0      -0.00014405      -0.00019482       0.00009807
Pb      -0.25687627      -0.62068506       0.16394321        1       0.00000698      -0.00039895      -0.00023920
I       10.94343197       8.84580363      -0.52007069        2       0.00012573       0.00000291       0.00006701
I        2.75288328       0.03641405      -0.70260104        3      -0.00003414      -0.00013710      -0.00011108
I       -1.06665690       2.45795066      -0.37371072        4       0.00022075       0.00007243       0.00003691
Cs       8.83113460       4.85359488       1.01008933        5      -0.00004873      -0.00001830      -0.00010207
Pb       5.82029025       0.71859994      -1.30547494        6       0.00054503       0.00045459       0.00028897
I        4.86714999       7.50101635       0.94794212        7      -0.00011265      -0.00012395      -0.00004599
I        8.83022108       1.37639620      -2.17117964        8      -0.00040228       0.00022721      -0.00000757
I        5.01136631       3.79787457      -1.84199331        9      -0.00015664       0.00011598       0.00001496
