10
Lattice="12.774122849074084 -2.9115234648200534e-08 5.629877177624622e-16 -1.4557617324289888e-08 6.387061424537167 3.505677539604448e-17 2.822526179343535e-16 3.4623304792647035e-17 6.387061421241159" Properties=species:S:1:pos:R:3:spacegroup_kinds:I:1:forces:R:3 spacegroup="P 1" unit_cell=conventional occupancy="_JSON {\"0\": {\"Cs\": 1.0}, \"1\": {\"Pb\": 1.0}, \"2\": {\"I\": 1.0}, \"3\": {\"I\": 1.0}, \"4\": {\"I\": 1.0}, \"5\": {\"Cs\": 1.0}, \"6\": {\"Pb\": 1.0}, \"7\": {\"I\": 1.0}, \"8\": {\"I\": 1.0}, \"9\": {\"I\": 1.0}}" energy=-27.961484861455784 free_energy=-27.961484861455784 stress="-1.2564655122872333e-07 -1.023759645144235e-10 3.691747015631925e-18 -1.023759645144235e-10 -1.256465519765459e-07 -9.190202233992146e-18 3.691747015631925e-18 -9.190202233992146e-18 -1.2562869485625795e-07" pbc="T T T"
Cs       3.19383610       3.19322531       3.19353071        0       0.00001198      -0.00001198      -0.00000000
Pb       0.00002039      -0.00002039      -0.00000000        1       0.00000168      -0.00000168      -0.00000000
I        0.00000987      -0.00000987       3.19353071        2      -0.00002019       0.00002019      -0.00000000
I        3.19353789      -0.00000988      -0.00000000        3       0.00002672       0.00002019       0.00000000
I        0.00000986       3.19352353      -0.00000000        4      -0.00002019      -0.00002672       0.00000000
Cs       9.58089752       3.19322529       3.19353071        5       0.00001198      -0.00001198      -0.00000000
Pb       6.38708182      -0.00002041      -0.00000000        6       0.00000168      -0.00000168      -0.00000000
I        6.38707130      -0.00000989       3.19353071        7      -0.00002019       0.00002019      -0.00000000
I        9.58059932      -0.00000989      -0.00000000        8       0.00002672       0.00002019       0.00000000
I        6.38707129       3.19352352      -0.00000000        9      -0.00002019      -0.00002672       0.00000000
