40
Lattice="18.425790840825577 -0.06568396779987157 -0.026347441818755205 9.161751041066358 14.825000271965765 0.38222908903363556 4.586675081145343 2.6402262181508007 7.519006890709001" Properties=species:S:1:pos:R:3:spacegroup_kinds:I:1:forces:R:3 spacegroup="P 1" unit_cell=conventional occupancy="_JSON {\"0\": {\"Cs\": 1.0}, \"1\": {\"Cs\": 1.0}, \"2\": {\"K\": 1.0}, \"3\": {\"In\": 1.0}, \"4\": {\"I\": 1.0}, \"5\": {\"I\": 1.0}, \"6\": {\"I\": 1.0}, \"7\": {\"I\": 1.0}, \"8\": {\"I\": 1.0}, \"9\": {\"I\": 1.0}, \"10\": {\"Cs\": 1.0}, \"11\": {\"Cs\": 1.0}, \"12\": {\"K\": 1.0}, \"13\": {\"In\": 1.0}, \"14\": {\"I\": 1.0}, \"15\": {\"I\": 1.0}, \"16\": {\"I\": 1.0}, \"17\": {\"I\": 1.0}, \"18\": {\"I\": 1.0}, \"19\": {\"I\": 1.0}, \"20\": {\"Cs\": 1.0}, \"21\": {\"Cs\": 1.0}, \"22\": {\"K\": 1.0}, \"23\": {\"In\": 1.0}, \"24\": {\"I\": 1.0}, \"25\": {\"I\": 1.0}, \"26\": {\"I\": 1.0}, \"27\": {\"I\": 1.0}, \"28\": {\"I\": 1.0}, \"29\": {\"I\": 1.0}, \"30\": {\"Cs\": 1.0}, \"31\": {\"Cs\": 1.0}, \"32\": {\"K\": 1.0}, \"33\": {\"In\": 1.0}, \"34\": {\"I\": 1.0}, \"35\": {\"I\": 1.0}, \"36\": {\"I\": 1.0}, \"37\": {\"I\": 1.0}, \"38\": {\"I\": 1.0}, \"39\": {\"I\": 1.0}}" energy=-102.59573388536167 free_energy=-102.59573388536167 stress="-2.835373896634955e-06 4.5003056689457146e-06 3.1233859606996182e-06 4.5003056689457146e-06 -1.7149819301516839e-06 -9.184877704663153e-07 3.1233859606996182e-06 -9.184877704663153e-07 4.52740030308562e-06" pbc="T T T"
Cs       4.58860328       2.68773457       1.87072139        0      -0.00000534      -0.00016665       0.00013446
Cs      13.79197872       7.33267625       5.82537169        1      -0.00006633      -0.00008368       0.00011511
K        9.19090652       5.00999194       3.84903304        2      -0.00058029      -0.00013749      -0.00028912
In      18.42564938      -0.06566117      -0.02605646        3       0.00043705      -0.00016809      -0.00027748
I        8.49237458       2.35333260       1.61710790        4      -0.00008202       0.00001898       0.00010293
I        9.88834041       7.66645375       6.08012675        5      -0.00011693       0.00049263       0.00029798
I       11.43880772       5.93801353       1.28184185        6       0.00056238       0.00003082      -0.00001230
I       25.36646005       4.01679053       6.38862404        7       0.00028161      -0.00008316       0.00006734
I        6.26763829       6.41062963       2.43134048        8      -0.00038554       0.00058688      -0.00052938
I       12.11284985       3.60798059       5.26552206        9      -0.00002063       0.00030705       0.00002822
Cs       9.16948507      10.10023376       2.06183957       10      -0.00002073      -0.00015239       0.00011459
Cs      18.37284965      14.74517197       6.01648402       11      -0.00006085      -0.00006506       0.00011445
K       13.77178347      12.42245254       4.04016966       12      -0.00057919       0.00007863      -0.00037780
In      23.00652727       7.34684613       0.16508501       13       0.00047555      -0.00015609      -0.00030459
I       13.07320808       9.76592661       1.80828066       14       0.00006693      -0.00038441      -0.00014083
I       14.46919110      15.07906314       6.27133631       15       0.00001894      -0.00005855      -0.00012286
I       16.01975795      13.35055424       1.47294609       16       0.00023877      -0.00017474       0.00009313
I       29.94744952      11.42933900       6.57963928       17      -0.00027495      -0.00041179       0.00042241
I       10.84838893      13.82319078       2.62230891       18       0.00011893       0.00026887       0.00010481
I       16.69369255      11.02048657       5.45657087       19       0.00017154       0.00020815       0.00032686
Cs      13.80150510       2.65488848       1.85754332       20      -0.00005797      -0.00013382       0.00016511
Cs      23.00487387       7.29983725       5.81219970       21      -0.00004322      -0.00011217       0.00009584
K       18.40381563       4.97714260       3.83584826       22      -0.00064080      -0.00010012      -0.00024114
In       9.21283627      -0.03284474      -0.01291028       23      -0.00020162       0.00005248      -0.00008470
I       17.70527676       2.32046775       1.60391300       24      -0.00013075       0.00020878       0.00024177
I       19.10121140       7.63368457       6.06701410       25       0.00000721       0.00005441      -0.00001985
I        2.22588687       5.97084381       1.29503039       26       0.00060094       0.00006706      -0.00003146
I       16.15352919       4.04961792       6.40181623       27       0.00053138       0.00003854      -0.00006746
I       15.48047496       6.37781323       2.41809803       28      -0.00006622       0.00040257      -0.00016881
I       21.32576226       3.57512945       5.25236367       29      -0.00014386       0.00038100      -0.00008326
Cs      18.38239177      10.06738624       2.04866004       30      -0.00009722      -0.00011340       0.00015312
Cs      27.58574002      14.71233453       6.00331292       31      -0.00001379      -0.00009817       0.00009082
K       22.98469277      12.38960345       4.02698406       32      -0.00064235       0.00011441      -0.00032703
In      13.79371058       7.37966172       0.17823761       33      -0.00014212       0.00007168      -0.00015756
I       22.28609070       9.73311796       1.79513386       34       0.00009767      -0.00046930      -0.00021171
I       23.68207959      15.04624104       6.25817894       35       0.00007502      -0.00024553      -0.00024809
I        6.80688122      13.38340520       1.48611581       36       0.00006506      -0.00026194       0.00016519
I       20.73447987      11.46214890       6.59285188       37       0.00015543      -0.00018733       0.00020388
I       20.06127090      13.79035527       2.60912611       38       0.00023252       0.00020447       0.00019572
I       25.90656341      10.98765267       5.44335703       39       0.00023577       0.00017645       0.00046168
