20
Lattice="17.444597325941533 -0.5431901821838219 -0.39989725740009585 4.124706968475243 7.674812225042033 -0.18635502767243578 4.147950262825373 2.3880708042404057 7.371582491717583" Properties=species:S:1:pos:R:3:spacegroup_kinds:I:1:forces:R:3 spacegroup="P 1" unit_cell=conventional occupancy="_JSON {\"0\": {\"Cs\": 1.0}, \"1\": {\"Cs\": 1.0}, \"2\": {\"K\": 1.0}, \"3\": {\"In\": 1.0}, \"4\": {\"I\": 1.0}, \"5\": {\"I\": 1.0}, \"6\": {\"I\": 1.0}, \"7\": {\"I\": 1.0}, \"8\": {\"I\": 1.0}, \"9\": {\"I\": 1.0}, \"10\": {\"Cs\": 1.0}, \"11\": {\"Cs\": 1.0}, \"12\": {\"K\": 1.0}, \"13\": {\"In\": 1.0}, \"14\": {\"I\": 1.0}, \"15\": {\"I\": 1.0}, \"16\": {\"I\": 1.0}, \"17\": {\"I\": 1.0}, \"18\": {\"I\": 1.0}, \"19\": {\"I\": 1.0}}" energy=-51.29788958468651 free_energy=-51.29788958468651 stress="-2.167885146449995e-06 5.346163898134861e-07 -3.669157843253143e-08 5.346163898134861e-07 1.5076256275063348e-06 1.0096693639955834e-07 -3.669157843253143e-08 1.0096693639955834e-07 9.185448381750248e-07" pbc="T T T"
Cs       4.10297859       2.34763048       1.67188670        0       0.00038236       0.00014616       0.00046520
Cs      12.89034759       7.44288169       5.31166387        1       0.00028323       0.00005629       0.00044519
K        8.49640123       4.89488633       3.49295844        2       0.00066643       0.00044516      -0.00025628
In      17.44477697      -0.54340189      -0.39970967        3      -0.00023559      -0.00004059      -0.00001655
I        8.76160226       1.66858922       2.06213080        4      -0.00020010       0.00009521      -0.00006415
I        8.23412854       8.12277226       4.92337064        5       0.00006780      -0.00010461       0.00013138
I       11.11261437       5.59835676       1.21747460        6      -0.00015519      -0.00006517      -0.00056249
I        5.88260638       4.19382703       5.76928694        7       0.00030880      -0.00021864      -0.00039888
I        6.53046742       6.31429546       0.91939971        8      -0.00083246       0.00006093      -0.00017063
I       10.46599377       3.47768707       6.06559613        9      -0.00046026      -0.00028733       0.00003324
Cs      12.82532112       2.07610202       1.47201375       10       0.00045475       0.00002242       0.00038649
Cs      21.61263783       7.17119011       5.11160574       11       0.00013249       0.00027061       0.00050239
K       17.21872709       4.62325973       3.29303615       12       0.00062022       0.00054788      -0.00034766
In       8.72237124      -0.27180229      -0.19983796       13       0.00021221       0.00011544       0.00024922
I       17.48374826       1.39711727       1.86204097       14      -0.00001153      -0.00006314       0.00013530
I       16.95659373       7.85108988       4.72350059       15      -0.00014545       0.00004848      -0.00000110
I       19.83481951       5.32686872       1.01738258       16       0.00000621      -0.00027976      -0.00038389
I       14.60515542       3.92221844       5.56935825       17      -0.00025411      -0.00023803      -0.00026848
I       15.25259662       6.04286632       0.71939214       18      -0.00027568      -0.00029948       0.00003322
I       19.18829638       3.20601059       5.86557270       19      -0.00056414      -0.00021183       0.00008848
