40
Lattice="21.42173821758722 0.0 0.0 7.63989776556882 12.487143388873658 0.0 5.357785972074206 -1.449639891705994 5.01351288057014" Properties=species:S:1:pos:R:3 pbc="T T T"
Cs       4.97204626       1.19845189       1.25339150
Cs      14.91655749       3.59547909       3.76012084
K        9.94430186       2.39696537       2.50675610
In       0.00000020       0.00000060       0.00000025
I        8.52611524      -1.12765054       2.13870975
I       11.36248851       5.92158079       2.87480246
I       12.62161708       2.20074312       1.58675634
I        7.26698528       2.59318719       3.42675559
I        6.86136538       4.07678715       0.74335877
I       13.02723903       0.71714600       4.27015489
Cs       8.79199514       7.44202359       1.25339150
Cs      18.73650637       9.83905079       3.76012084
K       13.76425075       8.64053706       2.50675610
In       3.81994908       6.24357230       0.00000025
I       12.34606412       5.11592116       2.13870975
I       15.18243740      12.16515249       2.87480246
I       16.44156596       8.44431481       1.58675634
I       11.08693417       8.83675889       3.42675559
I       10.68131426      10.32035885       0.74335877
I       16.84718791       6.96071770       4.27015489
Cs      15.68291536       1.19845189       1.25339150
Cs      25.62742660       3.59547909       3.76012084
K       20.65517097       2.39696537       2.50675610
In      10.71086931       0.00000060       0.00000025
I       19.23698435      -1.12765054       2.13870975
I       22.07335762       5.92158079       2.87480246
I       23.33248619       2.20074312       1.58675634
I       17.97785439       2.59318719       3.42675559
I       17.57223449       4.07678715       0.74335877
I       23.73810814       0.71714600       4.27015489
Cs      19.50286425       7.44202359       1.25339150
Cs      29.44737548       9.83905079       3.76012084
K       24.47511985       8.64053706       2.50675610
In      14.53081819       6.24357230       0.00000025
I       23.05693323       5.11592116       2.13870975
I       25.89330650      12.16515249       2.87480246
I       27.15243507       8.44431481       1.58675634
I       21.79780327       8.83675889       3.42675559
I       21.39218337      10.32035885       0.74335877
I       27.55805702       6.96071770       4.27015489
