80
Lattice="16.72368948996456 -1.0035990557252674 4.909679078696147 9.985980257080447 15.166478046918984 3.416932762523375 5.300510866367637 3.7943963502070797 17.163437680200296" Properties=species:S:1:pos:R:3:spacegroup_kinds:I:1:forces:R:3 spacegroup="P 1" unit_cell=conventional occupancy="_JSON {\"0\": {\"Cs\": 1.0}, \"1\": {\"Cs\": 1.0}, \"2\": {\"K\": 1.0}, \"3\": {\"In\": 1.0}, \"4\": {\"I\": 1.0}, \"5\": {\"I\": 1.0}, \"6\": {\"I\": 1.0}, \"7\": {\"I\": 1.0}, \"8\": {\"I\": 1.0}, \"9\": {\"I\": 1.0}, \"10\": {\"Cs\": 1.0}, \"11\": {\"Cs\": 1.0}, \"12\": {\"K\": 1.0}, \"13\": {\"In\": 1.0}, \"14\": {\"I\": 1.0}, \"15\": {\"I\": 1.0}, \"16\": {\"I\": 1.0}, \"17\": {\"I\": 1.0}, \"18\": {\"I\": 1.0}, \"19\": {\"I\": 1.0}, \"20\": {\"Cs\": 1.0}, \"21\": {\"Cs\": 1.0}, \"22\": {\"K\": 1.0}, \"23\": {\"In\": 1.0}, \"24\": {\"I\": 1.0}, \"25\": {\"I\": 1.0}, \"26\": {\"I\": 1.0}, \"27\": {\"I\": 1.0}, \"28\": {\"I\": 1.0}, \"29\": {\"I\": 1.0}, \"30\": {\"Cs\": 1.0}, \"31\": {\"Cs\": 1.0}, \"32\": {\"K\": 1.0}, \"33\": {\"In\": 1.0}, \"34\": {\"I\": 1.0}, \"35\": {\"I\": 1.0}, \"36\": {\"I\": 1.0}, \"37\": {\"I\": 1.0}, \"38\": {\"I\": 1.0}, \"39\": {\"I\": 1.0}, \"40\": {\"Cs\": 1.0}, \"41\": {\"Cs\": 1.0}, \"42\": {\"K\": 1.0}, \"43\": {\"In\": 1.0}, \"44\": {\"I\": 1.0}, \"45\": {\"I\": 1.0}, \"46\": {\"I\": 1.0}, \"47\": {\"I\": 1.0}, \"48\": {\"I\": 1.0}, \"49\": {\"I\": 1.0}, \"50\": {\"Cs\": 1.0}, \"51\": {\"Cs\": 1.0}, \"52\": {\"K\": 1.0}, \"53\": {\"In\": 1.0}, \"54\": {\"I\": 1.0}, \"55\": {\"I\": 1.0}, \"56\": {\"I\": 1.0}, \"57\": {\"I\": 1.0}, \"58\": {\"I\": 1.0}, \"59\": {\"I\": 1.0}, \"60\": {\"Cs\": 1.0}, \"61\": {\"Cs\": 1.0}, \"62\": {\"K\": 1.0}, \"63\": {\"In\": 1.0}, \"64\": {\"I\": 1.0}, \"65\": {\"I\": 1.0}, \"66\": {\"I\": 1.0}, \"67\": {\"I\": 1.0}, \"68\": {\"I\": 1.0}, \"69\": {\"I\": 1.0}, \"70\": {\"Cs\": 1.0}, \"71\": {\"Cs\": 1.0}, \"72\": {\"K\": 1.0}, \"73\": {\"In\": 1.0}, \"74\": {\"I\": 1.0}, \"75\": {\"I\": 1.0}, \"76\": {\"I\": 1.0}, \"77\": {\"I\": 1.0}, \"78\": {\"I\": 1.0}, \"79\": {\"I\": 1.0}}" energy=-205.19157960931093 free_energy=-205.19157960931093 stress="-5.815624433017419e-07 -1.2739422015405966e-07 5.346744819848991e-07 -1.2739422015405966e-07 1.5090959079485415e-06 3.256383905068791e-07 5.346744819848991e-07 3.256383905068791e-07 6.648754543444138e-07" pbc="T T T"
Cs       4.15093250       2.13232799       3.14795061        0      -0.00008888      -0.00010089       0.00007093
Cs      11.85500428       6.84664288       9.59352158        1      -0.00032024       0.00005031       0.00027315
K        8.00169843       4.48753176       6.37022566        2      -0.00012631       0.00011800       0.00034863
In       0.00008939      -0.00001430       0.00007116        3      -0.00030016       0.00004548      -0.00021161
I        4.97370263       2.74910714       6.93528230        4       0.00029428       0.00000917      -0.00015561
I       11.03091558       6.22581602       5.80704243        5      -0.00009661      -0.00017811      -0.00015081
I        8.24665474       2.21989883       3.66388845        6      -0.00001439      -0.00003698      -0.00012883
I        7.76002826       6.76256318       9.07260862        7       0.00010385       0.00006994      -0.00026850
I        6.82934695       6.71037670       3.88279436        8      -0.00004473       0.00007907      -0.00038153
I        9.17611440       2.27229773       8.86333568        9       0.00081472      -0.00038074       0.00011935
Cs       6.80031824       4.03292987      11.72968808       10       0.00051320       0.00033827      -0.00008328
Cs      14.50485107       8.74718886      18.17543736       11       0.00043977       0.00029893      -0.00049266
K       10.65248291       6.38488229      14.95548143       12       0.00023090      -0.00003924      -0.00025357
In       2.65009869       1.89713521       8.58195361       13       0.00032157      -0.00016818      -0.00016512
I        7.62485553       4.64559637      15.51789045       14      -0.00005723      -0.00030284      -0.00010421
I       13.68140034       8.12154408      14.38888881       15      -0.00038841      -0.00013271       0.00044835
I       10.89834819       4.11562021      12.24948634       16      -0.00020028      -0.00022042      -0.00003708
I       10.41299281       8.65802146      17.65854800       17      -0.00002455       0.00042829      -0.00014156
I        9.47727965       8.60280978      12.46345097       18       0.00004965      -0.00010149       0.00003014
I       11.82563096       4.16336501      17.44451490       19      -0.00018852       0.00032741      -0.00057604
Cs       9.14567986       9.71562438       4.86062263       20      -0.00038706      -0.00025137       0.00028457
Cs      16.84877546      14.42900008      11.30648857       21      -0.00021447      -0.00010420       0.00062637
K       12.99734802      12.07431204       8.08190309       22      -0.00006717       0.00017716       0.00036769
In       4.99329133       7.58323124       1.70890134       23      -0.00008556      -0.00016408      -0.00027143
I        9.96770463      10.33718632       8.64723858       24       0.00012345       0.00007984       0.00016820
I       16.02483883      13.81375741       7.51966600       25       0.00014320      -0.00023116      -0.00033646
I       13.23802949       9.80020243       5.38013750       26       0.00014562      -0.00042144      -0.00028819
I       12.75200039      14.34278703      10.78808809       27      -0.00006339      -0.00019851       0.00016520
I       11.82057580      14.29149708       5.59136793       28       0.00027264      -0.00034040      -0.00004734
I       14.16917579       9.85354741      10.57160868       29      -0.00015848      -0.00031218      -0.00027152
Cs      11.79258542      11.60958226      13.44072185       30      -0.00006167       0.00005541      -0.00004113
Cs      19.49597739      16.32269233      19.88577774       31      -0.00005453       0.00022619       0.00023302
K       15.64577916      13.97116413      16.66253687       32      -0.00038074      -0.00009259       0.00013113
In       7.64297142       9.48051186      10.28987568       33       0.00028637       0.00006753       0.00004998
I       12.61672075      12.23414181      17.22711499       34       0.00001668       0.00008169       0.00002669
I       18.67277985      15.71009756      16.09844099       35       0.00042896       0.00048828      -0.00008850
I       15.88625107      11.69707007      13.96013290       36       0.00011454       0.00067759       0.00029648
I       15.40049401      16.24026122      19.36858146       37       0.00009477       0.00007937       0.00000299
I       14.47232674      16.19062008      14.17285975       38      -0.00028413       0.00049513      -0.00012331
I       16.82171099      11.75269257      19.15308256       39      -0.00041208       0.00040902       0.00008422
Cs      12.51395343       1.63352314       5.60372580       40       0.00019591       0.00019950      -0.00011092
Cs      20.21839778       6.34753793      12.04897425       41      -0.00009790       0.00011853       0.00035648
K       16.36499632       3.98558754       8.82726060       42      -0.00011567      -0.00003951       0.00020208
In       8.36200846      -0.50186396       2.45495149       43      -0.00000285      -0.00020064      -0.00003191
I       13.33635102       2.24704061       9.39135071       44      -0.00005233      -0.00006855       0.00017659
I       19.39367649       5.72356258       8.26331478       45      -0.00009197      -0.00044441       0.00008331
I       16.60951050       1.71695841       6.12148708       46       0.00007088       0.00026127      -0.00019900
I       16.12337384       6.25984821      11.52938183       47       0.00013584      -0.00022030      -0.00021020
I       15.18972836       6.20515772       6.33743193       48       0.00004433      -0.00037868      -0.00018532
I       17.53715427       1.76624703      11.31791543       49       0.00018615      -0.00032545      -0.00027391
Cs      15.16146081       3.52789968      14.18308459       50       0.00020636       0.00012334      -0.00006206
Cs      22.86508540       8.24217806      20.62922194       51       0.00021114      -0.00005730      -0.00029062
K       19.01225934       5.88319350      17.40854501       52       0.00045779       0.00002418      -0.00052965
In      11.01161266       1.39556654      11.03662890       53       0.00005288      -0.00016236      -0.00048277
I       15.98584444       4.14314759      17.97076181       54      -0.00033276       0.00021061      -0.00006776
I       22.04216425       7.62000760      16.84225343       55      -0.00059865      -0.00009933       0.00040146
I       19.25876711       3.61457990      14.70190673       56      -0.00039197       0.00001272       0.00015579
I       18.77294060       8.15760829      20.11089593       57      -0.00005994      -0.00034264      -0.00027518
I       17.84043720       8.10391383      14.91810896       58       0.00064680       0.00002643       0.00034869
I       20.18913099       3.66549717      19.89905415       59       0.00010724       0.00050333      -0.00024844
Cs      17.50595748       9.21090264       7.31409833       60      -0.00053055      -0.00025904       0.00042197
Cs      25.20882134      13.92443634      13.75951618       61      -0.00047536      -0.00016893       0.00061068
K       21.35768916      11.57271918      10.53472160       62      -0.00030816      -0.00010848       0.00031948
In      13.35527991       7.08161894       4.16369860       63       0.00010849       0.00029532       0.00003597
I       18.32855996       9.83540158      11.10039994       64       0.00023517       0.00007511       0.00004408
I       24.38518221      13.31204935       9.97227894       65      -0.00003906      -0.00022224      -0.00014274
I       21.59795110       9.29894740       7.83278020       66       0.00008485      -0.00001717      -0.00032103
I       21.11103319      13.84198993      13.24012003       67       0.00000884       0.00053666       0.00043480
I       20.18444480      13.79336101       8.04617750       68      -0.00014383      -0.00001690      -0.00018571
I       22.53232308       9.35513290      13.02625641       69       0.00016184      -0.00021499       0.00006015
Cs      20.15578520      11.11061107      15.89614254       70       0.00000984       0.00001038       0.00016900
Cs      27.85969275      15.82422168      22.34222090       71       0.00003993      -0.00008664       0.00002548
K       24.00897078      13.46922080      19.11923934       72       0.00003230       0.00008237       0.00019648
In      16.00502466       8.97857095      12.74462091       73      -0.00006242      -0.00019695       0.00008069
I       20.98003352      11.73207367      19.68348459       74      -0.00035259       0.00002750       0.00003604
I       27.03618991      15.20762572      18.55490406       75       0.00012955       0.00053938       0.00015980
I       24.24910995      11.19505985      16.41673665       76       0.00035783      -0.00031774       0.00006918
I       23.76440136      15.73757249      21.82572422       77      -0.00010232      -0.00027023       0.00024761
I       22.83239794      15.68525900      16.62722302       78      -0.00021959       0.00017418      -0.00013309
I       25.18140478      11.24687951      21.60807941       79       0.00011936       0.00017315       0.00000569
