80
Lattice="18.09830399461258 0.0 0.0 11.748385840986403 14.099523521612147 0.0 1.9407353789542763 3.568285133677206 15.651780962663166" Properties=species:S:1:pos:R:3 pbc="T T T"
Cs       3.97342622       2.20847544       1.95647258
Cs      11.92028637       6.62542886       5.86941788
K        7.94685637       4.41695220       3.91294532
In       0.00000008       0.00000005       0.00000001
I        4.23568105       2.97589863       5.97408520
I       11.65803174       5.85800577       1.85180539
I        8.59598130       2.05777854       1.84902919
I        7.29773143       6.77612585       5.97686138
I        6.85154241       5.79880954       1.78847067
I        9.04217036       3.03509495       6.03741997
Cs       4.94379391       3.99261801       9.78236306
Cs      12.89065406       8.40957143      13.69530836
K        8.91722406       6.20109476      11.73883580
In       0.97036777       1.78414261       7.82589050
I        5.20604874       4.76004120      13.79997569
I       12.62839942       7.64214834       9.67769587
I        9.56634899       3.84192110       9.67491967
I        8.26809912       8.56026841      13.80275186
I        7.82191010       7.58295210       9.61436115
I       10.01253805       4.81923752      13.86331045
Cs       9.84761914       9.25823720       1.95647258
Cs      17.79447929      13.67519062       5.86941788
K       13.82104929      11.46671396       3.91294532
In       5.87419300       7.04976181       0.00000001
I       10.10987397      10.02566039       5.97408520
I       17.53222466      12.90776753       1.85180539
I       14.47017423       9.10754030       1.84902919
I       13.17192435      13.82588761       5.97686138
I       12.72573533      12.84857130       1.78847067
I       14.91636328      10.08485672       6.03741997
Cs      10.81798683      11.04237977       9.78236306
Cs      18.76484698      15.45933319      13.69530836
K       14.79141698      13.25085653      11.73883580
In       6.84456069       8.83390437       7.82589050
I       11.08024166      11.80980296      13.79997569
I       18.50259235      14.69191010       9.67769587
I       15.44054191      10.89168286       9.67491967
I       14.14229204      15.61003017      13.80275186
I       13.69610302      14.63271386       9.61436115
I       15.88673097      11.86899928      13.86331045
Cs      13.02257821       2.20847544       1.95647258
Cs      20.96943837       6.62542886       5.86941788
K       16.99600837       4.41695220       3.91294532
In       9.04915207       0.00000005       0.00000001
I       13.28483305       2.97589863       5.97408520
I       20.70718373       5.85800577       1.85180539
I       17.64513330       2.05777854       1.84902919
I       16.34688343       6.77612585       5.97686138
I       15.90069441       5.79880954       1.78847067
I       18.09132236       3.03509495       6.03741997
Cs      13.99294590       3.99261801       9.78236306
Cs      21.93980605       8.40957143      13.69530836
K       17.96637606       6.20109476      11.73883580
In      10.01951976       1.78414261       7.82589050
I       14.25520074       4.76004120      13.79997569
I       21.67755142       7.64214834       9.67769587
I       18.61550099       3.84192110       9.67491967
I       17.31725112       8.56026841      13.80275186
I       16.87106210       7.58295210       9.61436115
I       19.06169004       4.81923752      13.86331045
Cs      18.89677113       9.25823720       1.95647258
Cs      26.84363129      13.67519062       5.86941788
K       22.87020129      11.46671396       3.91294532
In      14.92334500       7.04976181       0.00000001
I       19.15902597      10.02566039       5.97408520
I       26.58137665      12.90776753       1.85180539
I       23.51932622       9.10754030       1.84902919
I       22.22107635      13.82588761       5.97686138
I       21.77488733      12.84857130       1.78847067
I       23.96551528      10.08485672       6.03741997
Cs      19.86713882      11.04237977       9.78236306
Cs      27.81399898      15.45933319      13.69530836
K       23.84056898      13.25085653      11.73883580
In      15.89371268       8.83390437       7.82589050
I       20.12939366      11.80980296      13.79997569
I       27.55174434      14.69191010       9.67769587
I       24.48969391      10.89168286       9.67491967
I       23.19144404      15.61003017      13.80275186
I       22.74525502      14.63271386       9.61436115
I       24.93588297      11.86899928      13.86331045
