80
Lattice="18.52546173351397 -1.5736794361658222 0.3552347019482748 -7.900377906312043 16.836301791228657 0.0031146815290768134 -0.3599502956982639 -0.16982951671312946 17.653110499605614" Properties=species:S:1:pos:R:3:spacegroup_kinds:I:1:forces:R:3 spacegroup="P 1" unit_cell=conventional occupancy="_JSON {\"0\": {\"Cs\": 1.0}, \"1\": {\"Cs\": 1.0}, \"2\": {\"K\": 1.0}, \"3\": {\"In\": 1.0}, \"4\": {\"I\": 1.0}, \"5\": {\"I\": 1.0}, \"6\": {\"I\": 1.0}, \"7\": {\"I\": 1.0}, \"8\": {\"I\": 1.0}, \"9\": {\"I\": 1.0}, \"10\": {\"Cs\": 1.0}, \"11\": {\"Cs\": 1.0}, \"12\": {\"K\": 1.0}, \"13\": {\"In\": 1.0}, \"14\": {\"I\": 1.0}, \"15\": {\"I\": 1.0}, \"16\": {\"I\": 1.0}, \"17\": {\"I\": 1.0}, \"18\": {\"I\": 1.0}, \"19\": {\"I\": 1.0}, \"20\": {\"Cs\": 1.0}, \"21\": {\"Cs\": 1.0}, \"22\": {\"K\": 1.0}, \"23\": {\"In\": 1.0}, \"24\": {\"I\": 1.0}, \"25\": {\"I\": 1.0}, \"26\": {\"I\": 1.0}, \"27\": {\"I\": 1.0}, \"28\": {\"I\": 1.0}, \"29\": {\"I\": 1.0}, \"30\": {\"Cs\": 1.0}, \"31\": {\"Cs\": 1.0}, \"32\": {\"K\": 1.0}, \"33\": {\"In\": 1.0}, \"34\": {\"I\": 1.0}, \"35\": {\"I\": 1.0}, \"36\": {\"I\": 1.0}, \"37\": {\"I\": 1.0}, \"38\": {\"I\": 1.0}, \"39\": {\"I\": 1.0}, \"40\": {\"Cs\": 1.0}, \"41\": {\"Cs\": 1.0}, \"42\": {\"K\": 1.0}, \"43\": {\"In\": 1.0}, \"44\": {\"I\": 1.0}, \"45\": {\"I\": 1.0}, \"46\": {\"I\": 1.0}, \"47\": {\"I\": 1.0}, \"48\": {\"I\": 1.0}, \"49\": {\"I\": 1.0}, \"50\": {\"Cs\": 1.0}, \"51\": {\"Cs\": 1.0}, \"52\": {\"K\": 1.0}, \"53\": {\"In\": 1.0}, \"54\": {\"I\": 1.0}, \"55\": {\"I\": 1.0}, \"56\": {\"I\": 1.0}, \"57\": {\"I\": 1.0}, \"58\": {\"I\": 1.0}, \"59\": {\"I\": 1.0}, \"60\": {\"Cs\": 1.0}, \"61\": {\"Cs\": 1.0}, \"62\": {\"K\": 1.0}, \"63\": {\"In\": 1.0}, \"64\": {\"I\": 1.0}, \"65\": {\"I\": 1.0}, \"66\": {\"I\": 1.0}, \"67\": {\"I\": 1.0}, \"68\": {\"I\": 1.0}, \"69\": {\"I\": 1.0}, \"70\": {\"Cs\": 1.0}, \"71\": {\"Cs\": 1.0}, \"72\": {\"K\": 1.0}, \"73\": {\"In\": 1.0}, \"74\": {\"I\": 1.0}, \"75\": {\"I\": 1.0}, \"76\": {\"I\": 1.0}, \"77\": {\"I\": 1.0}, \"78\": {\"I\": 1.0}, \"79\": {\"I\": 1.0}}" energy=-206.35052538313892 free_energy=-206.35052538313892 stress="-2.3630681140065476e-06 2.534058962778755e-06 -4.418249820164278e-06 2.534058962778755e-06 2.0141423801849745e-06 -3.2211195104476993e-07 -4.418249820164278e-06 -3.2211195104476993e-07 6.208694978146632e-07" pbc="T T T"
Cs       2.53436352       5.68819596      17.78061864        0      -0.00025873      -0.00045008       0.00005097
Cs       6.93886601       2.62116082      17.81184119        1      -0.00025630      -0.00048364       0.00010349
K        2.34978926       0.46488209       4.46668317        2      -0.00000931       0.00059190       0.00041222
In       2.44041332       0.50864355       0.05372062        3      -0.00030010      -0.00013088       0.00001887
I        3.80460249       2.48694344       1.86735234        4       0.00009174       0.00010805      -0.00031329
I        6.20826982       6.07615420       7.24627957        5       0.00011758       0.00009049      -0.00028883
I        4.72412714       0.22551372       7.16103727        6      -0.00002652      -0.00012159       0.00034601
I        9.23892158      -0.07991561       1.95000879        7      -0.00003459      -0.00013677       0.00035196
I       -0.51779993       6.69856168       1.82077841        8       0.00035306       0.00022148      -0.00032477
I        1.26764295       2.65114231       7.11482668        9       0.00034504       0.00029539      -0.00035454
Cs       2.71433853       5.77311002       8.95406352       10      -0.00025612      -0.00044604       0.00005008
Cs       7.11884099       2.70607550       8.98528609       11      -0.00025464      -0.00048337       0.00010189
K        2.16981420       0.37996709      13.29323798       12      -0.00000982       0.00059249       0.00041493
In       2.26043439       0.42374601       8.88027601       13      -0.00027879      -0.00022382       0.00002061
I        3.62462668       2.40202490      10.69390610       14       0.00010077       0.00012791      -0.00030040
I        6.02829453       5.99123919      16.07283508       15       0.00011919       0.00009131      -0.00029122
I        4.54415170       0.14059957      15.98759288       16      -0.00002238      -0.00012497       0.00034214
I        9.05894689      -0.16483096      10.77656372       17      -0.00003700      -0.00013432       0.00035437
I       -0.69777659       6.61365156      10.64733278       18       0.00036215       0.00019933      -0.00031602
I        1.08766541       2.56623476      15.94138031       19       0.00035991       0.00025970      -0.00033803
Cs      -1.41582457      14.10634679      17.78217562       20      -0.00026841      -0.00045072       0.00005454
Cs       2.98867792      11.03931198      17.81339820       21      -0.00026631      -0.00048604       0.00010670
K       -1.60039809       8.88302754       4.46823947       22      -0.00002043       0.00062149       0.00042024
In      -1.50976883       8.92677384       0.05527978       23      -0.00034826      -0.00001446       0.00000265
I       -0.14558672      10.90509679       1.86891077       24       0.00009141       0.00009199      -0.00032522
I        2.25808047      14.49430786       7.24783821       25       0.00011904       0.00007349      -0.00030241
I        0.77393582       8.64366733       7.16259578       26      -0.00000221      -0.00013448       0.00033290
I        5.28873418       8.33823370       1.95156537       27      -0.00005085      -0.00012930       0.00036059
I       -4.46798617      15.11670437       1.82233788       28       0.00033422       0.00026687      -0.00034787
I       -2.68255183      11.06931082       7.11637958       29       0.00038432       0.00020092      -0.00030751
Cs      -1.23584908      14.19126168       8.95562038       30      -0.00027208      -0.00045175       0.00005445
Cs       3.16865327      11.12422605       8.98684290       31      -0.00026786      -0.00048252       0.00010737
K       -1.78037316       8.79811262      13.29479428       32      -0.00002095       0.00062200       0.00042307
In      -1.68974211       8.84185253       8.88183651       33      -0.00036048       0.00002517      -0.00000856
I       -0.32556201      10.82018162      10.69546585       34       0.00009151       0.00009053      -0.00032601
I        2.07810562      14.40939345      16.07439388       35       0.00011534       0.00006992      -0.00030640
I        0.59396140       8.55875177      15.98915089       36      -0.00000798      -0.00013103       0.00033459
I        5.10875988       8.25331869      10.77812031       37      -0.00005772      -0.00012929       0.00036336
I       -4.64795990      15.03178544      10.64889448       38       0.00032343       0.00029224      -0.00036248
I       -2.86252645      10.98439453      15.94293545       39       0.00037934       0.00021254      -0.00031439
Cs      11.79709526       4.90135630      17.95823564       40      -0.00026864      -0.00045137       0.00005441
Cs      16.20159773       1.83432127      17.98945820       41      -0.00026606      -0.00048545       0.00010683
K       11.61252159      -0.32196243       4.64429966       42      -0.00001966       0.00061791       0.00041901
In      11.70315118      -0.27821904       0.23133969       43      -0.00034871      -0.00000200       0.00000307
I       13.06733325       1.70010671       2.04497095       44       0.00008961       0.00008914      -0.00032672
I       -3.05446113       6.86299809       7.06866404       45       0.00011394       0.00006383      -0.00030809
I       13.98685580      -0.56132397       7.33865563       46      -0.00000379      -0.00013059       0.00033474
I       -0.02380785       0.70692269       1.77239075       47      -0.00004995      -0.00013003       0.00035988
I        8.74493393       5.91171297       1.99839807       48       0.00033231       0.00027116      -0.00034984
I       10.53036921       1.86431651       7.29244052       49       0.00037606       0.00022099      -0.00031733
Cs      11.97707067       4.98627056       9.13168037       50      -0.00027069      -0.00044857       0.00005502
Cs      16.38157317       1.91923595       9.16290294       51      -0.00026925      -0.00048574       0.00010679
K       11.43254653      -0.40687739      13.47085447       52      -0.00002017       0.00061845       0.00042173
In      11.52317581      -0.36312845       9.05789565       53      -0.00035101      -0.00003088      -0.00000133
I       12.88735751       1.61518965      10.87152537       54       0.00009656       0.00010004      -0.00032040
I       -3.23443645       6.77808168      15.89521900       55       0.00011721       0.00007293      -0.00030486
I       13.80688118      -0.64623872      16.16521090       56      -0.00000754      -0.00013162       0.00033444
I       -0.20378176       0.62200676      10.59894537       57      -0.00006012      -0.00012525       0.00036578
I        8.56495884       5.82679812      10.82495368       58       0.00033112       0.00027361      -0.00035348
I       10.35039317       1.77940449      16.11899530       59       0.00038088       0.00020915      -0.00031275
Cs       7.84690546      13.31950693      17.95979331       60      -0.00025864      -0.00044904       0.00005120
Cs      12.25140792      10.25247219      17.99101590       61      -0.00025641      -0.00048461       0.00010326
K        7.66233130       8.09619265       4.64585772       62      -0.00000997       0.00059530       0.00041320
In       7.75295479       8.13995748       0.23289560       63      -0.00029819      -0.00014577       0.00001724
I        9.11714425      10.11825406       2.04652681       64       0.00009370       0.00011122      -0.00031133
I       -7.00465035      15.28114333       7.07021897       65       0.00012299       0.00010055      -0.00028269
I       10.03666880       7.85682561       7.34021219       66      -0.00002440      -0.00012551       0.00034373
I       -3.97399822       9.12507490       1.77394879       67      -0.00003491      -0.00013621       0.00035209
I        4.79474176      14.32987350       1.99995294       68       0.00035466       0.00021790      -0.00032310
I        6.58018368      10.28245710       7.29400052       69       0.00035309       0.00027583      -0.00034529
Cs       8.02688050      13.40442175       9.13323824       70      -0.00025747      -0.00044937       0.00004955
Cs      12.43138284      10.33738610       9.16446075       71      -0.00025330      -0.00047996       0.00010243
K        7.48235623       8.01127771      13.47241255       72      -0.00001045       0.00059579       0.00041584
In       7.57297822       8.05504758       9.05945102       73      -0.00028824      -0.00016804       0.00001706
I        8.93716895      10.03333770      10.87308140       74       0.00009523       0.00011739      -0.00030672
I       -7.18462513      15.19623046      15.89677532       75       0.00011713       0.00008784      -0.00029330
I        9.85669377       7.77191055      16.16676747       76      -0.00002351      -0.00012418       0.00034296
I       -4.15397304       9.04016030      10.60050385       77      -0.00003557      -0.00013815       0.00035261
I        4.61476655      14.24495901      10.82650840       78       0.00035384       0.00021952      -0.00032584
I        6.40020756      10.19754528      16.12055517       79       0.00035813       0.00026363      -0.00033988
