80
Lattice="20.458161458174562 0.0 0.0 -7.730278025295067 13.389234296444274 0.0 -0.8084111392467713 -0.4667363888600152 19.40073663886272" Properties=species:S:1:pos:R:3 pbc="T T T"
Cs       3.57165743       5.05587646      -0.00007756
Cs       8.26973067       2.82433741      -0.00007756
K        2.53663512       0.47610921       4.85020006
In       2.73875453       0.59280248       0.00005615
I        4.32651661       2.30144214       1.94076801
I        7.11073355       5.34540764       7.75969091
I        5.09745055       0.40608504       7.75967530
I       10.20486338       0.54607472       1.94075240
I       -0.19384828       5.48543150       1.94074315
I        1.40193985       2.16148662       7.75966605
Cs       3.16745186       4.82250826       9.70029076
Cs       7.86552510       2.59096921       9.70029076
K        2.13242955       0.24274102      14.55056838
In       2.33454897       0.35943429       9.70042447
I        3.92231104       2.06807394      11.64113633
I        6.70652798       5.11203945      17.46005923
I        4.69324498       0.17271684      17.46004362
I        9.80065781       0.31270653      11.64112072
I       -0.59805385       5.25206330      11.64111147
I        0.99773429       1.92811842      17.46003437
Cs      -0.29348159      11.75049360      -0.00007756
Cs       4.40459166       9.51895455      -0.00007756
K       -1.32850389       7.17072636       4.85020006
In      -1.12638448       7.28741963       0.00005615
I        0.46137760       8.99605928       1.94076801
I        3.24559453      12.04002479       7.75969091
I        1.23231154       7.10070218       7.75967530
I        6.33972437       7.24069187       1.94075240
I       -4.05898729      12.18004865       1.94074315
I       -2.46319916       8.85610377       7.75966605
Cs      -0.69768716      11.51712541       9.70029076
Cs       4.00038609       9.28558636       9.70029076
K       -1.73270946       6.93735817      14.55056838
In      -1.53059005       7.05405144       9.70042447
I        0.05717203       8.76269109      11.64113633
I        2.84138896      11.80665659      17.46005923
I        0.82810597       6.86733399      17.46004362
I        5.93551880       7.00732368      11.64112072
I       -4.46319286      11.94668045      11.64111147
I       -2.86740473       8.62273557      17.46003437
Cs      13.80073816       5.05587646      -0.00007756
Cs      18.49881140       2.82433741      -0.00007756
K       12.76571585       0.47610921       4.85020006
In      12.96783526       0.59280248       0.00005615
I       14.55559734       2.30144214       1.94076801
I       17.33981428       5.34540764       7.75969091
I       15.32653128       0.40608504       7.75967530
I       20.43394411       0.54607472       1.94075240
I       10.03523245       5.48543150       1.94074315
I       11.63102058       2.16148662       7.75966605
Cs      13.39653259       4.82250826       9.70029076
Cs      18.09460583       2.59096921       9.70029076
K       12.36151028       0.24274102      14.55056838
In      12.56362969       0.35943429       9.70042447
I       14.15139177       2.06807394      11.64113633
I       16.93560871       5.11203945      17.46005923
I       14.92232571       0.17271684      17.46004362
I       20.02973854       0.31270653      11.64112072
I        9.63102688       5.25206330      11.64111147
I       11.22681501       1.92811842      17.46003437
Cs       9.93559914      11.75049360      -0.00007756
Cs      14.63367239       9.51895455      -0.00007756
K        8.90057684       7.17072636       4.85020006
In       9.10269625       7.28741963       0.00005615
I       10.69045832       8.99605928       1.94076801
I       13.47467526      12.04002479       7.75969091
I       11.46139227       7.10070218       7.75967530
I       16.56880510       7.24069187       1.94075240
I        6.17009344      12.18004865       1.94074315
I        7.76588157       8.85610377       7.75966605
Cs       9.53139357      11.51712541       9.70029076
Cs      14.22946682       9.28558636       9.70029076
K        8.49637127       6.93735817      14.55056838
In       8.69849068       7.05405144       9.70042447
I       10.28625276       8.76269109      11.64113633
I       13.07046969      11.80665659      17.46005923
I       11.05718670       6.86733399      17.46004362
I       16.16459953       7.00732368      11.64112072
I        5.76588787      11.94668045      11.64111147
I        7.36167600       8.62273557      17.46003437
