20
Lattice="8.329735601603486 -0.26234339020653435 1.3944760295092067 -5.550517930716472 9.354062800292867 0.7401114512664115 -2.0748436483605484 -2.185008425952039 11.998803615607796" Properties=species:S:1:pos:R:3:spacegroup_kinds:I:1:forces:R:3 spacegroup="P 1" unit_cell=conventional occupancy="_JSON {\"0\": {\"Cs\": 1.0}, \"1\": {\"Cs\": 1.0}, \"2\": {\"Cs\": 1.0}, \"3\": {\"Cs\": 1.0}, \"4\": {\"Pb\": 1.0}, \"5\": {\"Pb\": 1.0}, \"6\": {\"Pb\": 1.0}, \"7\": {\"Pb\": 1.0}, \"8\": {\"I\": 1.0}, \"9\": {\"I\": 1.0}, \"10\": {\"I\": 1.0}, \"11\": {\"I\": 1.0}, \"12\": {\"I\": 1.0}, \"13\": {\"I\": 1.0}, \"14\": {\"I\": 1.0}, \"15\": {\"I\": 1.0}, \"16\": {\"I\": 1.0}, \"17\": {\"I\": 1.0}, \"18\": {\"I\": 1.0}, \"19\": {\"I\": 1.0}}" energy=-56.619966051414785 free_energy=-56.619966051414785 stress="-5.26292959849548e-06 2.354143574089849e-06 6.8371202363291336e-06 2.354143574089849e-06 -4.591687103454192e-06 -8.068889390532462e-06 6.8371202363291336e-06 -8.068889390532462e-06 -1.3027103641137755e-07" pbc="T T T"
Cs       4.48262054      -1.07165696       3.77001717        0       0.00009110      -0.00069754      -0.00013993
Cs      -2.45609045       3.73554232       3.44246127        1      -0.00008311       0.00058329       0.00023726
Cs       4.09195086       0.12555362      10.29786548        2      -0.00032197      -0.00030282       0.00011948
Cs      -2.84798702       4.93360200       9.97051088        3      -0.00012344      -0.00033058       0.00019380
Pb      -0.91525689      -1.43523558      12.33603311        4       0.00052084       0.00009143       0.00015797
Pb       2.55006815       5.29561719       1.40467660        5      -0.00026000       0.00008271       0.00001810
Pb       0.12245128      -0.34305765       6.33681356        6      -0.00008532       0.00050305      -0.00015343
Pb       1.51187774       4.20310265       7.40398732        7       0.00012764       0.00010859      -0.00032335
I       -3.13664448       7.05769998       1.30167550        8       0.00024249      -0.00027001       0.00015608
I        3.80324670       2.24923226       1.62949519        9      -0.00007037      -0.00000631      -0.00049899
I       -0.27723776       0.50721732       3.23336342       10       0.00057317       0.00008127       0.00026321
I       -2.16819754       1.61159916      12.11151441       11      -0.00009261       0.00010349       0.00001079
I       -0.77867112       6.15722682      13.17883281       12      -0.00028845       0.00037674      -0.00004254
I        1.11350858       5.05455084       4.30120305       13      -0.00033935       0.00018169      -0.00034294
I       -3.99191455       6.15703209       6.24479409       14       0.00076796       0.00006566      -0.00013244
I        2.94849954       1.34953549       6.57165806       15      -0.00005166      -0.00054813       0.00016769
I        0.52222083      -1.19290853       9.43988556       16      -0.00027979       0.00014525      -0.00020685
I       -1.31412512       2.51173840       7.16839795       17       0.00006677      -0.00013223       0.00007764
I        0.07556416       7.05781196       8.23591920       18      -0.00009995       0.00035500       0.00014344
I        1.91193037       3.35359242      10.50717212       19      -0.00029395      -0.00039055       0.00029502
