10
Lattice="12.774122841702605 -2.911527810574705e-10 1.1209758972252518e-16 -1.45576390855925e-10 6.387061420851309 3.503804955662976e-17 5.642759472283737e-17 3.5004743229360657e-17 6.387061420818372" Properties=species:S:1:pos:R:3:spacegroup_kinds:I:1:forces:R:3 spacegroup="P 1" unit_cell=conventional occupancy="_JSON {\"0\": {\"Cs\": 1.0}, \"1\": {\"Pb\": 1.0}, \"2\": {\"I\": 1.0}, \"3\": {\"I\": 1.0}, \"4\": {\"I\": 1.0}, \"5\": {\"Cs\": 1.0}, \"6\": {\"Pb\": 1.0}, \"7\": {\"I\": 1.0}, \"8\": {\"I\": 1.0}, \"9\": {\"I\": 1.0}}" energy=-27.961484854552406 free_energy=-27.961484854552406 stress="-1.2565822266819508e-07 -1.02376412798616e-12 -2.8553583380242974e-18 -1.02376412798616e-12 -1.2565822256396866e-07 5.0770899498981705e-18 -2.8553583380242974e-18 5.0770899498981705e-18 -1.25658043369384e-07" pbc="T T T"
Cs       3.19356125       3.19350017       3.19353071        0       0.00000120      -0.00000120      -0.00000000
Pb       0.00000204      -0.00000204      -0.00000000        1       0.00000017      -0.00000017      -0.00000000
I        0.00000099      -0.00000099       3.19353071        2      -0.00000202       0.00000202       0.00000000
I        3.19353143      -0.00000099      -0.00000000        3       0.00000267       0.00000202       0.00000000
I        0.00000099       3.19352999      -0.00000000        4      -0.00000202      -0.00000267       0.00000000
Cs       9.58062267       3.19350017       3.19353071        5       0.00000120      -0.00000120      -0.00000000
Pb       6.38706346      -0.00000204      -0.00000000        6       0.00000017      -0.00000017      -0.00000000
I        6.38706241      -0.00000099       3.19353071        7      -0.00000202       0.00000202       0.00000000
I        9.58059285      -0.00000099      -0.00000000        8       0.00000267       0.00000202       0.00000000
I        6.38706241       3.19352999      -0.00000000        9      -0.00000202      -0.00000267       0.00000000
