40
Lattice="18.046592345393876 0.0 0.0 -8.833716659114415 15.300446073253775 0.0 0.0 0.0 8.387187408238924" Properties=species:S:1:pos:R:3 pbc="T T T"
Cs       4.25229956       2.55377703       0.02669242
Cs      -0.22775194       5.10385138       8.36046667
K       -0.29094048       0.00370786       4.19359261
In      -0.29094658       0.00370480       0.00000983
I       -1.43376768       2.01809690       1.67779150
I        5.45831282       5.63955215       6.70939686
I        0.93185617       2.00096596       6.70940318
I        3.09268761       5.65664600       1.67779782
I       -2.34217731       7.63681348       1.67779407
I        6.36672813       0.02081524       6.70939943
Cs      -0.16455877      10.20400007       0.02669242
Cs      -4.64461027      12.75407442       8.36046667
K       -4.70779880       7.65393090       4.19359261
In      -4.70780491       7.65392784       0.00000983
I       -5.85062601       9.66831994       1.67779150
I        1.04145449      13.28977518       6.70939686
I       -3.48500216       9.65118899       6.70940318
I       -1.32417072      13.30686903       1.67779782
I       -6.75903564      15.28703652       1.67779407
I        1.94986980       7.67103828       6.70939943
Cs      13.27559574       2.55377703       0.02669242
Cs       8.79554424       5.10385138       8.36046667
K        8.73235570       0.00370786       4.19359261
In       8.73234959       0.00370480       0.00000983
I        7.58952849       2.01809690       1.67779150
I       14.48160899       5.63955215       6.70939686
I        9.95515234       2.00096596       6.70940318
I       12.11598378       5.65664600       1.67779782
I        6.68111886       7.63681348       1.67779407
I       15.39002430       0.02081524       6.70939943
Cs       8.85873741      10.20400007       0.02669242
Cs       4.37868591      12.75407442       8.36046667
K        4.31549737       7.65393090       4.19359261
In       4.31549126       7.65392784       0.00000983
I        3.17267016       9.66831994       1.67779150
I       10.06475066      13.28977518       6.70939686
I        5.53829401       9.65118899       6.70940318
I        7.69912545      13.30686903       1.67779782
I        2.26426053      15.28703652       1.67779407
I       10.97316597       7.67103828       6.70939943
