40
Lattice="18.597559062772614 -0.11371865596114067 -0.0003998628478659265 -9.199795795377135 16.161619777619517 0.0003432062490792289 -0.0004989654461309626 3.128232027065341e-05 8.828802937587504" Properties=species:S:1:pos:R:3:spacegroup_kinds:I:1:forces:R:3 spacegroup="P 1" unit_cell=conventional occupancy="_JSON {\"0\": {\"Cs\": 1.0}, \"1\": {\"Cs\": 1.0}, \"2\": {\"K\": 1.0}, \"3\": {\"In\": 1.0}, \"4\": {\"I\": 1.0}, \"5\": {\"I\": 1.0}, \"6\": {\"I\": 1.0}, \"7\": {\"I\": 1.0}, \"8\": {\"I\": 1.0}, \"9\": {\"I\": 1.0}, \"10\": {\"Cs\": 1.0}, \"11\": {\"Cs\": 1.0}, \"12\": {\"K\": 1.0}, \"13\": {\"In\": 1.0}, \"14\": {\"I\": 1.0}, \"15\": {\"I\": 1.0}, \"16\": {\"I\": 1.0}, \"17\": {\"I\": 1.0}, \"18\": {\"I\": 1.0}, \"19\": {\"I\": 1.0}, \"20\": {\"Cs\": 1.0}, \"21\": {\"Cs\": 1.0}, \"22\": {\"K\": 1.0}, \"23\": {\"In\": 1.0}, \"24\": {\"I\": 1.0}, \"25\": {\"I\": 1.0}, \"26\": {\"I\": 1.0}, \"27\": {\"I\": 1.0}, \"28\": {\"I\": 1.0}, \"29\": {\"I\": 1.0}, \"30\": {\"Cs\": 1.0}, \"31\": {\"Cs\": 1.0}, \"32\": {\"K\": 1.0}, \"33\": {\"In\": 1.0}, \"34\": {\"I\": 1.0}, \"35\": {\"I\": 1.0}, \"36\": {\"I\": 1.0}, \"37\": {\"I\": 1.0}, \"38\": {\"I\": 1.0}, \"39\": {\"I\": 1.0}}" energy=-103.17526661322074 free_energy=-103.17526661322074 stress="-1.2553988706989622e-07 6.488218509183392e-07 2.8818469449789694e-07 6.488218509183392e-07 -2.832653550271452e-06 8.210383269919491e-07 2.8818469449789694e-07 8.210383269919491e-07 6.969185187163593e-07" pbc="T T T"
Cs       4.36625043       2.66124515       0.01977031        0      -0.00023407      -0.00001641       0.00029351
Cs      -0.26759077       5.37418202       8.80857243        1       0.00029853      -0.00002507       0.00008669
K       18.29741039      -0.10786211       4.41414271        2       0.00002595      -0.00002305      -0.00017942
In      18.29779807      -0.10811445      -0.00034826        3      -0.00031772       0.00048082       0.00026956
I       17.10272300       2.01729685       1.76616524        4       0.00016703      -0.00009516      -0.00031972
I        5.59349007       5.90435538       7.06235931        5      -0.00005601       0.00007267      -0.00014968
I        0.94293015       2.10324055       7.06272978        6      -0.00001220      -0.00008997      -0.00023513
I        3.15569822       5.93229127       1.76614960        7       0.00003545      -0.00021262       0.00019064
I       -2.46168629       8.05851823       1.76683858        8      -0.00014965       0.00019172      -0.00023078
I        6.56042448      -0.02304365       7.06198653        9       0.00024269      -0.00028295       0.00027433
Cs      -0.23364747      10.74205504       0.01994192       10      -0.00023407      -0.00001641       0.00029351
Cs      -4.86748866      13.45499191       8.80874404       11       0.00029853      -0.00002507       0.00008669
K       13.69751250       7.97294778       4.41431431       12       0.00002595      -0.00002305      -0.00017942
In      13.69790017       7.97269544      -0.00017665       13      -0.00031772       0.00048082       0.00026956
I       12.50282511      10.09810674       1.76633684       14       0.00016703      -0.00009516      -0.00031972
I        0.99359217      13.98516527       7.06253091       15      -0.00005601       0.00007267      -0.00014968
I       -3.65696775      10.18405044       7.06290138       16      -0.00001220      -0.00008997      -0.00023513
I       -1.44419968      14.01310116       1.76632120       17       0.00003545      -0.00021262       0.00019064
I       -7.06158419      16.13932811       1.76701019       18      -0.00014965       0.00019172      -0.00023078
I        1.96052658       8.05776624       7.06215814       19       0.00024269      -0.00028295       0.00027433
Cs      13.66502996       2.60438582       0.01957038       20      -0.00023407      -0.00001641       0.00029351
Cs       9.03118876       5.31732269       8.80837250       21       0.00029853      -0.00002507       0.00008669
K        8.99863086      -0.05100278       4.41434264       22       0.00002595      -0.00002305      -0.00017942
In       8.99901854      -0.05125512      -0.00014832       23      -0.00031772       0.00048082       0.00026956
I        7.80394347       2.07415618       1.76636517       24       0.00016703      -0.00009516      -0.00031972
I       14.89226960       5.84749605       7.06215938       25      -0.00005601       0.00007267      -0.00014968
I       10.24170968       2.04638123       7.06252985       26      -0.00001220      -0.00008997      -0.00023513
I       12.45447775       5.87543194       1.76594967       27       0.00003545      -0.00021262       0.00019064
I        6.83709324       8.00165890       1.76663865       28      -0.00014965       0.00019172      -0.00023078
I       15.85920401      -0.07990298       7.06178660       29       0.00024269      -0.00028295       0.00027433
Cs       9.06513206      10.68519571       0.01974199       30      -0.00023407      -0.00001641       0.00029351
Cs       4.43129087      13.39813258       8.80854411       31       0.00029853      -0.00002507       0.00008669
K        4.39873296       8.02980711       4.41451424       32       0.00002595      -0.00002305      -0.00017942
In       4.39912064       8.02955477       0.00002328       33      -0.00031772       0.00048082       0.00026956
I        3.20404558      10.15496607       1.76653677       34       0.00016703      -0.00009516      -0.00031972
I       10.29237171      13.92830594       7.06233098       35      -0.00005601       0.00007267      -0.00014968
I        5.64181178      10.12719111       7.06270145       36      -0.00001220      -0.00008997      -0.00023513
I        7.85457985      13.95624183       1.76612127       37       0.00003545      -0.00021262       0.00019064
I        2.23719535      16.08246879       1.76681026       38      -0.00014965       0.00019172      -0.00023078
I       11.25930611       8.00090691       7.06195821       39       0.00024269      -0.00028295       0.00027433
