10
Lattice="12.774505043886304 1.2935161932734437e-11 4.883845835551292e-16 6.467581133754879e-12 6.387252521943211 1.4697794298946779e-15 2.442470019931916e-16 1.4697849928807586e-15 6.387252521905196" Properties=species:S:1:pos:R:3:spacegroup_kinds:I:1:forces:R:3 spacegroup="P 1" unit_cell=conventional occupancy="_JSON {\"0\": {\"Cs\": 1.0}, \"1\": {\"Pb\": 1.0}, \"2\": {\"I\": 1.0}, \"3\": {\"I\": 1.0}, \"4\": {\"I\": 1.0}, \"5\": {\"Cs\": 1.0}, \"6\": {\"Pb\": 1.0}, \"7\": {\"I\": 1.0}, \"8\": {\"I\": 1.0}, \"9\": {\"I\": 1.0}}" energy=-27.961484650955516 free_energy=-27.961484650955516 stress="8.833028694419152e-06 -3.197046329176665e-13 -2.7429791870892327e-18 -3.197046329176665e-13 8.83302869588069e-06 1.1848692817005083e-17 -2.7429791870892327e-18 1.1848692817005083e-17 8.833030124185485e-06" pbc="T T T"
Cs       3.19366209       3.19359043       3.19362626        0       0.00000193      -0.00000193      -0.00000000
Pb       0.00000009      -0.00000009       0.00000000        1       0.00000371      -0.00000371      -0.00000000
I       -0.00000316       0.00000316       3.19362626        2      -0.00000118       0.00000118       0.00000000
I        3.19362858       0.00000316       0.00000000        3      -0.00000328       0.00000118       0.00000000
I       -0.00000316       3.19362394       0.00000000        4      -0.00000118       0.00000328       0.00000000
Cs       9.58091461       3.19359043       3.19362626        5       0.00000193      -0.00000193      -0.00000000
Pb       6.38725261      -0.00000009      -0.00000000        6       0.00000371      -0.00000371      -0.00000000
I        6.38724936       0.00000316       3.19362626        7      -0.00000118       0.00000118       0.00000000
I        9.58088110       0.00000316       0.00000000        8      -0.00000328       0.00000118       0.00000000
I        6.38724936       3.19362394       0.00000000        9      -0.00000118       0.00000328       0.00000000
