40
Lattice="16.73756840674311 0.0 0.0 -0.3688410713156265 16.73350388993638 0.0 3.2694355731413984 0.07206512917597185 7.241591253353508" Properties=species:S:1:pos:R:3 pbc="T T T"
Cs       2.61867545       2.82617368       0.02291717
Cs       3.01622163       5.68669718       7.21839090
K        1.63471779       0.03603256       3.62079563
In      -2.90946584       0.03704801       0.00009828
I       -2.28527874       2.25459958       1.44862830
I        7.92015094       6.25847760       5.79297255
I        1.86138156       2.27893195       5.79303569
I        3.77347704       6.23377429       1.44869144
I       -0.25454937       8.39948128       1.44865392
I        5.88947830       0.11339266       5.79299816
Cs       2.43425492      11.19292562       0.02291717
Cs       2.83180110      14.05344913       7.21839090
K        1.45029725       8.40278451       3.62079563
In      -3.09388637       8.40379996       0.00009828
I       -2.46969927      10.62135152       1.44862830
I        7.73573041      14.62522954       5.79297255
I        1.67696103      10.64568390       5.79303569
I        3.58905650      14.60052624       1.44869144
I       -0.43896991      16.76623322       1.44865392
I        5.70505776       8.48014461       5.79299816
Cs      10.98745966       2.82617368       0.02291717
Cs      11.38500583       5.68669718       7.21839090
K       10.00350199       0.03603256       3.62079563
In       5.45931836       0.03704801       0.00009828
I        6.08350546       2.25459958       1.44862830
I       16.28893514       6.25847760       5.79297255
I       10.23016577       2.27893195       5.79303569
I       12.14226124       6.23377429       1.44869144
I        8.11423483       8.39948128       1.44865392
I       14.25826250       0.11339266       5.79299816
Cs      10.80303912      11.19292562       0.02291717
Cs      11.20058530      14.05344913       7.21839090
K        9.81908145       8.40278451       3.62079563
In       5.27489783       8.40379996       0.00009828
I        5.89908493      10.62135152       1.44862830
I       16.10451461      14.62522954       5.79297255
I       10.04574523      10.64568390       5.79303569
I       11.95784070      14.60052624       1.44869144
I        7.92981429      16.76623322       1.44865392
I       14.07384197       8.48014461       5.79299816
