40
Lattice="12.774120739070614 0.0 0.0 0.0 12.774120739070613 0.0 0.0 0.0 12.774120739070613" Properties=species:S:1:pos:R:3:spacegroup_kinds:I:1:forces:R:3 spacegroup="P 1" unit_cell=conventional occupancy="_JSON {\"0\": {\"Cs\": 1.0}, \"1\": {\"Pb\": 1.0}, \"2\": {\"I\": 1.0}, \"3\": {\"I\": 1.0}, \"4\": {\"I\": 1.0}, \"5\": {\"Cs\": 1.0}, \"6\": {\"Pb\": 1.0}, \"7\": {\"I\": 1.0}, \"8\": {\"I\": 1.0}, \"9\": {\"I\": 1.0}, \"10\": {\"Cs\": 1.0}, \"11\": {\"Pb\": 1.0}, \"12\": {\"I\": 1.0}, \"13\": {\"I\": 1.0}, \"14\": {\"I\": 1.0}, \"15\": {\"Cs\": 1.0}, \"16\": {\"Pb\": 1.0}, \"17\": {\"I\": 1.0}, \"18\": {\"I\": 1.0}, \"19\": {\"I\": 1.0}, \"20\": {\"Cs\": 1.0}, \"21\": {\"Pb\": 1.0}, \"22\": {\"I\": 1.0}, \"23\": {\"I\": 1.0}, \"24\": {\"I\": 1.0}, \"25\": {\"Cs\": 1.0}, \"26\": {\"Pb\": 1.0}, \"27\": {\"I\": 1.0}, \"28\": {\"I\": 1.0}, \"29\": {\"I\": 1.0}, \"30\": {\"Cs\": 1.0}, \"31\": {\"Pb\": 1.0}, \"32\": {\"I\": 1.0}, \"33\": {\"I\": 1.0}, \"34\": {\"I\": 1.0}, \"35\": {\"Cs\": 1.0}, \"36\": {\"Pb\": 1.0}, \"37\": {\"I\": 1.0}, \"38\": {\"I\": 1.0}, \"39\": {\"I\": 1.0}}" energy=-111.84593941889854 free_energy=-111.84593941889854 stress="-1.7495541202628545e-07 -1.0430664337596069e-12 -9.53653839676919e-19 -1.0430664337596069e-12 -1.7495541217854256e-07 4.449367883787935e-18 -9.53653839676919e-19 4.449367883787935e-18 -1.7495159290753724e-07" pbc="T T T"
Cs       3.19358977       3.19347060       3.19353018        0       0.00000235      -0.00000235      -0.00000000
Pb       0.00000000       0.00000000       0.00000000        1       0.00000243      -0.00000243      -0.00000000
I        0.00000000       0.00000000       3.19353018        2      -0.00000380       0.00000380      -0.00000000
I        3.19353018       0.00000000       0.00000000        3       0.00000282       0.00000380       0.00000000
I        0.00000000       3.19353018       0.00000000        4      -0.00000380      -0.00000282       0.00000000
Cs       3.19358977       3.19347060       9.58059055        5       0.00000235      -0.00000235      -0.00000000
Pb       0.00000000       0.00000000       6.38706037        6       0.00000243      -0.00000243      -0.00000000
I        0.00000000       0.00000000       9.58059055        7      -0.00000380       0.00000380      -0.00000000
I        3.19353018       0.00000000       6.38706037        8       0.00000282       0.00000380       0.00000000
I        0.00000000       3.19353018       6.38706037        9      -0.00000380      -0.00000282       0.00000000
Cs       3.19358977       9.58053097       3.19353018       10       0.00000235      -0.00000235      -0.00000000
Pb       0.00000000       6.38706037       0.00000000       11       0.00000243      -0.00000243      -0.00000000
I        0.00000000       6.38706037       3.19353018       12      -0.00000380       0.00000380      -0.00000000
I        3.19353018       6.38706037       0.00000000       13       0.00000282       0.00000380       0.00000000
I        0.00000000       9.58059055       0.00000000       14      -0.00000380      -0.00000282       0.00000000
Cs       3.19358977       9.58053097       9.58059055       15       0.00000235      -0.00000235      -0.00000000
Pb       0.00000000       6.38706037       6.38706037       16       0.00000243      -0.00000243      -0.00000000
I        0.00000000       6.38706037       9.58059055       17      -0.00000380       0.00000380      -0.00000000
I        3.19353018       6.38706037       6.38706037       18       0.00000282       0.00000380       0.00000000
I        0.00000000       9.58059055       6.38706037       19      -0.00000380      -0.00000282       0.00000000
Cs       9.58065014       3.19347060       3.19353018       20       0.00000235      -0.00000235      -0.00000000
Pb       6.38706037       0.00000000       0.00000000       21       0.00000243      -0.00000243      -0.00000000
I        6.38706037       0.00000000       3.19353018       22      -0.00000380       0.00000380      -0.00000000
I        9.58059055       0.00000000       0.00000000       23       0.00000282       0.00000380       0.00000000
I        6.38706037       3.19353018       0.00000000       24      -0.00000380      -0.00000282       0.00000000
Cs       9.58065014       3.19347060       9.58059055       25       0.00000235      -0.00000235      -0.00000000
Pb       6.38706037       0.00000000       6.38706037       26       0.00000243      -0.00000243      -0.00000000
I        6.38706037       0.00000000       9.58059055       27      -0.00000380       0.00000380      -0.00000000
I        9.58059055       0.00000000       6.38706037       28       0.00000282       0.00000380       0.00000000
I        6.38706037       3.19353018       6.38706037       29      -0.00000380      -0.00000282       0.00000000
Cs       9.58065014       9.58053097       3.19353018       30       0.00000235      -0.00000235      -0.00000000
Pb       6.38706037       6.38706037       0.00000000       31       0.00000243      -0.00000243      -0.00000000
I        6.38706037       6.38706037       3.19353018       32      -0.00000380       0.00000380      -0.00000000
I        9.58059055       6.38706037       0.00000000       33       0.00000282       0.00000380       0.00000000
I        6.38706037       9.58059055       0.00000000       34      -0.00000380      -0.00000282       0.00000000
Cs       9.58065014       9.58053097       9.58059055       35       0.00000235      -0.00000235      -0.00000000
Pb       6.38706037       6.38706037       6.38706037       36       0.00000243      -0.00000243      -0.00000000
I        6.38706037       6.38706037       9.58059055       37      -0.00000380       0.00000380      -0.00000000
I        9.58059055       6.38706037       6.38706037       38       0.00000282       0.00000380       0.00000000
I        6.38706037       9.58059055       6.38706037       39      -0.00000380      -0.00000282       0.00000000
