20
Lattice="18.47865408841195 -0.05750400706578321 -0.025869146029065638 4.601943857963813 7.942716122629369 0.020418669226595843 4.579951805680421 2.6531085530891247 6.942467102210433" Properties=species:S:1:pos:R:3:spacegroup_kinds:I:1:forces:R:3 spacegroup="P 1" unit_cell=conventional occupancy="_JSON {\"0\": {\"Cs\": 1.0}, \"1\": {\"Cs\": 1.0}, \"2\": {\"K\": 1.0}, \"3\": {\"In\": 1.0}, \"4\": {\"I\": 1.0}, \"5\": {\"I\": 1.0}, \"6\": {\"I\": 1.0}, \"7\": {\"I\": 1.0}, \"8\": {\"I\": 1.0}, \"9\": {\"I\": 1.0}, \"10\": {\"Cs\": 1.0}, \"11\": {\"Cs\": 1.0}, \"12\": {\"K\": 1.0}, \"13\": {\"In\": 1.0}, \"14\": {\"I\": 1.0}, \"15\": {\"I\": 1.0}, \"16\": {\"I\": 1.0}, \"17\": {\"I\": 1.0}, \"18\": {\"I\": 1.0}, \"19\": {\"I\": 1.0}}" energy=-51.29789332501227 free_energy=-51.29789332501227 stress="-1.5440725285002674e-06 -2.1330741583230862e-07 -1.3040529562383372e-06 -2.1330741583230862e-07 6.89986603644544e-07 1.2930823356821118e-06 -1.3040529562383372e-06 1.2930823356821118e-06 9.699681247163903e-08" pbc="T T T"
Cs       4.58723277       2.63541501       1.92737477        0      -0.00014631       0.00027448      -0.00016386
Cs      13.83402421       7.93122508       5.02309304        1       0.00009886       0.00027775      -0.00004833
K        9.21089131       5.28339765       3.47468245        2      -0.00033165       0.00023905       0.00020570
In      18.47869648      -0.05739145      -0.02603026        3      -0.00005398      -0.00039679       0.00047723
I        6.97267291       3.19207359       5.24912883        4       0.00026000      -0.00014249       0.00012219
I       11.44815830       7.37537312       1.70039716        5       0.00023095      -0.00017565      -0.00001973
I        9.92548963       2.32253179       1.67855089        6      -0.00027175      -0.00032820      -0.00031521
I        8.49585239       8.24450175       5.27168493        7       0.00011552      -0.00011244      -0.00015406
I        6.25180012       6.18578534       1.76004839        8       0.00008588      -0.00016560      -0.00021001
I       12.16933817       4.38161673       5.18989548        9       0.00011775      -0.00026775       0.00039915
Cs      13.82651171       2.60660132       1.91436369       10      -0.00001497       0.00017548      -0.00013351
Cs      23.07340679       7.90250336       5.01018843       11      -0.00005903       0.00035294      -0.00006582
K       18.45018492       5.25465341       3.46174424       12      -0.00019188       0.00017429       0.00015633
In       9.23923907      -0.02877925      -0.01288200       13       0.00033479       0.00027791      -0.00042606
I       16.21192892       3.16338885       5.23617027       14       0.00004774      -0.00023011       0.00038282
I       20.68766083       7.34660541       1.68749263       15       0.00002549      -0.00024578       0.00004871
I       19.16472863       2.29364454       1.66560304       16       0.00005961       0.00020875      -0.00008677
I       17.73528993       8.21570962       5.25864505       17      -0.00009702       0.00004167       0.00007023
I       15.49116731       6.15691117       1.74702613       18      -0.00009142      -0.00001287      -0.00010514
I       21.40865533       4.35286282       5.17716895       19      -0.00011859       0.00005535      -0.00013385
