20
Lattice="12.774120739070614 0.0 0.0 0.0 12.774120739070613 0.0 0.0 0.0 6.387060369535306" Properties=species:S:1:pos:R:3:spacegroup_kinds:I:1:forces:R:3 spacegroup="P 1" unit_cell=conventional occupancy="_JSON {\"0\": {\"Cs\": 1.0}, \"1\": {\"Pb\": 1.0}, \"2\": {\"I\": 1.0}, \"3\": {\"I\": 1.0}, \"4\": {\"I\": 1.0}, \"5\": {\"Cs\": 1.0}, \"6\": {\"Pb\": 1.0}, \"7\": {\"I\": 1.0}, \"8\": {\"I\": 1.0}, \"9\": {\"I\": 1.0}, \"10\": {\"Cs\": 1.0}, \"11\": {\"Pb\": 1.0}, \"12\": {\"I\": 1.0}, \"13\": {\"I\": 1.0}, \"14\": {\"I\": 1.0}, \"15\": {\"Cs\": 1.0}, \"16\": {\"Pb\": 1.0}, \"17\": {\"I\": 1.0}, \"18\": {\"I\": 1.0}, \"19\": {\"I\": 1.0}}" energy=-55.92296971066291 free_energy=-55.92296971066291 stress="-1.749654584997727e-07 -3.2984069581312276e-12 -8.992336590252494e-18 -3.2984069581312276e-12 -1.7496545897259303e-07 3.480469252613264e-18 -8.992336590252494e-18 3.480469252613264e-18 -1.7495338151623466e-07" pbc="T T T"
Cs       3.19363615       3.19342422       3.19353018        0       0.00000419      -0.00000419      -0.00000000
Pb       0.00000000       0.00000000       0.00000000        1       0.00000432      -0.00000432      -0.00000000
I        0.00000000       0.00000000       3.19353018        2      -0.00000676       0.00000676      -0.00000000
I        3.19353018       0.00000000       0.00000000        3       0.00000501       0.00000676       0.00000000
I        0.00000000       3.19353018       0.00000000        4      -0.00000676      -0.00000501       0.00000000
Cs       3.19363615       9.58048459       3.19353018        5       0.00000419      -0.00000419      -0.00000000
Pb       0.00000000       6.38706037       0.00000000        6       0.00000432      -0.00000432      -0.00000000
I        0.00000000       6.38706037       3.19353018        7      -0.00000676       0.00000676      -0.00000000
I        3.19353018       6.38706037       0.00000000        8       0.00000501       0.00000676       0.00000000
I        0.00000000       9.58059055       0.00000000        9      -0.00000676      -0.00000501       0.00000000
Cs       9.58069652       3.19342422       3.19353018       10       0.00000419      -0.00000419      -0.00000000
Pb       6.38706037       0.00000000       0.00000000       11       0.00000432      -0.00000432      -0.00000000
I        6.38706037       0.00000000       3.19353018       12      -0.00000676       0.00000676      -0.00000000
I        9.58059055       0.00000000       0.00000000       13       0.00000501       0.00000676       0.00000000
I        6.38706037       3.19353018       0.00000000       14      -0.00000676      -0.00000501       0.00000000
Cs       9.58069652       9.58048459       3.19353018       15       0.00000419      -0.00000419      -0.00000000
Pb       6.38706037       6.38706037       0.00000000       16       0.00000432      -0.00000432      -0.00000000
I        6.38706037       6.38706037       3.19353018       17      -0.00000676       0.00000676      -0.00000000
I        9.58059055       6.38706037       0.00000000       18       0.00000501       0.00000676       0.00000000
I        6.38706037       9.58059055       0.00000000       19      -0.00000676      -0.00000501       0.00000000
