20
Lattice="10.042563371181082 0.36753260065501264 0.5293217918091038 -4.129979585636674 7.85841261428226 0.3486008028225531 -3.8047702550608116 -3.665097533135758 12.801239396805485" Properties=species:S:1:pos:R:3:spacegroup_kinds:I:1:forces:R:3 spacegroup="P 1" unit_cell=conventional occupancy="_JSON {\"0\": {\"Cs\": 1.0}, \"1\": {\"Cs\": 1.0}, \"2\": {\"Cs\": 1.0}, \"3\": {\"Cs\": 1.0}, \"4\": {\"Pb\": 1.0}, \"5\": {\"Pb\": 1.0}, \"6\": {\"Pb\": 1.0}, \"7\": {\"Pb\": 1.0}, \"8\": {\"I\": 1.0}, \"9\": {\"I\": 1.0}, \"10\": {\"I\": 1.0}, \"11\": {\"I\": 1.0}, \"12\": {\"I\": 1.0}, \"13\": {\"I\": 1.0}, \"14\": {\"I\": 1.0}, \"15\": {\"I\": 1.0}, \"16\": {\"I\": 1.0}, \"17\": {\"I\": 1.0}, \"18\": {\"I\": 1.0}, \"19\": {\"I\": 1.0}}" energy=-55.78192562607992 free_energy=-55.78192562607992 stress="-5.952235787248567e-06 -3.560532904758176e-06 -1.3815564010682537e-06 -3.560532904758176e-06 6.522904538411571e-06 2.4169205478639065e-06 -1.3815564010682537e-06 2.4169205478639065e-06 -4.261302132307794e-06" pbc="T T T"
Cs       1.31954559       6.98786134       3.65267950        0      -0.00017921      -0.00007246       0.00030331
Cs      -3.29404296       4.54600256       2.81654826        1      -0.00005028      -0.00010627       0.00001788
Cs       4.12570415      -2.38478183       8.79039378        2      -0.00000758       0.00004245       0.00030433
Cs      -5.96474362       1.72187600      10.55142266        3      -0.00021694       0.00010689      -0.00018516
Pb      -0.78464739       1.06263161       0.42006201        4      -0.00025496      -0.00048093      -0.00019256
Pb       3.11288470       3.04095600       0.17856912        5       0.00031179       0.00002086      -0.00030056
Pb      -0.86167323      -1.26649839       7.64007508        6       0.00012918      -0.00041594      -0.00025119
Pb       2.42819198       1.82968121       6.17975589        7      -0.00051072       0.00028120       0.00037901
I        0.22160324       4.14029148       1.02355817        8       0.00002764       0.00004891       0.00005573
I        2.28115007      -0.03425338       0.53056370        9      -0.00012144       0.00010621       0.00001937
I        8.57247468       1.25057242       3.87652779       10      -0.00035775       0.00016169      -0.00007323
I        2.59908788      -1.19911454      12.56617313       11      -0.00022940       0.00003674      -0.00006765
I        0.43946802       2.57182022      13.33756847       12       0.00009386       0.00042347       0.00012612
I        3.71996964       2.74058538       3.21570048       13       0.00035399      -0.00012081      -0.00067009
I       -3.58867978       4.44744226       9.47572619       14      -0.00031780       0.00022749      -0.00001607
I        1.92661103      -1.28779411       5.56567480       15       0.00030105      -0.00014297      -0.00014216
I       -2.81098687      -0.98416321      10.12116880       16       0.00024094      -0.00014273       0.00001480
I        5.11065224       1.13605473       7.26101269       17       0.00053809       0.00005003       0.00037881
I        3.03941171       5.05796959       6.79198166       18      -0.00009581      -0.00001315      -0.00013763
I        0.77048349       1.42008050       8.84540522       19       0.00034535      -0.00001069       0.00043693
