80
Lattice="18.840720270382533 0.0 0.0 9.420360135270556 16.316542379702263 0.0 9.420360135422866 5.4388474600189864 15.383384105236841" Properties=species:S:1:pos:R:3 pbc="T T T"
Cs       4.71014762       2.71941400       1.92292409
Cs      14.13057256       8.15828067       5.76876779
K        9.42036017       5.43884737       3.84584600
In       0.00000011       0.00000024       0.00000009
I        7.22176499       3.52762654       5.34612528
I       11.61895538       7.35006804       2.34556668
I       10.06479920       2.98371329       1.78753187
I        8.77592080       7.89398124       5.90416004
I        6.89960852       6.89432819       1.78753867
I       11.94111208       3.98336718       5.90415363
Cs       9.42032768       5.43883773       9.61461615
Cs      18.84075263      10.87770440      13.46045984
K       14.13054023       8.15827110      11.53753805
In       4.71018018       2.71942397       7.69169214
I       11.93194506       6.24705027      13.03781733
I       16.32913545      10.06949177      10.03725873
I       14.77497927       5.70313702       9.47922393
I       13.48610087      10.61340497      13.59585209
I       11.60978858       9.61375192       9.47923072
I       16.65129215       6.70279091      13.59584569
Cs       9.42032768      10.87768519       1.92292409
Cs      18.84075263      16.31655186       5.76876779
K       14.13054023      13.59711856       3.84584600
In       4.71018018       8.15827143       0.00000009
I       11.93194506      11.68589773       5.34612528
I       16.32913545      15.50833923       2.34556668
I       14.77497927      11.14198448       1.78753187
I       13.48610086      16.05225243       5.90416004
I       11.60978858      15.05259938       1.78753867
I       16.65129215      12.14163837       5.90415363
Cs      14.13050775      13.59710892       9.61461615
Cs      23.55093270      19.03597559      13.46045984
K       18.84072030      16.31654229      11.53753805
In       9.42036024      10.87769516       7.69169214
I       16.64212512      14.40532146      13.03781733
I       21.03931551      18.22776296      10.03725873
I       19.48515933      13.86140821       9.47922393
I       18.19628093      18.77167616      13.59585209
I       16.31996865      17.77202311       9.47923072
I       21.36147222      14.86106210      13.59584569
Cs      14.13050775       2.71941400       1.92292409
Cs      23.55093270       8.15828067       5.76876779
K       18.84072030       5.43884737       3.84584600
In       9.42036024       0.00000024       0.00000009
I       16.64212512       3.52762654       5.34612528
I       21.03931551       7.35006804       2.34556668
I       19.48515933       2.98371329       1.78753187
I       18.19628093       7.89398124       5.90416004
I       16.31996865       6.89432819       1.78753867
I       21.36147222       3.98336718       5.90415363
Cs      18.84068782       5.43883773       9.61461615
Cs      28.26111276      10.87770440      13.46045984
K       23.55090037       8.15827110      11.53753805
In      14.13054031       2.71942397       7.69169214
I       21.35230519       6.24705027      13.03781733
I       25.74949558      10.06949177      10.03725873
I       24.19533940       5.70313702       9.47922393
I       22.90646100      10.61340497      13.59585209
I       21.03014872       9.61375192       9.47923072
I       26.07165228       6.70279091      13.59584569
Cs      18.84068782      10.87768519       1.92292409
Cs      28.26111276      16.31655186       5.76876779
K       23.55090037      13.59711856       3.84584600
In      14.13054031       8.15827143       0.00000009
I       21.35230519      11.68589773       5.34612528
I       25.74949558      15.50833923       2.34556668
I       24.19533940      11.14198448       1.78753187
I       22.90646100      16.05225243       5.90416004
I       21.03014872      15.05259938       1.78753867
I       26.07165228      12.14163837       5.90415363
Cs      23.55086789      13.59710892       9.61461615
Cs      32.97129283      19.03597559      13.46045984
K       28.26108044      16.31654229      11.53753805
In      18.84072038      10.87769516       7.69169214
I       26.06248526      14.40532146      13.03781733
I       30.45967565      18.22776296      10.03725873
I       28.90551947      13.86140821       9.47922393
I       27.61664107      18.77167616      13.59585209
I       25.74032879      17.77202311       9.47923072
I       30.78183235      14.86106210      13.59584569
