80
Lattice="18.445689549625655 0.05662511482442865 0.0905721103731716 9.29115543960997 15.970730635185127 0.07634001756901634 9.284095079453932 5.354367412468977 13.935985807004116" Properties=species:S:1:pos:R:3:spacegroup_kinds:I:1:forces:R:3 spacegroup="P 1" unit_cell=conventional occupancy="_JSON {\"0\": {\"Cs\": 1.0}, \"1\": {\"Cs\": 1.0}, \"2\": {\"K\": 1.0}, \"3\": {\"In\": 1.0}, \"4\": {\"I\": 1.0}, \"5\": {\"I\": 1.0}, \"6\": {\"I\": 1.0}, \"7\": {\"I\": 1.0}, \"8\": {\"I\": 1.0}, \"9\": {\"I\": 1.0}, \"10\": {\"Cs\": 1.0}, \"11\": {\"Cs\": 1.0}, \"12\": {\"K\": 1.0}, \"13\": {\"In\": 1.0}, \"14\": {\"I\": 1.0}, \"15\": {\"I\": 1.0}, \"16\": {\"I\": 1.0}, \"17\": {\"I\": 1.0}, \"18\": {\"I\": 1.0}, \"19\": {\"I\": 1.0}, \"20\": {\"Cs\": 1.0}, \"21\": {\"Cs\": 1.0}, \"22\": {\"K\": 1.0}, \"23\": {\"In\": 1.0}, \"24\": {\"I\": 1.0}, \"25\": {\"I\": 1.0}, \"26\": {\"I\": 1.0}, \"27\": {\"I\": 1.0}, \"28\": {\"I\": 1.0}, \"29\": {\"I\": 1.0}, \"30\": {\"Cs\": 1.0}, \"31\": {\"Cs\": 1.0}, \"32\": {\"K\": 1.0}, \"33\": {\"In\": 1.0}, \"34\": {\"I\": 1.0}, \"35\": {\"I\": 1.0}, \"36\": {\"I\": 1.0}, \"37\": {\"I\": 1.0}, \"38\": {\"I\": 1.0}, \"39\": {\"I\": 1.0}, \"40\": {\"Cs\": 1.0}, \"41\": {\"Cs\": 1.0}, \"42\": {\"K\": 1.0}, \"43\": {\"In\": 1.0}, \"44\": {\"I\": 1.0}, \"45\": {\"I\": 1.0}, \"46\": {\"I\": 1.0}, \"47\": {\"I\": 1.0}, \"48\": {\"I\": 1.0}, \"49\": {\"I\": 1.0}, \"50\": {\"Cs\": 1.0}, \"51\": {\"Cs\": 1.0}, \"52\": {\"K\": 1.0}, \"53\": {\"In\": 1.0}, \"54\": {\"I\": 1.0}, \"55\": {\"I\": 1.0}, \"56\": {\"I\": 1.0}, \"57\": {\"I\": 1.0}, \"58\": {\"I\": 1.0}, \"59\": {\"I\": 1.0}, \"60\": {\"Cs\": 1.0}, \"61\": {\"Cs\": 1.0}, \"62\": {\"K\": 1.0}, \"63\": {\"In\": 1.0}, \"64\": {\"I\": 1.0}, \"65\": {\"I\": 1.0}, \"66\": {\"I\": 1.0}, \"67\": {\"I\": 1.0}, \"68\": {\"I\": 1.0}, \"69\": {\"I\": 1.0}, \"70\": {\"Cs\": 1.0}, \"71\": {\"Cs\": 1.0}, \"72\": {\"K\": 1.0}, \"73\": {\"In\": 1.0}, \"74\": {\"I\": 1.0}, \"75\": {\"I\": 1.0}, \"76\": {\"I\": 1.0}, \"77\": {\"I\": 1.0}, \"78\": {\"I\": 1.0}, \"79\": {\"I\": 1.0}}" energy=-205.1915740486363 free_energy=-205.1915740486363 stress="2.7042289226058695e-07 6.652801570612235e-07 -5.25402461616734e-07 6.652801570612235e-07 -5.194175718672753e-07 1.4406984267736677e-07 -5.25402461616734e-07 1.4406984267736677e-07 -4.841579378300753e-07" pbc="T T T"
Cs       4.63047638       2.69113810       1.95307019        0      -0.00009185      -0.00007230      -0.00016450
Cs      13.87981123       7.99984636       5.09890259        1      -0.00007725       0.00004620      -0.00017328
K        9.25534568       5.34543177       3.52554516        2      -0.00005643      -0.00020213      -0.00003544
In      18.44573160       0.05673943       0.09046731        3      -0.00063614       0.00012012      -0.00068712
I        6.99224579       3.23033058       5.23382695        4       0.00009043       0.00018848      -0.00014483
I       11.51816812       7.46058350       1.81737409        5      -0.00001362      -0.00012499       0.00029955
I        9.95031975       2.36636048       1.74439714        6       0.00001321      -0.00001701       0.00007216
I        8.56085722       8.32379280       5.30754953        7      -0.00038475       0.00006736      -0.00013282
I        6.33611474       6.21200012       1.72828061        8      -0.00048651       0.00037005      -0.00019632
I       12.17439902       4.47869006       5.32316561        9       0.00009714       0.00001197       0.00011058
Cs       9.27293135       5.36828773       8.91989001       10       0.00000073      -0.00003670       0.00014730
Cs      18.52160858      10.67747212      12.06721708       11       0.00021141      -0.00028302      -0.00005054
K       13.89750572       8.02239669      10.49395311       12      -0.00010107       0.00021217      -0.00010569
In      23.08782949       2.73356606       7.05861840       13      -0.00008955       0.00014600      -0.00001122
I       11.63397617       5.90778812      12.20142878       14       0.00001534       0.00030936      -0.00023767
I       16.16060659      10.13746481       8.78585567       15      -0.00019011      -0.00027870       0.00029163
I       14.59174469       5.04338414       8.71271039       16       0.00001127       0.00031652      -0.00003039
I       13.20247179      11.00156522      12.27484226       17       0.00019542       0.00011949       0.00012300
I       10.97800873       8.88968873       8.69671428       18       0.00033326      -0.00021100       0.00022702
I       16.81682496       7.15619846      12.29106766       19      -0.00001592       0.00019518      -0.00023135
Cs       9.27554726      10.67683724       1.99111137       20       0.00022130       0.00000062      -0.00018938
Cs      18.52601921      15.98522508       5.13720368       21      -0.00002025      -0.00013702      -0.00015244
K       13.90085781      13.33061315       3.56396294       22       0.00010552       0.00018928      -0.00006058
In      23.09120864       8.04201966       0.12853374       23       0.00024761      -0.00045715       0.00008987
I       11.63717239      11.21614507       5.27125251       24      -0.00018466      -0.00013735       0.00035742
I       16.16417345      15.44566081       1.85606443       25       0.00019713      -0.00017913       0.00029161
I       14.59554676      10.35207593       1.78245876       26       0.00011070      -0.00054293      -0.00020576
I       13.20599795      16.30960558       5.34523217       27      -0.00009572      -0.00011499      -0.00005655
I       10.98131595      14.19785657       1.76679584       28      -0.00008203      -0.00040960       0.00027887
I       16.82064300      12.46404157       5.36110396       29      -0.00022475       0.00068606      -0.00023583
Cs      13.91783129      13.35327117       8.95836075       30      -0.00026780       0.00001399       0.00000507
Cs      23.16748448      18.66296442      12.10551478       31       0.00018640      -0.00023913       0.00001646
K       18.54290056      16.00786484      10.53199385       32      -0.00004764       0.00000196      -0.00005037
In      27.73315156      10.71895403       7.09678002       33       0.00050279       0.00046377      -0.00034547
I       16.27924123      13.89331173      12.23912263       34      -0.00017110       0.00017926       0.00026503
I       20.80642052      18.12216357       8.82435516       35       0.00013009       0.00004659      -0.00036138
I       19.23823263      13.02853158       8.75086597       36      -0.00029748       0.00034896       0.00003046
I       17.84787575      18.98696536      12.31312887       37       0.00021973       0.00031709       0.00016668
I       15.62289383      16.87418979       8.73506939       38       0.00013220      -0.00010241       0.00008641
I       21.46302297      15.14192391      12.32860605       39      -0.00018024      -0.00024475      -0.00011096
Cs      13.85334672       2.71960756       1.99855107       40       0.00011633      -0.00012679      -0.00030706
Cs      23.10292716       8.02828721       5.14430923       41       0.00009110      -0.00007702      -0.00009866
K       18.47813439       5.37368705       3.57117108       42       0.00001968       0.00016807      -0.00009077
In       9.22291272       0.02835582       0.04524805       43      -0.00026179      -0.00035777       0.00009028
I       16.21445893       3.25975408       5.27885477       44       0.00037077      -0.00016113      -0.00014877
I       20.74148012       7.48804138       1.86305624       45       0.00022558       0.00006303       0.00007442
I       19.17251733       2.39506135       1.78932148       46       0.00025144       0.00009083       0.00029285
I       17.78317308       8.35267376       5.35234291       47       0.00006061      -0.00002239       0.00005917
I       15.55827192       6.24042181       1.77405277       48      -0.00013303       0.00018100      -0.00002099
I       21.39814472       4.50699545       5.36765871       49       0.00004005       0.00016566       0.00017445
Cs      18.49496525       5.39639329       8.96597562       50      -0.00002279      -0.00016399       0.00000023
Cs      27.74514529      10.70560962      12.11246376       51      -0.00001839       0.00002919      -0.00001527
K       23.12017025       8.05089365      10.53917505       52      -0.00011822      -0.00013562      -0.00006521
In      13.86500797       2.70533161       7.01336539       53      -0.00064788       0.00033625       0.00038359
I       20.85653381       5.93616944      12.24646359       54       0.00011467       0.00001036      -0.00000281
I       25.38376582      10.16528373       8.83157436       55      -0.00038319       0.00031479      -0.00021936
I       23.81512619       5.07164610       8.75772846       56      -0.00017585       0.00008525      -0.00004788
I       22.42517624      11.03003425      12.32028817       57      -0.00003558      -0.00005881      -0.00016752
I       20.20024450       8.91691933       8.74200694       58       0.00005612       0.00034768      -0.00016674
I       26.04020993       7.18482385      12.33552201       59       0.00007160      -0.00070448       0.00029229
Cs      18.49919329      10.70451897       2.03665313       60      -0.00025067      -0.00009108      -0.00026628
Cs      27.74794979      16.01360258       5.18286214       61       0.00007899       0.00001435      -0.00013660
K       23.12358742      13.35917912       3.60897256       62       0.00002908      -0.00009979       0.00000369
In      13.86828232       8.01370339       0.08324958       63       0.00043400       0.00063601       0.00039435
I       20.86037927      11.24444022       5.31713824       64       0.00022958      -0.00011025      -0.00004813
I       25.38684679      15.47385649       1.90098551       65       0.00001087       0.00011439       0.00013467
I       23.81815657      10.38019968       1.82764077       66       0.00008179      -0.00022855       0.00001345
I       22.42944796      16.33798187       5.39046424       67      -0.00026796      -0.00003873       0.00001362
I       20.20424196      14.22544913       1.81179311       68      -0.00017970       0.00014906       0.00006923
I       26.04298839      12.49207073       5.40593348       69      -0.00015318      -0.00012795       0.00013552
Cs      23.14111775      13.38212133       9.00401484       70       0.00031258      -0.00015860       0.00004647
Cs      32.39024534      18.69072213      12.15037383       71       0.00005060       0.00002049      -0.00005606
K       27.76570701      16.03614040      10.57747775       72       0.00002309       0.00027871      -0.00004832
In      18.51050996      10.69079193       7.05155129       73       0.00037453      -0.00060555       0.00034974
I       25.50257713      13.92157822      12.28507684       74      -0.00022425      -0.00014735       0.00006458
I       30.02871292      18.15089499       8.86893178       75       0.00001221       0.00008433       0.00016770
I       28.45993315      13.05770360       8.79515078       76       0.00022829       0.00006874       0.00015741
I       27.07062245      19.01531178      12.35854513       77       0.00019416       0.00007047      -0.00000915
I       24.84653151      16.90302364       8.77986217       78       0.00020620      -0.00029995       0.00023521
I       30.68522412      15.16975071      12.37420883       79      -0.00011829      -0.00007303      -0.00012651
