10
Lattice="8.696986967793812 -0.2516547731367015 -0.18676349543344484 4.131767991081794 7.745718397134892 -0.2059623442827606 4.127858000339129 2.3910918816164304 7.333051755568103" Properties=species:S:1:pos:R:3:spacegroup_kinds:I:1:forces:R:3 spacegroup="P 1" unit_cell=conventional occupancy="_JSON {\"0\": {\"Cs\": 1.0}, \"1\": {\"Cs\": 1.0}, \"2\": {\"K\": 1.0}, \"3\": {\"In\": 1.0}, \"4\": {\"I\": 1.0}, \"5\": {\"I\": 1.0}, \"6\": {\"I\": 1.0}, \"7\": {\"I\": 1.0}, \"8\": {\"I\": 1.0}, \"9\": {\"I\": 1.0}}" energy=-25.648933086868144 free_energy=-25.648933086868144 stress="-2.2169487836621565e-06 -2.559590089824292e-06 8.039775820827568e-07 -2.559590089824292e-06 -1.1287789394602882e-05 -6.655257263009087e-06 8.039775820827568e-07 -6.655257263009087e-06 1.0501552779986466e-05" pbc="T T T"
Cs       4.08516605       2.36971806       1.68559493        0      -0.00007339       0.00024747       0.00075562
Cs      12.87168369       7.51445295       5.25360384        1      -0.00022296       0.00020330       0.00030778
K        8.47803840       4.94280187       3.47073717        2       0.00017277      -0.00015282      -0.00057455
In       8.69694223      -0.25157023      -0.18635901        3       0.00021011      -0.00027264      -0.00024645
I        8.70941625       1.70976549       2.05460154        4       0.00036518       0.00026706      -0.00056278
I        8.24677916       8.17494140       4.88702870        5      -0.00010191       0.00017068      -0.00076782
I        2.42783818       5.92170896       1.42058296        6       0.00010205       0.00011486       0.00044321
I       14.52800518       3.96310653       5.51900522        7       0.00063865       0.00008422       0.00029915
I        6.55920850       6.43664535       0.90247020        8      -0.00062312      -0.00032648       0.00042143
I       10.39866504       3.44997020       6.03743500        9      -0.00046737      -0.00033565      -0.00007560
