80
Lattice="18.84072027038255 0.0 0.0 9.420360135270606 16.31654237970213 0.0 9.420360135422873 5.43884746001908 15.383384105236821" Properties=species:S:1:pos:R:3 pbc="T T T"
Cs       4.70999763       2.71936903       1.92293245
Cs      14.13072222       8.15832451       5.76875870
K        9.42035979       5.43884667       3.84584546
In       0.00000026       0.00000113       0.00000047
I        8.71175457       1.42032360       2.76628353
I       10.12896513       9.45736874       4.92540739
I       13.04426480       5.09064722       1.78738344
I        5.79645284       5.78704500       5.90430728
I        6.90015664       6.89458490       1.78742165
I       11.94056449       3.98311189       5.90427125
Cs       9.42017770       5.43879276       9.61462451
Cs      18.84090229      10.87774824      13.46045075
K       14.13053986       8.15827040      11.53753751
In       4.71018033       2.71942486       7.69169252
I       13.42193464       4.13974733      10.45797558
I       14.83914520      12.17679247      12.61709944
I       17.75444487       7.81007095       9.47907550
I       10.50663291       8.50646873      13.59599933
I       11.61033671       9.61400863       9.47911370
I       16.65074456       6.70253562      13.59596330
Cs       9.42017770      10.87764022       1.92293245
Cs      18.84090229      16.31659570       5.76875870
K       14.13053986      13.59711786       3.84584546
In       4.71018033       8.15827232       0.00000047
I       13.42193464       9.57859479       2.76628353
I       14.83914520      17.61563993       4.92540739
I       17.75444487      13.24891841       1.78738344
I       10.50663291      13.94531618       5.90430728
I       11.61033671      15.05285609       1.78742165
I       16.65074456      12.14138308       5.90427125
Cs      14.13035777      13.59706395       9.61462451
Cs      23.55108236      19.03601943      13.46045075
K       18.84071993      16.31654159      11.53753751
In       9.42036040      10.87769605       7.69169252
I       18.13211470      12.29801852      10.45797558
I       19.54932527      20.33506366      12.61709944
I       22.46462494      15.96834214       9.47907550
I       15.21681298      16.66473991      13.59599933
I       16.32051678      17.77227982       9.47911370
I       21.36092463      14.86080681      13.59596330
Cs      14.13035777       2.71936903       1.92293245
Cs      23.55108236       8.15832451       5.76875870
K       18.84071993       5.43884667       3.84584546
In       9.42036040       0.00000113       0.00000047
I       18.13211470       1.42032360       2.76628353
I       19.54932527       9.45736874       4.92540739
I       22.46462494       5.09064722       1.78738344
I       15.21681298       5.78704500       5.90430728
I       16.32051678       6.89458490       1.78742165
I       21.36092463       3.98311189       5.90427125
Cs      18.84053783       5.43879276       9.61462451
Cs      28.26126242      10.87774824      13.46045075
K       23.55090000       8.15827040      11.53753751
In      14.13054047       2.71942486       7.69169252
I       22.84229477       4.13974733      10.45797558
I       24.25950533      12.17679247      12.61709944
I       27.17480501       7.81007095       9.47907550
I       19.92699305       8.50646873      13.59599933
I       21.03069684       9.61400863       9.47911370
I       26.07110470       6.70253562      13.59596330
Cs      18.84053783      10.87764022       1.92293245
Cs      28.26126242      16.31659570       5.76875870
K       23.55090000      13.59711786       3.84584546
In      14.13054046       8.15827232       0.00000047
I       22.84229477       9.57859479       2.76628353
I       24.25950533      17.61563993       4.92540739
I       27.17480501      13.24891841       1.78738344
I       19.92699305      13.94531618       5.90430728
I       21.03069684      15.05285609       1.78742165
I       26.07110470      12.14138308       5.90427125
Cs      23.55071790      13.59706395       9.61462451
Cs      32.97144249      19.03601943      13.46045075
K       28.26108006      16.31654159      11.53753751
In      18.84072053      10.87769605       7.69169252
I       27.55247484      12.29801852      10.45797558
I       28.96968540      20.33506366      12.61709944
I       31.88498507      15.96834214       9.47907550
I       24.63717311      16.66473991      13.59599933
I       25.74087691      17.77227982       9.47911370
I       30.78128476      14.86080681      13.59596330
