80
Lattice="18.60207704021975 0.0 0.0 14.74732763066001 8.953375830323253 0.0 12.660727695281484 -1.107064095472166 9.031001592771174" Properties=species:S:1:pos:R:3 pbc="T T T"
Cs       5.75113438       0.98074955       1.12890833
Cs      17.25393160       2.94240524       3.38659175
K       11.50253297       1.96157716       2.25774990
In       0.00000027       0.00000065       0.00000029
I       10.03535286      -1.22443470       1.49463265
I       12.96971302       5.14758853       3.02086721
I       13.56864415       1.49788287       2.44384281
I        9.43641952       2.42527130       2.07165634
I        9.93616327       2.05440305      -0.34525332
I       13.06890316       1.86875514       4.86075563
Cs      12.08149823       0.42721750       5.64440913
Cs      23.58429545       2.38887319       7.90209255
K       17.83289682       1.40804511       6.77325070
In       6.33036411      -0.55353140       4.51550109
I       16.36571671      -1.77796674       6.01013344
I       19.30007687       4.59405648       7.53636801
I       19.89900800       0.94435083       6.95934361
I       15.76678337       1.87173925       6.58715713
I       16.26652711       1.50087100       4.17024748
I       19.39926701       1.31522309       9.37625643
Cs      13.12479820       5.45743746       1.12890833
Cs      24.62759542       7.41909316       3.38659175
K       18.87619679       6.43826507       2.25774990
In       7.37366408       4.47668856       0.00000029
I       17.40901668       3.25225322       1.49463265
I       20.34337684       9.62427644       3.02086721
I       20.94230797       5.97457079       2.44384281
I       16.81008334       6.90195921       2.07165634
I       17.30982708       6.53109096      -0.34525332
I       20.44256698       6.34544305       4.86075563
Cs      19.45516205       4.90390542       5.64440913
Cs      30.95795926       6.86556111       7.90209255
K       25.20656064       5.88473303       6.77325070
In      13.70402793       3.92315651       4.51550109
I       23.73938053       2.69872117       6.01013344
I       26.67374068       9.07074440       7.53636801
I       27.27267181       5.42103874       6.95934361
I       23.14044719       6.34842716       6.58715713
I       23.64019093       5.97755892       4.17024748
I       26.77293083       5.79191100       9.37625643
Cs      15.05217290       0.98074955       1.12890833
Cs      26.55497012       2.94240524       3.38659175
K       20.80357149       1.96157716       2.25774990
In       9.30103879       0.00000065       0.00000029
I       19.33639138      -1.22443470       1.49463265
I       22.27075154       5.14758853       3.02086721
I       22.86968267       1.49788287       2.44384281
I       18.73745804       2.42527130       2.07165634
I       19.23720179       2.05440305      -0.34525332
I       22.36994168       1.86875514       4.86075563
Cs      21.38253675       0.42721750       5.64440913
Cs      32.88533397       2.38887319       7.90209255
K       27.13393534       1.40804511       6.77325070
In      15.63140263      -0.55353140       4.51550109
I       25.66675523      -1.77796674       6.01013344
I       28.60111539       4.59405648       7.53636801
I       29.20004652       0.94435083       6.95934361
I       25.06782189       1.87173925       6.58715713
I       25.56756563       1.50087100       4.17024748
I       28.70030553       1.31522309       9.37625643
Cs      22.42583672       5.45743746       1.12890833
Cs      33.92863394       7.41909316       3.38659175
K       28.17723531       6.43826507       2.25774990
In      16.67470260       4.47668856       0.00000029
I       26.71005520       3.25225322       1.49463265
I       29.64441536       9.62427644       3.02086721
I       30.24334649       5.97457079       2.44384281
I       26.11112186       6.90195921       2.07165634
I       26.61086560       6.53109096      -0.34525332
I       29.74360550       6.34544305       4.86075563
Cs      28.75620057       4.90390542       5.64440913
Cs      40.25899779       6.86556111       7.90209255
K       34.50759916       5.88473303       6.77325070
In      23.00506645       3.92315651       4.51550109
I       33.04041905       2.69872117       6.01013344
I       35.97477920       9.07074440       7.53636801
I       36.57371033       5.42103874       6.95934361
I       32.44148571       6.34842716       6.58715713
I       32.94122945       5.97755892       4.17024748
I       36.07396935       5.79191100       9.37625643
