80
Lattice="31.54978397722086 -3.2848749287789936 -4.442125564964782 21.21727801098884 10.243566636939436 -4.429768391366849 19.872819243664228 -1.6848533084633208 7.639831636537695" Properties=species:S:1:pos:R:3:spacegroup_kinds:I:1:forces:R:3 spacegroup="P 1" unit_cell=conventional occupancy="_JSON {\"0\": {\"Cs\": 1.0}, \"1\": {\"Cs\": 1.0}, \"2\": {\"K\": 1.0}, \"3\": {\"In\": 1.0}, \"4\": {\"I\": 1.0}, \"5\": {\"I\": 1.0}, \"6\": {\"I\": 1.0}, \"7\": {\"I\": 1.0}, \"8\": {\"I\": 1.0}, \"9\": {\"I\": 1.0}, \"10\": {\"Cs\": 1.0}, \"11\": {\"Cs\": 1.0}, \"12\": {\"K\": 1.0}, \"13\": {\"In\": 1.0}, \"14\": {\"I\": 1.0}, \"15\": {\"I\": 1.0}, \"16\": {\"I\": 1.0}, \"17\": {\"I\": 1.0}, \"18\": {\"I\": 1.0}, \"19\": {\"I\": 1.0}, \"20\": {\"Cs\": 1.0}, \"21\": {\"Cs\": 1.0}, \"22\": {\"K\": 1.0}, \"23\": {\"In\": 1.0}, \"24\": {\"I\": 1.0}, \"25\": {\"I\": 1.0}, \"26\": {\"I\": 1.0}, \"27\": {\"I\": 1.0}, \"28\": {\"I\": 1.0}, \"29\": {\"I\": 1.0}, \"30\": {\"Cs\": 1.0}, \"31\": {\"Cs\": 1.0}, \"32\": {\"K\": 1.0}, \"33\": {\"In\": 1.0}, \"34\": {\"I\": 1.0}, \"35\": {\"I\": 1.0}, \"36\": {\"I\": 1.0}, \"37\": {\"I\": 1.0}, \"38\": {\"I\": 1.0}, \"39\": {\"I\": 1.0}, \"40\": {\"Cs\": 1.0}, \"41\": {\"Cs\": 1.0}, \"42\": {\"K\": 1.0}, \"43\": {\"In\": 1.0}, \"44\": {\"I\": 1.0}, \"45\": {\"I\": 1.0}, \"46\": {\"I\": 1.0}, \"47\": {\"I\": 1.0}, \"48\": {\"I\": 1.0}, \"49\": {\"I\": 1.0}, \"50\": {\"Cs\": 1.0}, \"51\": {\"Cs\": 1.0}, \"52\": {\"K\": 1.0}, \"53\": {\"In\": 1.0}, \"54\": {\"I\": 1.0}, \"55\": {\"I\": 1.0}, \"56\": {\"I\": 1.0}, \"57\": {\"I\": 1.0}, \"58\": {\"I\": 1.0}, \"59\": {\"I\": 1.0}, \"60\": {\"Cs\": 1.0}, \"61\": {\"Cs\": 1.0}, \"62\": {\"K\": 1.0}, \"63\": {\"In\": 1.0}, \"64\": {\"I\": 1.0}, \"65\": {\"I\": 1.0}, \"66\": {\"I\": 1.0}, \"67\": {\"I\": 1.0}, \"68\": {\"I\": 1.0}, \"69\": {\"I\": 1.0}, \"70\": {\"Cs\": 1.0}, \"71\": {\"Cs\": 1.0}, \"72\": {\"K\": 1.0}, \"73\": {\"In\": 1.0}, \"74\": {\"I\": 1.0}, \"75\": {\"I\": 1.0}, \"76\": {\"I\": 1.0}, \"77\": {\"I\": 1.0}, \"78\": {\"I\": 1.0}, \"79\": {\"I\": 1.0}}" energy=-205.7605849059962 free_energy=-205.7605849059962 stress="2.8556485905457155e-07 -8.756289929077591e-08 -1.0635886884233483e-09 -8.756289929077591e-08 4.088665443850717e-07 2.775205943442829e-08 -1.0635886884233483e-09 2.775205943442829e-08 -6.162976553245873e-08" pbc="T T T"
Cs      10.98558204      -0.28736845      -1.13536574        0      -0.00017069      -0.00014752       0.00019093
Cs      25.33599990       2.92604497       0.51872390        1      -0.00006371       0.00003162       0.00013197
K       18.16075648       1.31836380      -0.30760644        2      -0.00007664      -0.00004267      -0.00005161
In      31.54972142      -3.28470019      -4.44220750        3       0.00007763       0.00008641       0.00014605
I       39.13562905       8.06498436      -4.50959169        4       0.00000786       0.00012338       0.00022601
I       49.95303307       1.53018115      -4.97776495        5       0.00014629      -0.00001475      -0.00006630
I       21.57566099       2.03589409      -0.02103239        6      -0.00004563       0.00006754      -0.00008307
I       14.74580974       0.60048518      -0.59317435        7       0.00004279       0.00013204       0.00009959
I       37.50895557      -1.47998370       4.05450493        8      -0.00006706      -0.00005955      -0.00019687
I       18.68436215       2.43164263       2.97044897        9      -0.00006655      -0.00011865      -0.00033931
Cs      20.92152309      -1.13082756       2.68451306       10      -0.00014196      -0.00008680       0.00018325
Cs      35.27161286       2.08283620       4.33908143       11      -0.00002752       0.00001293       0.00010089
K       28.09642759       0.47532910       3.51108936       12      -0.00002697      -0.00002249       0.00003158
In      41.48618925      -4.12670757      -0.62241333       13      -0.00017686       0.00023769       0.00000851
I       49.07093894       7.22215753      -0.69047839       14      -0.00009090       0.00016248       0.00023534
I       59.88898942       0.68713463      -1.15937942       15       0.00001962       0.00018655      -0.00002759
I       31.51124425       1.19287307       3.79812631       16       0.00012761      -0.00000862      -0.00004961
I       24.68143374      -0.24183724       3.22501647       17       0.00015473       0.00001815       0.00018720
I       27.57214073      -0.63844291       0.23338804       18       0.00002268       0.00010808      -0.00010543
I        8.74677501       3.27400232      -0.85069613       19      -0.00010323      -0.00007498      -0.00002092
Cs      21.59348227       4.83430563      -3.34930270       20       0.00007822      -0.00006168      -0.00012156
Cs      35.94467472       8.04928538      -1.69590500       21      -0.00013144      -0.00026608       0.00008588
K       28.76926145       6.44091227      -2.52366561       22      -0.00011525       0.00011219      -0.00013136
In      42.15804312       1.83633351      -6.65748452       23      -0.00009060       0.00002645       0.00015476
I       28.52609490       2.94434636      -2.29463025       24      -0.00000766      -0.00009603      -0.00030188
I       39.34432159      -3.59067553      -2.76390168       25      -0.00029253      -0.00016077      -0.00001868
I       32.18424257       7.15883406      -2.23674181       26      -0.00007793      -0.00032720      -0.00001844
I       25.35406550       5.72365263      -2.80934498       27      -0.00022507      -0.00010625       0.00001025
I       48.11717060       3.64258898       1.83848638       28       0.00016019      -0.00010890       0.00039980
I       29.29224725       7.55409332       0.75431731       29       0.00035051       0.00015744       0.00016547
Cs      31.52990026       3.99138911       0.46934392       30       0.00010119      -0.00003403       0.00001893
Cs      45.88057293       7.20657510       2.12324771       31      -0.00006815      -0.00031267       0.00017584
K       38.70545379       5.59793893       1.29627616       32      -0.00004883      -0.00014440      -0.00006134
In      52.09532058       0.99420283      -2.83634955       33      -0.00012167      -0.00008371      -0.00014677
I       38.46201864       2.10133683       1.52581810       34      -0.00023942       0.00019594      -0.00058729
I       49.28073751      -4.43384941       1.05576668       35      -0.00032203       0.00014982      -0.00002504
I       42.12032817       6.31565176       1.58361271       36       0.00005651      -0.00033125      -0.00008320
I       35.29032101       4.88109550       1.00999807       37      -0.00020531      -0.00011397      -0.00001076
I       38.18124073       4.48399956      -1.98148361       38      -0.00003713      -0.00013518       0.00048055
I       19.35543453       8.39635060      -3.06554226       39       0.00022930       0.00010797       0.00015257
Cs      26.75933506      -1.93169750      -3.35656183       40      -0.00010170       0.00003659      -0.00010883
Cs      41.10923205       1.28207561      -1.70210567       41       0.00027327       0.00020848      -0.00003309
K       33.93435184      -0.32372761      -2.52881217       42      -0.00001326      -0.00028955       0.00009350
In      15.77542203      -1.64292697      -2.22032428       43      -0.00003060       0.00007951      -0.00031608
I       23.35897195       9.70795915      -2.28809633       44      -0.00001049       0.00000204      -0.00000113
I       34.17740766       3.17257884      -2.75760809       45       0.00013743       0.00017394       0.00015983
I       37.34942779       0.39322728      -2.24232106       46      -0.00010769       0.00002335       0.00002459
I       30.51931270      -1.04141771      -2.81579188       47       0.00018169       0.00005563       0.00003262
I       53.28387553      -3.12211141       1.83296734       48       0.00002921      -0.00011035       0.00013108
I       34.45846244       0.79017889       0.74892407       49      -0.00000594      -0.00006726       0.00001492
Cs      36.69571594      -2.77348640       0.46467105       50      -0.00010523      -0.00000446      -0.00021356
Cs      51.04613948       0.44008952       2.11864891       51       0.00016285       0.00021026      -0.00012486
K       43.87087871      -1.16554915       1.29114551       52       0.00009652      -0.00021535      -0.00004999
In      25.71094741      -2.48561673       1.59841993       53       0.00012473      -0.00009730      -0.00032945
I       33.29582081       8.86603220       1.53139429       54       0.00011341      -0.00016613       0.00015377
I       44.11374604       2.33083737       1.06267147       55       0.00004293       0.00001339       0.00006543
I       47.28616839      -0.44834253       1.57704230       56      -0.00032051       0.00010722       0.00020284
I       40.45593762      -1.88363748       1.00454571       57       0.00006097      -0.00000387       0.00008284
I       43.34719778      -2.27877626      -1.98689728       58       0.00011045      -0.00016871       0.00013845
I       24.52267989       1.63267389      -3.07107143       59      -0.00019789      -0.00020725       0.00031139
Cs      37.36751071       3.18921834      -5.57080089       60       0.00015077       0.00009554      -0.00012338
Cs      51.71794165       6.40330266      -3.91668594       61       0.00003673       0.00005790      -0.00007905
K       44.54257336       4.79702364      -4.74393233       62       0.00011948       0.00023135       0.00008891
In      26.38355250       3.48012076      -4.43603141       63      -0.00003069       0.00002095      -0.00034811
I       12.75011886       4.58533661      -0.07366745       64       0.00016168      -0.00005033       0.00004634
I       23.56840130      -1.94969168      -0.54263178       65       0.00016795      -0.00003963      -0.00014678
I       47.95758429       5.51413904      -4.45810038       66       0.00020244       0.00044953       0.00014529
I       41.12779275       4.07974297      -5.03115753       67       0.00008829       0.00005702      -0.00008267
I       63.89253889       1.99861152      -0.38213972       68      -0.00000421       0.00020083      -0.00015709
I       45.06716004       5.91089088      -1.46618187       69      -0.00013338      -0.00001675       0.00019893
Cs      47.30438509       2.34795416      -1.75086531       70       0.00009252      -0.00001233      -0.00010960
Cs      61.65518387       5.56180542      -0.09720546       71      -0.00001787       0.00003069      -0.00005421
K       54.47977647       3.95518306      -0.92288583       72       0.00006100       0.00022680      -0.00000651
In      36.31997219       2.63723998      -0.61605025       73      -0.00004797      -0.00006605       0.00008743
I       22.68751321       3.74333023       3.74718827       74       0.00023647      -0.00007255      -0.00001109
I       33.50517066      -2.79146564       3.27895346       75       0.00020762      -0.00024845      -0.00024572
I       57.89482290       4.67254736      -0.63762282       76       0.00016371       0.00027211      -0.00000327
I       51.06499404       3.23738325      -1.20972816       77      -0.00001019       0.00026418      -0.00005594
I       53.95672700       2.84170088      -4.20095280       78      -0.00022584       0.00001674      -0.00004398
I       35.13213131       6.75316409      -5.28492152       79      -0.00019303      -0.00005627      -0.00007210
