40
Lattice="18.4451651451788 0.056258049296584255 0.08872302656780108 9.290819712050354 15.971052556606718 0.0741347825338249 4.642773701624705 2.677289401413374 6.9674136759153305" Properties=species:S:1:pos:R:3:spacegroup_kinds:I:1:forces:R:3 spacegroup="P 1" unit_cell=conventional occupancy="_JSON {\"0\": {\"Cs\": 1.0}, \"1\": {\"Cs\": 1.0}, \"2\": {\"K\": 1.0}, \"3\": {\"In\": 1.0}, \"4\": {\"I\": 1.0}, \"5\": {\"I\": 1.0}, \"6\": {\"I\": 1.0}, \"7\": {\"I\": 1.0}, \"8\": {\"I\": 1.0}, \"9\": {\"I\": 1.0}, \"10\": {\"Cs\": 1.0}, \"11\": {\"Cs\": 1.0}, \"12\": {\"K\": 1.0}, \"13\": {\"In\": 1.0}, \"14\": {\"I\": 1.0}, \"15\": {\"I\": 1.0}, \"16\": {\"I\": 1.0}, \"17\": {\"I\": 1.0}, \"18\": {\"I\": 1.0}, \"19\": {\"I\": 1.0}, \"20\": {\"Cs\": 1.0}, \"21\": {\"Cs\": 1.0}, \"22\": {\"K\": 1.0}, \"23\": {\"In\": 1.0}, \"24\": {\"I\": 1.0}, \"25\": {\"I\": 1.0}, \"26\": {\"I\": 1.0}, \"27\": {\"I\": 1.0}, \"28\": {\"I\": 1.0}, \"29\": {\"I\": 1.0}, \"30\": {\"Cs\": 1.0}, \"31\": {\"Cs\": 1.0}, \"32\": {\"K\": 1.0}, \"33\": {\"In\": 1.0}, \"34\": {\"I\": 1.0}, \"35\": {\"I\": 1.0}, \"36\": {\"I\": 1.0}, \"37\": {\"I\": 1.0}, \"38\": {\"I\": 1.0}, \"39\": {\"I\": 1.0}}" energy=-102.59578714933853 free_energy=-102.59578714933853 stress="1.1164092972670193e-06 1.1374619199462277e-07 7.823315269310672e-07 1.1374619199462277e-07 -5.0085025198313593e-08 -3.379544301502054e-08 7.823315269310672e-07 -3.379544301502054e-08 1.554205542077167e-06" pbc="T T T"
Cs       4.63053983       2.69056616       1.95204101        0       0.00009211       0.00021494      -0.00005891
Cs      13.87998594       7.99975636       5.09741096        1       0.00011334       0.00016275      -0.00021154
K        9.25546149       5.34573828       3.52435067        2      -0.00009017      -0.00027017       0.00006442
In      18.44516454       0.05626059       0.08871982        3       0.00049482       0.00022978      -0.00031261
I        6.99248532       3.23079527       5.23263254        4      -0.00012630       0.00015154       0.00016846
I       11.51832902       7.46000792       1.81592626        5       0.00008315      -0.00001237       0.00014766
I        9.94992778       2.36632018       1.74313107        6      -0.00000249       0.00029934       0.00043529
I        8.56089547       8.32489675       5.30498991        7       0.00015958       0.00031126       0.00040849
I        6.33543253       6.21211857       1.72759512        8       0.00017965      -0.00015703      -0.00022885
I       12.17502700       4.47880681       5.32158991        9      -0.00028845       0.00031733      -0.00038072
Cs       9.27593602      10.67611578       1.98914730       10       0.00015244       0.00020518      -0.00005973
Cs      18.52549312      15.98534745       5.13440542       11      -0.00001332       0.00009807      -0.00015282
K       13.90091526      13.33120081       3.56142863       12      -0.00009997      -0.00013916      -0.00000002
In      23.09082249       8.04192711       0.12571757       13      -0.00064661      -0.00031205      -0.00007548
I       11.63793058      11.21645101       5.26974449       14       0.00004335       0.00000725      -0.00003941
I       16.16376553      15.44544864       1.85305173       15       0.00021233       0.00006152       0.00005834
I       14.59529553      10.35193001       1.78031485       16       0.00001950      -0.00019250      -0.00001474
I       13.20646783      16.31045921       5.34211225       17      -0.00027271      -0.00018089       0.00017445
I       10.98086405      14.19759888       1.76462409       18       0.00008881      -0.00000719      -0.00008595
I       16.82039986      12.46440803       5.35860889       19       0.00018174       0.00005509      -0.00011176
Cs      13.85311019       2.71871337       1.99643727       20       0.00017675       0.00019792      -0.00008591
Cs      23.10264038       8.02782658       5.14170048       21       0.00003688       0.00010658      -0.00014516
K       18.47803093       5.37378880       3.56872036       22      -0.00006687      -0.00007968       0.00001486
In       9.22270027       0.02826654       0.04431604       23      -0.00010315      -0.00056850       0.00034016
I       16.21498607       3.25908243       5.27699049       24       0.00030624      -0.00005775      -0.00005170
I       20.74111420       7.48795082       1.86026020       25      -0.00010599       0.00017207       0.00010138
I       19.17244830       2.39457740       1.78760392       26      -0.00005947      -0.00025137      -0.00004184
I       17.78369588       8.35321608       5.34957608       27      -0.00034128      -0.00060462      -0.00020001
I       15.55799799       6.24025469       1.77196597       28       0.00015657      -0.00006754       0.00000253
I       21.39747616       4.50694055       5.36589347       29       0.00014359       0.00004592      -0.00009480
Cs      18.49861089      10.70433392       2.03353991       30       0.00015324       0.00010586      -0.00010304
Cs      27.74794023      16.01338051       5.17874176       31       0.00014349       0.00023706      -0.00015606
K       23.12345294      13.35932718       3.60582382       32      -0.00009367      -0.00011363       0.00004737
In      13.86813570       8.01370014       0.08135607       33       0.00001981       0.00040138       0.00016035
I       20.86065117      11.24441984       5.31399908       34      -0.00025809       0.00012351       0.00031660
I       25.38647172      15.47360483       1.89732277       35      -0.00043236      -0.00008694       0.00041190
I       23.81796862      10.38004276       1.82474674       36      -0.00012296      -0.00004545      -0.00000729
I       22.42895960      16.33870220       5.38661465       37      -0.00002592      -0.00034854       0.00004556
I       20.20356070      14.22574304       1.80908337       38      -0.00014959       0.00018123      -0.00037846
I       26.04287892      12.49259993       5.40295548       39       0.00034202      -0.00019019       0.00009898
