10
Lattice="9.29010284116451 0.38743365271986796 -0.00721104562671032 -4.98039104791514 7.8521517802299945 0.0021506140697256522 0.0065066586779030655 0.0014947826856831993 8.82883232685223" Properties=species:S:1:pos:R:3:spacegroup_kinds:I:1:forces:R:3 spacegroup="P 1" unit_cell=conventional occupancy="_JSON {\"0\": {\"Cs\": 1.0}, \"1\": {\"Cs\": 1.0}, \"2\": {\"K\": 1.0}, \"3\": {\"In\": 1.0}, \"4\": {\"I\": 1.0}, \"5\": {\"I\": 1.0}, \"6\": {\"I\": 1.0}, \"7\": {\"I\": 1.0}, \"8\": {\"I\": 1.0}, \"9\": {\"I\": 1.0}}" energy=-25.793817245135486 free_energy=-25.793817245135486 stress="-5.5628489514863635e-06 8.034770374910304e-07 -9.406206973066932e-08 8.034770374910304e-07 -4.9291223528588005e-06 1.0047018792216076e-06 -9.406206973066932e-08 1.0047018792216076e-06 -8.567298861473721e-07" pbc="T T T"
Cs       4.79651748       2.77140394       8.81321010        0       0.00019471      -0.00023475      -0.00005567
Cs       0.03360817       5.25774162       0.01021128        1      -0.00010524       0.00011529       0.00003989
K       -4.72015902       7.74690118       4.41638609        2      -0.00008445       0.00010766       0.00004533
In      -4.72331536       7.74603686       0.00200031        3      -0.00058708       0.00076726      -0.00017047
I        2.13168255       8.03982444       1.76318294        4       0.00009914      -0.00010839      -0.00029506
I       -2.28195971       7.84145171       7.06241535        5       0.00013351       0.00010414       0.00010305
I        1.39495722       2.05148182       1.76502101        6      -0.00019538      -0.00020816      -0.00009405
I        3.43520868       5.97766950       7.05843503        7       0.00013207       0.00004745      -0.00007029
I       -3.42229372       5.68388640       1.76775971        8       0.00021855      -0.00046581       0.00029192
I       -1.03775661       1.95791236       7.06279125        9       0.00019416      -0.00012468       0.00020534
