80
Lattice="19.28089336621519 0.0 0.0 -6.224933666616595 19.483406542647884 0.0 -5.20743127351021 -4.5158177933646275 13.0952775501443" Properties=species:S:1:pos:R:3 pbc="T T T"
Cs       3.23779754       7.80157527      -0.00005338
Cs       7.48876871       4.55434085      -0.00005338
K        0.79744666       0.17814085       3.27383765
In       2.09931722       1.30711552       0.00004911
I        3.29004040       3.40965614       1.31000665
I        4.83286205       6.68836015       5.23771372
I        0.44493022      -1.80617604       5.23767292
I        6.59180082      -0.45173285       1.30996585
I       -0.71800593       8.04282790       1.30998094
I       -0.79959986       2.05523751       5.23768800
Cs       0.63408190       5.54366638       6.54758539
Cs       4.88505307       2.29643195       6.54758540
K       -1.80626898      -2.07976805       9.82147642
In      -0.50439841      -0.95079338       6.54768789
I        0.68632476       1.15174724       7.85764542
I        2.22914641       4.43045125      11.78535249
I       -2.15878541      -4.06408494      11.78531170
I        3.98808518      -2.70964175       7.85760463
I       -3.32172157       5.78491900       7.85761971
I       -3.40331550      -0.20267139      11.78532678
Cs       0.12533070      17.54327855      -0.00005338
Cs       4.37630188      14.29604412      -0.00005338
K       -2.31502017       9.91984412       3.27383765
In      -1.01314961      11.04881879       0.00004911
I        0.17757356      13.15135941       1.31000665
I        1.72039522      16.43006342       5.23771372
I       -2.66753661       7.93552723       5.23767292
I        3.47933399       9.28997042       1.30996585
I       -3.83047277      17.78453117       1.30998094
I       -3.91206669      11.79694078       5.23768800
Cs      -2.47838493      15.28536965       6.54758539
Cs       1.77258624      12.03813523       6.54758540
K       -4.91873581       7.66193522       9.82147642
In      -3.61686525       8.79090990       6.54768789
I       -2.42614207      10.89345051       7.85764542
I       -0.88332042      14.17215453      11.78535249
I       -5.27125225       5.67761833      11.78531170
I        0.87561835       7.03206152       7.85760463
I       -6.43418840      15.52662227       7.85761971
I       -6.51578233       9.53903189      11.78532678
Cs      12.87824422       7.80157527      -0.00005338
Cs      17.12921539       4.55434085      -0.00005338
K       10.43789334       0.17814085       3.27383765
In      11.73976391       1.30711552       0.00004911
I       12.93048708       3.40965614       1.31000665
I       14.47330873       6.68836015       5.23771372
I       10.08537691      -1.80617604       5.23767292
I       16.23224750      -0.45173285       1.30996585
I        8.92244075       8.04282790       1.30998094
I        8.84084682       2.05523751       5.23768800
Cs      10.27452858       5.54366638       6.54758539
Cs      14.52549976       2.29643195       6.54758540
K        7.83417771      -2.07976805       9.82147642
In       9.13604827      -0.95079338       6.54768789
I       10.32677144       1.15174724       7.85764542
I       11.86959310       4.43045125      11.78535249
I        7.48166127      -4.06408494      11.78531170
I       13.62853187      -2.70964175       7.85760463
I        6.31872511       5.78491900       7.85761971
I        6.23713119      -0.20267139      11.78532678
Cs       9.76577739      17.54327855      -0.00005338
Cs      14.01674856      14.29604412      -0.00005338
K        7.32542651       9.91984412       3.27383765
In       8.62729707      11.04881879       0.00004911
I        9.81802025      13.15135941       1.31000665
I       11.36084190      16.43006342       5.23771372
I        6.97291007       7.93552723       5.23767292
I       13.11978067       9.28997042       1.30996585
I        5.80997392      17.78453117       1.30998094
I        5.72837999      11.79694078       5.23768800
Cs       7.16206175      15.28536965       6.54758539
Cs      11.41303292      12.03813523       6.54758540
K        4.72171087       7.66193522       9.82147642
In       6.02358144       8.79090990       6.54768789
I        7.21430461      10.89345051       7.85764542
I        8.75712626      14.17215453      11.78535249
I        4.36919444       5.67761833      11.78531170
I       10.51606503       7.03206152       7.85760463
I        3.20625828      15.52662227       7.85761971
I        3.12466435       9.53903189      11.78532678
