40
Lattice="21.623082378909718 3.36175496723771 1.60153854721891 -23.63277548613621 9.970637221519516 -1.7002625796435424 -4.564377373165658 -4.051091220001545 7.775879648054829" Properties=species:S:1:pos:R:3:spacegroup_kinds:I:1:forces:R:3 spacegroup="P 1" unit_cell=conventional occupancy="_JSON {\"0\": {\"Cs\": 1.0}, \"1\": {\"Cs\": 1.0}, \"2\": {\"K\": 1.0}, \"3\": {\"In\": 1.0}, \"4\": {\"I\": 1.0}, \"5\": {\"I\": 1.0}, \"6\": {\"I\": 1.0}, \"7\": {\"I\": 1.0}, \"8\": {\"I\": 1.0}, \"9\": {\"I\": 1.0}, \"10\": {\"Cs\": 1.0}, \"11\": {\"Cs\": 1.0}, \"12\": {\"K\": 1.0}, \"13\": {\"In\": 1.0}, \"14\": {\"I\": 1.0}, \"15\": {\"I\": 1.0}, \"16\": {\"I\": 1.0}, \"17\": {\"I\": 1.0}, \"18\": {\"I\": 1.0}, \"19\": {\"I\": 1.0}, \"20\": {\"Cs\": 1.0}, \"21\": {\"Cs\": 1.0}, \"22\": {\"K\": 1.0}, \"23\": {\"In\": 1.0}, \"24\": {\"I\": 1.0}, \"25\": {\"I\": 1.0}, \"26\": {\"I\": 1.0}, \"27\": {\"I\": 1.0}, \"28\": {\"I\": 1.0}, \"29\": {\"I\": 1.0}, \"30\": {\"Cs\": 1.0}, \"31\": {\"Cs\": 1.0}, \"32\": {\"K\": 1.0}, \"33\": {\"In\": 1.0}, \"34\": {\"I\": 1.0}, \"35\": {\"I\": 1.0}, \"36\": {\"I\": 1.0}, \"37\": {\"I\": 1.0}, \"38\": {\"I\": 1.0}, \"39\": {\"I\": 1.0}}" energy=-97.70509917792589 free_energy=-97.70509917792589 stress="-7.332461883641905e-07 2.0758385811265562e-06 -3.3088571477492886e-06 2.0758385811265562e-06 -1.569190923925221e-06 4.607589968722052e-06 -3.3088571477492886e-06 4.607589968722052e-06 1.013046001539545e-05" pbc="T T T"
Cs      -6.79854766      -0.75506597       5.34820638        0       0.00008272      -0.00029795       0.00011987
Cs      -1.95948930       0.03508080      10.22301667        1      -0.00012687      -0.00000016      -0.00010276
K       -1.51262057      -3.39630795       4.23596954        2       0.00033685      -0.00026789      -0.00014340
In      -0.18513279       0.23373453       0.95106629        3       0.00038136      -0.00003746      -0.00009884
I       -0.92374629       3.53084432       1.08750690        4       0.00004467      -0.00000945       0.00021232
I       -3.00795953      -0.21047110       3.03279619        5       0.00013146      -0.00003000       0.00016443
I       -1.34805072      -3.29564038       7.86766276        6      -0.00000584      -0.00008120       0.00006611
I        5.53445673       1.11461196       1.98602999        7      -0.00006095       0.00016097      -0.00009690
I      -10.85191391       5.44994875       3.11144331        8      -0.00025828      -0.00004653       0.00006037
I       -4.92028068      -3.88351497       4.93484737        9      -0.00020876       0.00003080      -0.00018653
Cs     -18.61417410       4.22970324       4.49500422       10       0.00006166       0.00011379       0.00022339
Cs     -13.77961907       5.02199983       9.37457138       11       0.00022259       0.00036532       0.00017454
K      -13.34166140       1.57776122       3.38905104       12       0.00000746      -0.00003110      -0.00025345
In     -12.00519398       5.21924342       0.10588561       13       0.00032021       0.00006584      -0.00043439
I      -12.74354078       8.51494259       0.23559109       14      -0.00036336      -0.00038817      -0.00032071
I      -14.82721633       4.76902114       2.18915135       15      -0.00010995       0.00022716      -0.00019590
I      -13.16649501       1.68928419       7.01728116       16       0.00013875       0.00027278      -0.00021192
I       -6.28216613       6.10361981       1.13321289       17      -0.00000217      -0.00052412       0.00006252
I       -1.04324701      13.77919617       3.86082043       18       0.00012992      -0.00009281      -0.00015011
I      -16.74765016       1.09333588       4.08745046       19      -0.00007412       0.00019817      -0.00034100
Cs       4.00489469       0.91915151       6.15792956       20       0.00018907      -0.00003021      -0.00032097
Cs       8.85090020       1.71874398      11.02113170       21      -0.00009143       0.00011519      -0.00009038
K        9.29976057      -1.72514718       5.03811295       22      -0.00029629       0.00020220       0.00036697
In      10.62456383       1.91322058       1.75593513       23      -0.00013239       0.00003319       0.00013311
I        9.88381201       5.21002945       1.89560215       24       0.00023357       0.00043874      -0.00017215
I        7.80355786       1.46560207       3.83768137       25       0.00003663      -0.00036665       0.00022450
I        9.46013204      -1.61394708       8.66902615       26       0.00001422      -0.00014952       0.00010160
I       16.34422836       2.79755245       2.78494130       27      -0.00000275       0.00028676      -0.00014104
I       -0.03779576       7.12361411       3.90824937       28      -0.00004612       0.00008620      -0.00006057
I        5.88918822      -2.20406470       5.73393953       29       0.00016477       0.00000024       0.00019692
Cs      -7.80395374       5.91273862       5.29717164       30       0.00005824       0.00002559       0.00019713
Cs      -2.96411089       6.70301861      10.17296436       31      -0.00033073       0.00007343      -0.00004659
K       -2.52488126       3.26694081       4.18361728       32      -0.00038130       0.00009553       0.00033620
In      -1.18856946       6.90175177       0.90098532       33      -0.00052828      -0.00018522       0.00046198
I       -1.92928839      10.19749671       1.03572949       34       0.00026475      -0.00011314       0.00005444
I       -4.01179348       6.45751911       2.98286643       35       0.00007359       0.00020533      -0.00001789
I       -2.35178630       3.37034594       7.81465906       36      -0.00004113       0.00004986       0.00004457
I        4.52856752       7.77996970       1.93528380       37       0.00004816      -0.00017009      -0.00005895
I      -11.85329742      12.09832861       3.06167051       38      -0.00005443       0.00001985      -0.00012873
I       -5.93214133       2.78175754       4.87909497       39       0.00017448      -0.00024528       0.00037222
