20
Lattice="18.596884746606058 0.0 0.0 -7.130034702686103 4.147333401615626 0.0 -1.1401277014719886 -1.960090807703631 8.532627077759532" Properties=species:S:1:pos:R:3 pbc="T T T"
Cs       5.48753967      -0.56265917       8.52451268
Cs       1.14936521       2.77619165       0.00792466
K        2.23425722      -0.96691267       4.26631785
In       2.80434182       0.01314129       0.00005328
I        9.43468472      -0.37609302       1.70681953
I       -2.79779686       2.58954662       6.82584778
I        3.15060078       0.70717559       1.70683857
I        3.48636927       1.50640190       6.82586682
I        6.61033919       2.67943793       1.70681187
I        0.02656502      -0.46588041       6.82584011
Cs      14.78598205      -0.56265917       8.52451268
Cs      10.44780759       2.77619165       0.00792466
K       11.53269959      -0.96691267       4.26631785
In      12.10278419       0.01314129       0.00005328
I       18.73312710      -0.37609302       1.70681953
I        6.50064551       2.58954662       6.82584778
I       12.44904315       0.70717559       1.70683857
I       12.78481164       1.50640190       6.82586682
I       15.90878156       2.67943793       1.70681187
I        9.32500739      -0.46588041       6.82584011
