10
Lattice="8.797122606195146 0.0 0.0 5.213595008332285 6.268784077326204 0.0 4.096783556096227 -0.1686199524090565 6.265987393890899" Properties=species:S:1:pos:R:3 pbc="T T T"
Cs       4.52682702       1.52502675       1.56650047
Cs      13.58067403       4.57513700       4.69948668
K        9.05375057       3.05008185       3.13299359
In       0.00000013       0.00000031       0.00000013
I        6.88016141       0.64948223       3.99607889
I       11.22733978       5.45068124       2.26990827
I        9.91226115       2.02280723       1.53709215
I        8.19523944       4.07735622       4.72889491
I        7.03599194       4.70007500       1.37527736
I       11.07150958       1.40008972       4.89071037
