20
Lattice="12.77411899757259 -2.896253153885069e-10 2.958949309437131e-16 -2.896253157779857e-10 12.774118997572764 3.372344580213713e-17 1.4789147442078692e-16 1.6978275161040013e-17 6.38705949875367" Properties=species:S:1:pos:R:3:spacegroup_kinds:I:1:forces:R:3 spacegroup="P 1" unit_cell=conventional occupancy="_JSON {\"0\": {\"Cs\": 1.0}, \"1\": {\"Pb\": 1.0}, \"2\": {\"I\": 1.0}, \"3\": {\"I\": 1.0}, \"4\": {\"I\": 1.0}, \"5\": {\"Cs\": 1.0}, \"6\": {\"Pb\": 1.0}, \"7\": {\"I\": 1.0}, \"8\": {\"I\": 1.0}, \"9\": {\"I\": 1.0}, \"10\": {\"Cs\": 1.0}, \"11\": {\"Pb\": 1.0}, \"12\": {\"I\": 1.0}, \"13\": {\"I\": 1.0}, \"14\": {\"I\": 1.0}, \"15\": {\"Cs\": 1.0}, \"16\": {\"Pb\": 1.0}, \"17\": {\"I\": 1.0}, \"18\": {\"I\": 1.0}, \"19\": {\"I\": 1.0}}" energy=-55.9229697088848 free_energy=-55.9229697088848 stress="-2.1578007800709169e-07 -8.544432703060227e-13 -3.02091194319393e-18 -8.544432703060227e-13 -2.157800757506646e-07 7.280975121506604e-19 -3.02091194319393e-18 7.280975121506604e-19 -2.1578000476193221e-07" pbc="T T T"
Cs       3.19355553       3.19350397       3.19352975        0       0.00000098      -0.00000098      -0.00000000
Pb       0.00000379      -0.00000379      -0.00000000        1      -0.00000081       0.00000081      -0.00000000
I        0.00000208      -0.00000208       3.19352975        2      -0.00000176       0.00000176       0.00000000
I        3.19353128      -0.00000208      -0.00000000        3       0.00000335       0.00000176       0.00000000
I        0.00000208       3.19352821      -0.00000000        4      -0.00000176      -0.00000335       0.00000000
Cs       3.19355553       9.58056346       3.19352975        5       0.00000098      -0.00000098      -0.00000000
Pb       0.00000379       6.38705571      -0.00000000        6      -0.00000081       0.00000081      -0.00000000
I        0.00000208       6.38705742       3.19352975        7      -0.00000176       0.00000176       0.00000000
I        3.19353128       6.38705742      -0.00000000        8       0.00000335       0.00000176       0.00000000
I        0.00000208       9.58058771      -0.00000000        9      -0.00000176      -0.00000335       0.00000000
Cs       9.58061503       3.19350397       3.19352975       10       0.00000098      -0.00000098      -0.00000000
Pb       6.38706329      -0.00000379      -0.00000000       11      -0.00000081       0.00000081       0.00000000
I        6.38706158      -0.00000208       3.19352975       12      -0.00000176       0.00000176      -0.00000000
I        9.58059078      -0.00000208      -0.00000000       13       0.00000335       0.00000176       0.00000000
I        6.38706158       3.19352821      -0.00000000       14      -0.00000176      -0.00000335       0.00000000
Cs       9.58061503       9.58056346       3.19352975       15       0.00000098      -0.00000098      -0.00000000
Pb       6.38706329       6.38705571      -0.00000000       16      -0.00000081       0.00000081      -0.00000000
I        6.38706158       6.38705742       3.19352975       17      -0.00000176       0.00000176       0.00000000
I        9.58059078       6.38705742      -0.00000000       18       0.00000335       0.00000176       0.00000000
I        6.38706158       9.58058771      -0.00000000       19      -0.00000176      -0.00000335       0.00000000
