80
Lattice="19.361551977632406 0.0 0.0 -14.757768606697201 10.555316810599455 0.0 3.0082609564562133 -5.048848304403871 15.250772423617315" Properties=species:S:1:pos:R:3 pbc="T T T"
Cs       6.13278489      -0.81803580       7.61819740
Cs      -1.05507165       3.46086257       0.00714488
K        0.75206524      -1.26221208       3.81269311
In       0.63585222      -0.05520496       0.00001167
I        8.07719734      -0.55651045       1.52532579
I       -2.99948807       3.19931918       6.10006778
I        1.54626729       0.82193010       1.52533061
I        3.53146074       1.82090649       6.10007260
I        5.16936826       3.33172848       1.52532494
I       -0.09165503      -0.68889622       6.10006693
Cs       7.63691537      -3.34245996      15.24358361
Cs       0.44905882       0.93643842       7.63253109
K        2.25619572      -3.78663623      11.43807932
In       2.13998270      -2.57962912       7.62539789
I        9.58132782      -3.08093460       9.15071200
I       -1.49535759       0.67489502      13.72545399
I        3.05039777      -1.70249405       9.15071682
I        5.03559122      -0.70351767      13.72545881
I        6.67349873       0.80730432       9.15071115
I        1.41247545      -3.21332037      13.72545314
Cs      -1.24609941       4.45962260       7.61819740
Cs      -8.43395596       8.73852098       0.00714488
K       -6.62681906       4.01544633       3.81269311
In      -6.74303208       5.22245344       0.00001167
I        0.69831303       4.72114796       1.52532579
I      -10.37837237       8.47697758       6.10006778
I       -5.83261702       6.09958850       1.52533061
I       -3.84742357       7.09856489       6.10007260
I       -2.20951605       8.60938688       1.52532494
I       -7.47053933       4.58876219       6.10006693
Cs       0.25803107       1.93519845      15.24358361
Cs      -6.92982548       6.21409683       7.63253109
K       -5.12268859       1.49102218      11.43807932
In      -5.23890160       2.69802929       7.62539789
I        2.20244351       2.19672380       9.15071200
I       -8.87424189       5.95255343      13.72545399
I       -4.32848654       3.57516435       9.15071682
I       -2.34329309       4.57414074      13.72545881
I       -0.70538557       6.08496273       9.15071115
I       -5.96640885       2.06433803      13.72545314
Cs      15.81356088      -0.81803580       7.61819740
Cs       8.62570433       3.46086257       0.00714488
K       10.43284123      -1.26221208       3.81269311
In      10.31662821      -0.05520496       0.00001167
I       17.75797333      -0.55651045       1.52532579
I        6.68128792       3.19931918       6.10006778
I       11.22704328       0.82193010       1.52533061
I       13.21223673       1.82090649       6.10007260
I       14.85014424       3.33172848       1.52532494
I        9.58912096      -0.68889622       6.10006693
Cs      17.31769136      -3.34245996      15.24358361
Cs      10.12983481       0.93643842       7.63253109
K       11.93697171      -3.78663623      11.43807932
In      11.82075869      -2.57962912       7.62539789
I       19.26210380      -3.08093460       9.15071200
I        8.18541840       0.67489502      13.72545399
I       12.73117375      -1.70249405       9.15071682
I       14.71636720      -0.70351767      13.72545881
I       16.35427472       0.80730432       9.15071115
I       11.09325144      -3.21332037      13.72545314
Cs       8.43467658       4.45962260       7.61819740
Cs       1.24682003       8.73852098       0.00714488
K        3.05395692       4.01544633       3.81269311
In       2.93774391       5.22245344       0.00001167
I       10.37908902       4.72114796       1.52532579
I       -0.69759638       8.47697758       6.10006778
I        3.84815897       6.09958850       1.52533061
I        5.83335242       7.09856489       6.10007260
I        7.47125994       8.60938688       1.52532494
I        2.21023666       4.58876219       6.10006693
Cs       9.93880705       1.93519845      15.24358361
Cs       2.75095051       6.21409683       7.63253109
K        4.55808740       1.49102218      11.43807932
In       4.44187439       2.69802929       7.62539789
I       11.88321950       2.19672380       9.15071200
I        0.80653410       5.95255343      13.72545399
I        5.35228945       3.57516435       9.15071682
I        7.33748290       4.57414074      13.72545881
I        8.97539042       6.08496273       9.15071115
I        3.71436714       2.06433803      13.72545314
