80
Lattice="19.786430153207277 -0.4688770443399364 -0.36564792768359106 -15.200881250921535 14.610579146605035 0.48822054618232597 2.7614035265675074 -6.692888037460045 16.996562757140097" Properties=species:S:1:pos:R:3:spacegroup_kinds:I:1:forces:R:3 spacegroup="P 1" unit_cell=conventional occupancy="_JSON {\"0\": {\"Cs\": 1.0}, \"1\": {\"Cs\": 1.0}, \"2\": {\"K\": 1.0}, \"3\": {\"In\": 1.0}, \"4\": {\"I\": 1.0}, \"5\": {\"I\": 1.0}, \"6\": {\"I\": 1.0}, \"7\": {\"I\": 1.0}, \"8\": {\"I\": 1.0}, \"9\": {\"I\": 1.0}, \"10\": {\"Cs\": 1.0}, \"11\": {\"Cs\": 1.0}, \"12\": {\"K\": 1.0}, \"13\": {\"In\": 1.0}, \"14\": {\"I\": 1.0}, \"15\": {\"I\": 1.0}, \"16\": {\"I\": 1.0}, \"17\": {\"I\": 1.0}, \"18\": {\"I\": 1.0}, \"19\": {\"I\": 1.0}, \"20\": {\"Cs\": 1.0}, \"21\": {\"Cs\": 1.0}, \"22\": {\"K\": 1.0}, \"23\": {\"In\": 1.0}, \"24\": {\"I\": 1.0}, \"25\": {\"I\": 1.0}, \"26\": {\"I\": 1.0}, \"27\": {\"I\": 1.0}, \"28\": {\"I\": 1.0}, \"29\": {\"I\": 1.0}, \"30\": {\"Cs\": 1.0}, \"31\": {\"Cs\": 1.0}, \"32\": {\"K\": 1.0}, \"33\": {\"In\": 1.0}, \"34\": {\"I\": 1.0}, \"35\": {\"I\": 1.0}, \"36\": {\"I\": 1.0}, \"37\": {\"I\": 1.0}, \"38\": {\"I\": 1.0}, \"39\": {\"I\": 1.0}, \"40\": {\"Cs\": 1.0}, \"41\": {\"Cs\": 1.0}, \"42\": {\"K\": 1.0}, \"43\": {\"In\": 1.0}, \"44\": {\"I\": 1.0}, \"45\": {\"I\": 1.0}, \"46\": {\"I\": 1.0}, \"47\": {\"I\": 1.0}, \"48\": {\"I\": 1.0}, \"49\": {\"I\": 1.0}, \"50\": {\"Cs\": 1.0}, \"51\": {\"Cs\": 1.0}, \"52\": {\"K\": 1.0}, \"53\": {\"In\": 1.0}, \"54\": {\"I\": 1.0}, \"55\": {\"I\": 1.0}, \"56\": {\"I\": 1.0}, \"57\": {\"I\": 1.0}, \"58\": {\"I\": 1.0}, \"59\": {\"I\": 1.0}, \"60\": {\"Cs\": 1.0}, \"61\": {\"Cs\": 1.0}, \"62\": {\"K\": 1.0}, \"63\": {\"In\": 1.0}, \"64\": {\"I\": 1.0}, \"65\": {\"I\": 1.0}, \"66\": {\"I\": 1.0}, \"67\": {\"I\": 1.0}, \"68\": {\"I\": 1.0}, \"69\": {\"I\": 1.0}, \"70\": {\"Cs\": 1.0}, \"71\": {\"Cs\": 1.0}, \"72\": {\"K\": 1.0}, \"73\": {\"In\": 1.0}, \"74\": {\"I\": 1.0}, \"75\": {\"I\": 1.0}, \"76\": {\"I\": 1.0}, \"77\": {\"I\": 1.0}, \"78\": {\"I\": 1.0}, \"79\": {\"I\": 1.0}}" energy=-204.20477660939667 free_energy=-204.20477660939667 stress="-1.1269162153606417e-07 -3.591817492447293e-07 5.461287771076609e-09 -3.591817492447293e-07 5.12971277942659e-07 -1.610224806669168e-07 5.461287771076609e-09 -1.610224806669168e-07 -5.780787883816954e-07" pbc="T T T"
Cs       5.80360941      -1.48168884       8.79159498        0       0.00016683      -0.00005669       0.00000852
Cs      -0.47250641       4.23448011       2.41174835        1      -0.00023850       0.00025630      -0.00012507
K        1.72075688      -0.91742522       3.65141315        2       0.00017373      -0.00008897       0.00011569
In     -15.89310638      14.21990903      -1.32532717        3       0.00012433      -0.00010434       0.00004828
I       -6.00723239      14.76748838       1.34764651        4      -0.00009692       0.00012484       0.00008905
I       -4.26616007       4.18532292       6.30092819        5       0.00044613       0.00024359      -0.00016400
I        2.69291868       2.51753608       3.67087249        6      -0.00001763       0.00004701      -0.00009182
I        2.40879386       0.66335732       7.28902362        7       0.00015042       0.00036453      -0.00016635
I        6.09730228       5.21797572       1.17669848        8       0.00011888       0.00001861       0.00009128
I       -1.25071686      -1.77621245       6.03636297        9      -0.00013872       0.00009574      -0.00014459
Cs       7.18742437      -4.82851942      17.29010047       10      -0.00015822      -0.00001801       0.00002178
Cs       0.90865494       0.88698321      10.90974423       11      -0.00012767       0.00009943       0.00003053
K        3.10352613      -4.26516379      12.15031285       12      -0.00010377       0.00009204      -0.00011173
In     -14.51138265      10.87337670       7.17349103       13      -0.00016577       0.00017969      -0.00017303
I       -4.62651653      11.42021740       9.84650452       14       0.00007142      -0.00005397       0.00014935
I       -2.88589697       0.84029440      14.79833606       15       0.00006271      -0.00027774       0.00010519
I        4.07362389      -0.82964584      12.17025570       16      -0.00007534      -0.00006601      -0.00040007
I        3.79135521      -2.68339399      15.78866503       17       0.00011107       0.00047143      -0.00005342
I        7.47744394       1.87077911       9.67506556       18       0.00000966       0.00001932       0.00006498
I        0.13014941      -5.12185575      14.53242649       19      -0.00005006      -0.00004747       0.00025629
Cs      -1.79368300       5.82485169       9.03510349       20       0.00006141       0.00013406      -0.00003852
Cs      -8.07413463      11.54063449       2.65423576       21       0.00001872       0.00009127       0.00003257
K       -5.87770796       6.38922107       3.89379966       22       0.00004064      -0.00001904       0.00010746
In      -8.29321179       6.91708903      -1.57092150       23      -0.00020241      -0.00006597       0.00002741
I        1.59442615       7.46162749       1.10565415       24      -0.00011790      -0.00024833      -0.00049687
I      -11.86605732      11.48992139       6.54455583       25       0.00038936       0.00004035      -0.00023933
I       -4.90801346       9.82562179       3.91336075       26       0.00017305      -0.00016734       0.00005287
I       -5.19216883       7.97008666       7.53094481       27       0.00008371       0.00003030       0.00000973
I       -1.50093401      12.52494182       1.42157906       28      -0.00034119       0.00011992       0.00002971
I       -8.85198969       5.53179067       6.27776967       29       0.00009319      -0.00013753       0.00007198
Cs      -0.41403699       2.47939508      17.53290586       30       0.00002298       0.00003435      -0.00004923
Cs      -6.69378076       8.19324398      11.15156091       31       0.00027137       0.00026578       0.00011175
K       -4.49824860       3.04249044      12.39146251       32       0.00002732      -0.00009087       0.00003557
In      -6.91254287       3.57029830       6.92679020       33      -0.00075147       0.00005359       0.00010572
I        2.97459195       4.11428429       9.60319761       34       0.00001291       0.00000539       0.00005756
I      -10.48541483       8.14260350      15.04470088       35      -0.00029043      -0.00009492      -0.00013410
I       -3.52771047       6.47823752      12.41125139       36       0.00036775       0.00008534       0.00019705
I       -3.81274884       4.62425787      16.02948933       37       0.00002801      -0.00013895       0.00008033
I       -0.11995959       9.17822825       9.91997068       38       0.00003448      -0.00020977      -0.00015176
I       -7.47251638       2.18436709      14.77652299       39       0.00020157      -0.00022319      -0.00008615
Cs      15.69892644      -1.71425481       8.60790002       40       0.00004127      -0.00000287       0.00001556
Cs       9.42012121       4.00206668       2.22664788       41      -0.00020018      -0.00009072       0.00005204
K       11.61487295      -1.15016751       3.46726795       42       0.00013327       0.00004374      -0.00011256
In      -6.00043487      13.98737740      -1.50974000       43      -0.00060919       0.00012100       0.00005020
I        3.88559890      14.53214276       1.16613392       44      -0.00013818      -0.00000142       0.00025626
I        5.62781153       3.94966837       6.11808635       45      -0.00012245       0.00008526       0.00014707
I       12.58577315       2.28621911       3.48566717       46       0.00027713      -0.00026758      -0.00003199
I       12.29971818       0.43104724       7.10306820       47      -0.00001707      -0.00020019       0.00023354
I       -3.79326720       5.45414216       1.35944233       48      -0.00005978      -0.00017361      -0.00001403
I        8.64044154      -2.00937562       5.85209836       49       0.00020830      -0.00006549      -0.00018408
Cs      17.08045086      -5.06076363      17.10543123       50       0.00000238       0.00007035       0.00011045
Cs      10.79977192       0.65377981      10.72456489       51       0.00022177      -0.00002759       0.00018734
K       12.99590419      -4.49685232      11.96550408       52      -0.00015063      -0.00009402      -0.00014271
In      -4.61975599      10.64087845       6.98901630       53      -0.00020063      -0.00017593      -0.00005391
I        5.26893091      11.18495375       9.66481690       54      -0.00002807       0.00012166       0.00023908
I        7.00815363       0.60417883      14.61662550       55       0.00033907      -0.00004211       0.00000949
I       13.96613919      -1.06078427      11.98436118       56      -0.00001476       0.00012616       0.00004506
I       13.68159578      -2.91524214      15.60234801       57       0.00015896      -0.00003215       0.00005228
I       -2.41201462       2.10685965       9.85861549       58      -0.00028091       0.00003510      -0.00004627
I       10.02178570      -5.35540378      14.34892922       59       0.00012574      -0.00003633       0.00007684
Cs       8.09856664       5.58855015       8.85250033       60      -0.00010557       0.00002886       0.00004477
Cs       1.81967978      11.30613860       2.47415496       61      -0.00004280      -0.00024554      -0.00022227
K        4.01474534       6.15275154       3.71244160       62      -0.00002795      -0.00004842       0.00012465
In       1.60133981       6.68021421      -1.75126957       63      -0.00021176       0.00006116       0.00014839
I       11.48714224       7.22812876       0.92084222       64       0.00009589      -0.00022548      -0.00009661
I       -1.97372814      11.25713185       6.36221648       65       0.00001847      -0.00003845      -0.00012385
I        4.98483476       9.58821132       3.73273601       66      -0.00005529       0.00026132      -0.00013058
I        4.70309297       7.73393515       7.35082612       67      -0.00015032      -0.00028858       0.00005147
I      -11.39673026      12.75740279       1.60501709       68       0.00019768       0.00003715      -0.00001260
I        1.04210776       5.29494228       6.09641251       69       0.00008618      -0.00001819       0.00009667
Cs       9.47745522       2.24344454      17.35120048       70       0.00012810      -0.00002956      -0.00005424
Cs       3.20116337       7.95857412      10.97090805       71       0.00010140       0.00007856      -0.00013275
K        5.39526139       2.80630418      12.21077647       72      -0.00016940      -0.00006730       0.00016503
In       2.98199781       3.33378255       6.74607540       73      -0.00029537       0.00006612      -0.00014964
I       12.86667970       3.88059386       9.41891643       74      -0.00005048      -0.00018451      -0.00009763
I       -0.59306162       7.91036244      14.85981873       75       0.00023797      -0.00003577       0.00006554
I        6.36677166       6.24139099      12.23059935       76      -0.00011355       0.00020043       0.00004228
I        6.08057203       4.38811207      15.84923037       77       0.00012962       0.00048572      -0.00010665
I      -10.01602668       9.41063659      10.10181970       78       0.00016397      -0.00005422       0.00001605
I        2.42230438       1.94774112      14.59504794       79      -0.00000848      -0.00014030       0.00020770
