40
Lattice="18.085412469100582 -4.327939441844894 -0.11416479719614583 -5.29547703518237 17.828356048981416 -0.07825047690221738 0.06849326984743813 0.05736977200522513 8.827276851708488" Properties=species:S:1:pos:R:3:spacegroup_kinds:I:1:forces:R:3 spacegroup="P 1" unit_cell=conventional occupancy="_JSON {\"0\": {\"Cs\": 1.0}, \"1\": {\"Cs\": 1.0}, \"2\": {\"K\": 1.0}, \"3\": {\"In\": 1.0}, \"4\": {\"I\": 1.0}, \"5\": {\"I\": 1.0}, \"6\": {\"I\": 1.0}, \"7\": {\"I\": 1.0}, \"8\": {\"I\": 1.0}, \"9\": {\"I\": 1.0}, \"10\": {\"Cs\": 1.0}, \"11\": {\"Cs\": 1.0}, \"12\": {\"K\": 1.0}, \"13\": {\"In\": 1.0}, \"14\": {\"I\": 1.0}, \"15\": {\"I\": 1.0}, \"16\": {\"I\": 1.0}, \"17\": {\"I\": 1.0}, \"18\": {\"I\": 1.0}, \"19\": {\"I\": 1.0}, \"20\": {\"Cs\": 1.0}, \"21\": {\"Cs\": 1.0}, \"22\": {\"K\": 1.0}, \"23\": {\"In\": 1.0}, \"24\": {\"I\": 1.0}, \"25\": {\"I\": 1.0}, \"26\": {\"I\": 1.0}, \"27\": {\"I\": 1.0}, \"28\": {\"I\": 1.0}, \"29\": {\"I\": 1.0}, \"30\": {\"Cs\": 1.0}, \"31\": {\"Cs\": 1.0}, \"32\": {\"K\": 1.0}, \"33\": {\"In\": 1.0}, \"34\": {\"I\": 1.0}, \"35\": {\"I\": 1.0}, \"36\": {\"I\": 1.0}, \"37\": {\"I\": 1.0}, \"38\": {\"I\": 1.0}, \"39\": {\"I\": 1.0}}" energy=-103.17525803540188 free_energy=-103.17525803540188 stress="-2.4475614980701724e-06 9.362089444126169e-07 -1.229390504861454e-06 9.362089444126169e-07 1.2358034043994454e-06 -2.983295159598837e-06 -1.229390504861454e-06 -2.983295159598837e-06 -8.832236556877557e-06" pbc="T T T"
Cs       1.93199703       5.13183214       8.80865041        0       0.00003310       0.00001316      -0.00022287
Cs       5.82819196       1.43894700       8.74211753        1       0.00010989       0.00019019       0.00020202
K        0.64835308      -0.11781406       4.40976176        2      -0.00008311      -0.00036772      -0.00005366
In       0.61410684      -0.14713367      -0.00394508        3       0.00045544       0.00020858       0.00011867
I        2.31877853       1.62145964       1.73724139        4      -0.00002375      -0.00009308      -0.00009255
I        5.37276020       4.89196411       6.98615059        5       0.00039930       0.00052288      -0.00017676
I        3.03535442      -0.68755797       7.04229097        6       0.00017427      -0.00019643       0.00031811
I        7.30390737      -1.71281822       1.71997686        7       0.00046190      -0.00035134      -0.00044242
I       -1.34351428       6.43652537       1.73340648        8      -0.00029817      -0.00081568       0.00025949
I       -0.00709185       2.24126749       7.04692284        9      -0.00017263       0.00047617       0.00011243
Cs      -0.71575750      14.04600313       8.76953219       10       0.00013117       0.00012275      -0.00025123
Cs       3.18046571      10.35310830       8.70305100       11       0.00004707       0.00033349       0.00011011
K       -1.99940982       8.79633294       4.37054995       12      -0.00001750      -0.00022856       0.00023823
In      -2.03362647       8.76704823      -0.04302317       13       0.00011389       0.00029915      -0.00033333
I       -0.32888379      10.53553547       1.69791636       14       0.00001965       0.00017258       0.00040261
I        2.72494712      13.80615531       6.94695165       15       0.00063176       0.00056295       0.00021465
I        0.38771422       8.22652645       7.00328397       16      -0.00004672      -0.00008622       0.00002656
I        4.65621095       7.20134766       1.68082155       17       0.00012671      -0.00025017      -0.00018332
I       -3.99115351      15.35049279       1.69431846       18      -0.00045436      -0.00017565       0.00006463
I       -2.65485860      11.15550866       7.00795247       19      -0.00010536       0.00019890      -0.00017333
Cs      10.97474992       2.96783499       8.75150580       20      -0.00014089       0.00001859      -0.00012718
Cs      14.87091812      -0.72502897       8.68507051       21       0.00003216       0.00019069       0.00010064
K        9.69107097      -2.28178505       4.35269126       22      -0.00020223      -0.00037110      -0.00010974
In       9.65695757      -2.31103985      -0.06102858       23      -0.00075218      -0.00024502       0.00019227
I       11.36148454      -0.54253325       1.68015860       24       0.00005607      -0.00004591      -0.00008030
I       14.41537319       2.72813418       6.92919591       25       0.00045292       0.00015680      -0.00051349
I       12.07800137      -2.85150831       6.98518809       26       0.00044967      -0.00020597       0.00038968
I       16.34676690      -3.87693901       1.66267377       27      -0.00025260       0.00001461       0.00035781
I        7.69929719       4.27239770       1.67643558       28      -0.00060076      -0.00006622      -0.00025440
I        9.03556796       0.07740258       6.98979973       29      -0.00007332       0.00006736       0.00036300
Cs       8.32705949      11.88196040       8.71240900       30      -0.00021852       0.00017726      -0.00015023
Cs      12.22316467       8.18916179       8.64596160       31       0.00007455       0.00019051       0.00010867
K        7.04327339       6.63238285       4.31349180       32       0.00004399      -0.00030776       0.00011449
In       7.00902091       6.60318455      -0.10023546       33       0.00025367      -0.00032134       0.00036645
I        8.71383526       8.37158465       1.64090458       34      -0.00012401       0.00003621       0.00014539
I       11.76758253      11.64238744       6.89016120       35       0.00043725      -0.00003524      -0.00072342
I        9.43046897       6.06247346       6.94625376       36      -0.00023461       0.00015807       0.00002695
I       13.69898363       5.03729848       1.62366571       37      -0.00016956      -0.00004055       0.00015123
I        5.05160261      13.18642770       1.63734310       38      -0.00058284       0.00023808      -0.00037405
I        6.38775475       8.99169792       6.95083232       39       0.00004869      -0.00014501      -0.00012180
