40
Lattice="16.694997637560903 -4.227023393788491 0.6611295367889481 -4.662828279008839 16.556306583219076 -1.1761908694616714 -0.2006481906346151 0.5647094368979076 8.73066089434427" Properties=species:S:1:pos:R:3:spacegroup_kinds:I:1:forces:R:3 spacegroup="P 1" unit_cell=conventional occupancy="_JSON {\"0\": {\"Cs\": 1.0}, \"1\": {\"Cs\": 1.0}, \"2\": {\"K\": 1.0}, \"3\": {\"In\": 1.0}, \"4\": {\"I\": 1.0}, \"5\": {\"I\": 1.0}, \"6\": {\"I\": 1.0}, \"7\": {\"I\": 1.0}, \"8\": {\"I\": 1.0}, \"9\": {\"I\": 1.0}, \"10\": {\"Cs\": 1.0}, \"11\": {\"Cs\": 1.0}, \"12\": {\"K\": 1.0}, \"13\": {\"In\": 1.0}, \"14\": {\"I\": 1.0}, \"15\": {\"I\": 1.0}, \"16\": {\"I\": 1.0}, \"17\": {\"I\": 1.0}, \"18\": {\"I\": 1.0}, \"19\": {\"I\": 1.0}, \"20\": {\"Cs\": 1.0}, \"21\": {\"Cs\": 1.0}, \"22\": {\"K\": 1.0}, \"23\": {\"In\": 1.0}, \"24\": {\"I\": 1.0}, \"25\": {\"I\": 1.0}, \"26\": {\"I\": 1.0}, \"27\": {\"I\": 1.0}, \"28\": {\"I\": 1.0}, \"29\": {\"I\": 1.0}, \"30\": {\"Cs\": 1.0}, \"31\": {\"Cs\": 1.0}, \"32\": {\"K\": 1.0}, \"33\": {\"In\": 1.0}, \"34\": {\"I\": 1.0}, \"35\": {\"I\": 1.0}, \"36\": {\"I\": 1.0}, \"37\": {\"I\": 1.0}, \"38\": {\"I\": 1.0}, \"39\": {\"I\": 1.0}}" energy=-103.10311301086708 free_energy=-103.10311301086708 stress="-5.314702229209397e-06 1.9501219788341095e-07 4.996258652836927e-06 1.9501219788341095e-07 6.462915802615774e-06 1.7276732368603188e-06 4.996258652836927e-06 1.7276732368603188e-06 7.680705321107644e-06" pbc="T T T"
Cs       3.28545835       2.42944011       1.15701222        0      -0.00039399      -0.00003239       0.00006055
Cs      -0.41867737       6.30036473       7.11853500        1      -0.00060873      -0.00041523      -0.00003637
K       15.12001555      -2.94476395       4.92765671        2      -0.00016842       0.00006986       0.00005627
In      15.21948184      -3.22738189       0.56221566        3       0.00049789       0.00064687       0.00042613
I       16.06521445      -0.85792044       2.17683089        4       0.00064065       0.00022073      -0.00016184
I        3.49336095       5.35999188       6.75963165        5       0.00050989       0.00010154       0.00002463
I        0.76391042       1.81627430       6.92371117        6       0.00022446       0.00017787       0.00000933
I        2.10108451       6.91190481       1.35222745        7       0.00002564       0.00019164      -0.00004457
I       -2.33271875       7.49935679       1.21062411        8      -0.00068420      -0.00035803      -0.00018991
I        5.19879441       1.23043546       7.06467829        9      -0.00033848      -0.00014000       0.00009460
Cs       0.95404232      10.70758567       0.56890197       10      -0.00032978      -0.00000329       0.00006363
Cs      -2.75010321      14.57852328       6.53046257       11      -0.00056061      -0.00043191      -0.00011588
K       12.78859648       5.33340636       4.33960021       12      -0.00016310       0.00000609      -0.00002147
In      12.88809845       5.05081319      -0.02588536       13       0.00027285       0.00036556       0.00044410
I       13.73382125       7.42020069       1.58868030       14       0.00058423       0.00032053      -0.00003598
I        1.16197657      13.63805734       6.17143265       15       0.00054407       0.00049192       0.00033740
I       -1.56753557      10.09444164       6.33569376       16       0.00025319       0.00015889      -0.00010904
I       -0.23032821      15.19005026       0.76417037       17      -0.00002658       0.00020664      -0.00009645
I       -0.00143174      -0.77863851       1.79859761       18      -0.00024551      -0.00084584       0.00014402
I        2.86729379       9.50868975       6.47656359       19      -0.00000325      -0.00050069       0.00022886
Cs      11.63296322       0.31592180       1.48753989       20      -0.00035552      -0.00003214       0.00015228
Cs       7.92882320       4.18684883       7.44908651       21      -0.00060475      -0.00039110      -0.00004529
K        6.77251487      -0.83122003       4.59716039       22      -0.00018562      -0.00007047       0.00000950
In       6.87199002      -1.11375659       0.23180255       23       0.00040506      -0.00012236      -0.00034415
I        7.71772174       1.25556708       1.84625375       24       0.00067017       0.00045989       0.00001646
I       11.84087118       3.24646110       7.09018848       25       0.00046720       0.00014348       0.00002147
I        9.11131086      -0.29718977       7.25428122       26       0.00039331       0.00017794       0.00005846
I       10.44854414       4.79839467       1.68291011       27       0.00029684       0.00023100      -0.00039199
I        6.01475517       5.38586613       1.54117131       28      -0.00051388      -0.00050009      -0.00005347
I       13.54631596      -0.88310803       7.39538498       29      -0.00044200      -0.00000722      -0.00025656
Cs       9.30154853       8.59408060       0.89947731       30      -0.00039139      -0.00005215       0.00007091
Cs       5.59741908      12.46499799       6.86099146       31      -0.00067741      -0.00040817      -0.00004158
K        4.44111109       7.44690275       4.00904204       32      -0.00021153       0.00006711       0.00004446
In       4.54057862       7.16427616      -0.35631989       33       0.00046871       0.00073647      -0.00024436
I        5.38629561       9.53375834       1.25814719       34       0.00063674       0.00017698      -0.00010554
I        9.50944650      11.52465502       6.50207156       35       0.00044038      -0.00003678      -0.00002225
I        6.77997233       7.98092848       6.66616900       36       0.00011321       0.00015720       0.00016625
I        8.11716072      13.07654075       1.09482672       37       0.00006493       0.00020025      -0.00028522
I        8.34614340      -2.89225799       2.12921947       38      -0.00050609      -0.00051894      -0.00001954
I       11.21479265       7.39518486       6.80709970       39      -0.00009858      -0.00044166       0.00019215
