40
Lattice="19.527163141200298 0.0 0.0 -6.085168685107104 18.554805911591835 0.0 1.2638661467435621 0.41449308254559364 9.050931123859442" Properties=species:S:1:pos:R:3 pbc="T T T"
Cs       3.86278330       3.11460919       0.02874046
Cs       0.84987864       6.61893026       9.02203142
K       -1.00414159       0.22809735       4.52545943
In      -1.63610902       0.02083358       0.00005527
I       -2.16258589       2.54663322       1.81057044
I        6.87523383       7.18702224       7.24036608
I        1.15144291       2.77443768       7.24040158
I        3.56119739       6.95900920       1.81060595
I       -1.87003012       9.36038946       1.81058485
I        6.58270996       0.37315172       7.24038048
Cs       0.82019896      12.39201214       0.02874046
Cs      -2.19270570      15.89633321       9.02203142
K       -4.04672594       9.50550030       4.52545943
In      -4.67869336       9.29823654       0.00005527
I       -5.20517023      11.82403617       1.81057044
I        3.83264949      16.46442520       7.24036608
I       -1.89114144      12.05184063       7.24040158
I        0.51861305      16.23641215       1.81060595
I       -4.91261446      18.63779242       1.81058485
I        3.54012562       9.65055467       7.24038048
Cs      13.62636487       3.11460919       0.02874046
Cs      10.61346021       6.61893026       9.02203142
K        8.75943998       0.22809735       4.52545943
In       8.12747255       0.02083358       0.00005527
I        7.60099568       2.54663322       1.81057044
I       16.63881541       7.18702224       7.24036608
I       10.91502448       2.77443768       7.24040158
I       13.32477896       6.95900920       1.81060595
I        7.89355145       9.36038946       1.81058485
I       16.34629153       0.37315172       7.24038048
Cs      10.58378053      12.39201214       0.02874046
Cs       7.57087587      15.89633321       9.02203142
K        5.71685563       9.50550030       4.52545943
In       5.08488821       9.29823654       0.00005527
I        4.55841134      11.82403617       1.81057044
I       13.59623106      16.46442520       7.24036608
I        7.87244013      12.05184063       7.24040158
I       10.28219462      16.23641215       1.81060595
I        4.85096711      18.63779242       1.81058485
I       13.30370719       9.65055467       7.24038048
