40
Lattice="21.052690929361848 0.0 0.0 -12.106213532515522 11.862795751831449 0.0 1.9408103371306171 0.2936542391499129 6.933715463680193" Properties=species:S:1:pos:R:3 pbc="T T T"
Cs       9.84849720       2.28414957       6.92710027
Cs       2.38485099       3.96817995       0.00641834
K        3.88006367       0.16045315       3.46686220
In       2.90968004       0.01363491       0.00005529
I       11.06340067       0.07646065       1.38698662
I        1.16992984       6.17578703       5.54677058
I        4.47666024       1.62569618       1.38700637
I        7.75675555       4.62668004       5.54679034
I        9.35316976       4.44637341       1.38697867
I        2.88017772       1.80598208       5.54676263
Cs       3.79539043       8.21554744       6.92710027
Cs      -3.66825578       9.89957782       0.00641834
K       -2.17304309       6.09185103       3.46686220
In      -3.14342673       5.94503279       0.00005529
I        5.01029391       6.00785852       1.38698662
I       -4.88317693      12.10718491       5.54677058
I       -1.57644653       7.55709405       1.38700637
I        1.70364878      10.55807792       5.54679034
I        3.30006299      10.37777129       1.38697867
I       -3.17292904       7.73737996       5.54676263
Cs      20.37484266       2.28414957       6.92710027
Cs      12.91119645       3.96817995       0.00641834
K       14.40640914       0.16045315       3.46686220
In      13.43602550       0.01363491       0.00005529
I       21.58974614       0.07646065       1.38698662
I       11.69627530       6.17578703       5.54677058
I       15.00300571       1.62569618       1.38700637
I       18.28310101       4.62668004       5.54679034
I       19.87951522       4.44637341       1.38697867
I       13.40652319       1.80598208       5.54676263
Cs      14.32173589       8.21554744       6.92710027
Cs       6.85808968       9.89957782       0.00641834
K        8.35330237       6.09185103       3.46686220
In       7.38291874       5.94503279       0.00005529
I       15.53663937       6.00785852       1.38698662
I        5.64316854      12.10718491       5.54677058
I        8.94989894       7.55709405       1.38700637
I       12.22999425      10.55807792       5.54679034
I       13.82640846      10.37777129       1.38697867
I        7.35341642       7.73737996       5.54676263
