20
Lattice="23.78737964750016 -0.12760667732753322 -0.6029149033960242 -7.362014107952729 7.325149421274155 -0.01563487876488538 -0.12942262253408351 4.005226598437508 8.223758019152152" Properties=species:S:1:pos:R:3:spacegroup_kinds:I:1:forces:R:3 spacegroup="P 1" unit_cell=conventional occupancy="_JSON {\"0\": {\"Cs\": 1.0}, \"1\": {\"Cs\": 1.0}, \"2\": {\"K\": 1.0}, \"3\": {\"In\": 1.0}, \"4\": {\"I\": 1.0}, \"5\": {\"I\": 1.0}, \"6\": {\"I\": 1.0}, \"7\": {\"I\": 1.0}, \"8\": {\"I\": 1.0}, \"9\": {\"I\": 1.0}, \"10\": {\"Cs\": 1.0}, \"11\": {\"Cs\": 1.0}, \"12\": {\"K\": 1.0}, \"13\": {\"In\": 1.0}, \"14\": {\"I\": 1.0}, \"15\": {\"I\": 1.0}, \"16\": {\"I\": 1.0}, \"17\": {\"I\": 1.0}, \"18\": {\"I\": 1.0}, \"19\": {\"I\": 1.0}}" energy=-50.791179766067586 free_energy=-50.791179766067586 stress="2.3060291992735202e-06 2.582899168729499e-08 -1.7054562584821764e-07 2.582899168729499e-08 -2.0608517912692632e-07 1.5487616938328834e-06 -1.7054562584821764e-07 1.5487616938328834e-06 5.216894374698884e-07" pbc="T T T"
Cs       0.26984515       7.39839469       6.30624520        0      -0.00063546       0.00017819       0.00037026
Cs       7.37225163       7.60693382       7.89698031        1      -0.00048952       0.00016391       0.00024770
K        2.30112288       2.58642419       2.82064477        2      -0.00010244      -0.00015685       0.00027412
In      -1.09215172      -0.36388082       1.12600928        3       0.00004011       0.00018291       0.00002404
I        2.94337015       6.14965250       3.49999165        4       0.00023750       0.00018101       0.00025970
I        3.59680041       7.99408079       8.20051482        5      -0.00006246      -0.00011718      -0.00026613
I        4.29051439       0.81222714       4.86368409        6      -0.00008170      -0.00005223      -0.00018305
I       10.73177947       2.52963491       1.51584016        7       0.00036519      -0.00025055      -0.00009365
I       -5.78094251       7.39048037       0.19041834        8      -0.00051496      -0.00049537       0.00007360
I       20.39397432       3.81757448       6.98089749        9       0.00027702      -0.00018754       0.00033622
Cs      12.16095472       7.33485898       6.00589927       10       0.00050894       0.00020315      -0.00013489
Cs      19.26582643       7.54417484       7.59559651       11       0.00025395      -0.00043973      -0.00009635
K       14.19397318       2.52368952       2.51969774       12       0.00002496       0.00010695      -0.00008232
In      10.80159126      -0.42775178       0.82487776       13      -0.00009008       0.00001176      -0.00006828
I       14.83782012       6.08710515       3.19893031       14      -0.00011548      -0.00041473      -0.00050358
I       15.48954694       7.93019696       7.89861316       15       0.00009328       0.00054180       0.00029164
I       16.18185303       0.74656447       4.56139499       16       0.00018667       0.00007905      -0.00027483
I       22.62634822       2.46582763       1.21335913       17      -0.00018917       0.00013617      -0.00004517
I        6.11223155       7.32682315      -0.11105278       18       0.00046451       0.00025194       0.00014960
I        8.50061175       3.88089182       7.28265379       19      -0.00017086       0.00007735      -0.00027864
