20
Lattice="21.404261851207064 0.0 0.0 -6.499213177123636 4.471299901476198 0.0 0.0 2.6041878714618085 7.215634856207897" Properties=species:S:1:pos:R:3 pbc="T T T"
Cs       0.31394412       3.18091709      -0.00003081
Cs       6.04772549       1.69048379      -0.00003081
K        1.07938173       1.50214272       3.60782346
In       1.07938828       0.20005188       0.00002189
I        2.18139577       1.89343941       1.44362738
I        4.18030049       5.58215072       5.77204270
I        2.80610250       2.08317605       5.77202509
I        7.89602842       0.52101182       1.44360976
I       -3.71574324       4.02000002       1.44361784
I       -1.70409599       3.25555246       5.77202509
Cs      11.01607505       3.18091709      -0.00003081
Cs      16.74985641       1.69048379      -0.00003081
K       11.78151266       1.50214272       3.60782346
In      11.78151921       0.20005188       0.00002189
I       12.88352670       1.89343941       1.44362738
I       14.88243141       5.58215072       5.77204270
I       13.50823343       2.08317605       5.77202509
I       18.59815935       0.52101182       1.44360976
I        6.98638769       4.02000002       1.44361784
I        8.99803494       3.25555246       5.77202509
