40
Lattice="15.18043193221788 -0.4055860602457568 8.155989311108307 5.612209682251554 22.207337621372364 8.874519939329229 8.323200927721082 3.1412425146368332 11.987718553163484" Properties=species:S:1:pos:R:3:spacegroup_kinds:I:1:forces:R:3 spacegroup="P 1" unit_cell=conventional occupancy="_JSON {\"0\": {\"Cs\": 1.0}, \"1\": {\"Cs\": 1.0}, \"2\": {\"K\": 1.0}, \"3\": {\"In\": 1.0}, \"4\": {\"I\": 1.0}, \"5\": {\"I\": 1.0}, \"6\": {\"I\": 1.0}, \"7\": {\"I\": 1.0}, \"8\": {\"I\": 1.0}, \"9\": {\"I\": 1.0}, \"10\": {\"Cs\": 1.0}, \"11\": {\"Cs\": 1.0}, \"12\": {\"K\": 1.0}, \"13\": {\"In\": 1.0}, \"14\": {\"I\": 1.0}, \"15\": {\"I\": 1.0}, \"16\": {\"I\": 1.0}, \"17\": {\"I\": 1.0}, \"18\": {\"I\": 1.0}, \"19\": {\"I\": 1.0}, \"20\": {\"Cs\": 1.0}, \"21\": {\"Cs\": 1.0}, \"22\": {\"K\": 1.0}, \"23\": {\"In\": 1.0}, \"24\": {\"I\": 1.0}, \"25\": {\"I\": 1.0}, \"26\": {\"I\": 1.0}, \"27\": {\"I\": 1.0}, \"28\": {\"I\": 1.0}, \"29\": {\"I\": 1.0}, \"30\": {\"Cs\": 1.0}, \"31\": {\"Cs\": 1.0}, \"32\": {\"K\": 1.0}, \"33\": {\"In\": 1.0}, \"34\": {\"I\": 1.0}, \"35\": {\"I\": 1.0}, \"36\": {\"I\": 1.0}, \"37\": {\"I\": 1.0}, \"38\": {\"I\": 1.0}, \"39\": {\"I\": 1.0}}" energy=-103.10311652854851 free_energy=-103.10311652854851 stress="1.1607669700037869e-07 2.537226617187004e-08 -3.178265450454827e-07 2.537226617187004e-08 6.209749304292073e-07 3.481599011890548e-07 -3.178265450454827e-07 3.481599011890548e-07 -2.507257818940493e-07" pbc="T T T"
Cs       5.84055060       3.18797300       7.50192061        0       0.00017554       0.00014351      -0.00016746
Cs      12.87792083      10.85307963      13.00164418        1       0.00030285       0.00015198       0.00008141
K        9.35882740       7.02091150      10.25119677        2       0.00030634       0.00011579      -0.00014792
In      15.18013185      -0.40588158       8.15506278        3       0.00001167       0.00006920       0.00031924
I        9.45641369       3.58309555       9.25647598        4       0.00033570      -0.00006500      -0.00004377
I        9.25853206      10.45886480      11.24475557        5       0.00039780       0.00022534       0.00004948
I        9.58761525       1.72583530       5.18399503        6      -0.00039717      -0.00015150       0.00016167
I        9.13465432      12.31551120      15.31597661        7      -0.00069425      -0.00036155       0.00011914
I        4.69883669       8.83554519       4.89474056        8      -0.00001029       0.00013856      -0.00012055
I       14.02055913       5.20743392      15.61138287        9       0.00050126      -0.00001181       0.00003883
Cs       8.64811797      14.29292101      11.93947671       10      -0.00025239      -0.00006242       0.00006899
Cs      15.68476549      21.95760877      17.43752973       11      -0.00024067      -0.00010556      -0.00004892
K       12.16684314      18.12494699      14.68909168       12      -0.00040431      -0.00027176      -0.00001189
In      17.98677053      10.69827568      12.59415574       13       0.00017424       0.00000936      -0.00002747
I       12.26756243      14.68676578      13.69702522       14      -0.00033309       0.00002891       0.00005312
I       12.06875172      21.56277645      15.68208682       15      -0.00051486      -0.00024047       0.00042667
I       12.39168565      12.83109780       9.62551310       16       0.00014341      -0.00014502      -0.00031788
I       11.93741825      23.41912626      19.75502445       17       0.00051044       0.00025834      -0.00007925
I        7.50444463      19.93783473       9.32711352       18      -0.00027190      -0.00002631       0.00008325
I       16.82743562      16.31066771      20.04738537       19      -0.00044001       0.00017867      -0.00000391
Cs      13.43077715       2.98512618      11.57985985       20       0.00018120       0.00013527      -0.00008704
Cs      20.46807743      10.65038817      17.07959146       21       0.00025326       0.00008396       0.00003780
K       16.94900625       6.81807943      14.32911867       22       0.00035222       0.00017669       0.00008784
In       7.58993401      -0.20309971       4.07712321       23      -0.00003131       0.00056150      -0.00003704
I       17.04663391       3.38034739      13.33448110       24       0.00038039      -0.00009088       0.00004724
I       16.84861539      10.25616979      15.32292921       25       0.00059680       0.00017377      -0.00059806
I       17.17785321       1.52293224       9.26183162       26      -0.00020474       0.00002771       0.00038698
I       16.72473515      12.11279601      19.39387120       27      -0.00043203      -0.00023956       0.00037367
I       12.28902475       8.63273712       8.97254116       28       0.00013569      -0.00000364      -0.00005413
I       21.61081532       5.00460806      19.68943979       29       0.00033229       0.00004447      -0.00003379
Cs      16.23823019      14.09017629      16.01738540       30      -0.00026406      -0.00012342       0.00003394
Cs      23.27511331      21.75485474      21.51555562       31      -0.00029733      -0.00012906      -0.00009929
K       19.75699639      17.92210574      18.76702865       32      -0.00029858      -0.00008113       0.00015923
In      10.39657797      10.90110016       8.51619181       33       0.00019123      -0.00000671      -0.00019807
I       19.85763531      14.48410765      17.77514623       34      -0.00018026      -0.00004613      -0.00037380
I       19.65913619      21.36001563      19.76024878       35      -0.00047927      -0.00035952      -0.00003365
I       19.98170693      12.62832855      13.70339660       36       0.00042874       0.00001601      -0.00006278
I       19.52772970      23.21635935      23.83305392       37       0.00035765       0.00014280      -0.00025437
I       15.09462907      19.73511986      13.40512385       38      -0.00002010      -0.00016171       0.00018381
I       24.41760591      16.10782879      24.12511421       39      -0.00030209       0.00000134       0.00008873
