10
Lattice="8.732757004575713 0.4358014965748889 0.919172565422113 3.4477296745687864 8.00746999939531 0.5020920717752212 2.954377626450665 2.47323320619288 7.808675324388493" Properties=species:S:1:pos:R:3:spacegroup_kinds:I:1:forces:R:3 spacegroup="P 1" unit_cell=conventional occupancy="_JSON {\"0\": {\"Cs\": 1.0}, \"1\": {\"Cs\": 1.0}, \"2\": {\"K\": 1.0}, \"3\": {\"In\": 1.0}, \"4\": {\"I\": 1.0}, \"5\": {\"I\": 1.0}, \"6\": {\"I\": 1.0}, \"7\": {\"I\": 1.0}, \"8\": {\"I\": 1.0}, \"9\": {\"I\": 1.0}}" energy=-25.64894358923163 free_energy=-25.64894358923163 stress="-1.6326249682613283e-06 5.042738143098071e-07 -1.381470995001578e-06 5.042738143098071e-07 -2.11150001629561e-06 -2.17791686919686e-06 -1.381470995001578e-06 -2.17791686919686e-06 -1.7917727697781003e-06" pbc="T T T"
Cs       3.63759336       2.64523523       2.21763736        0       0.00005146       0.00076483      -0.00031271
Cs      11.49745926       8.26882616       7.01214401        1      -0.00023207       0.00080767      -0.00020508
K        7.56711210       5.45884351       4.61539726        2      -0.00009753      -0.00040171      -0.00047319
In      -0.00026337       0.00001687       0.00022251        3       0.00040969       0.00046984      -0.00018913
I        4.70312313       4.44525935       6.42487026        4       0.00031969      -0.00029665      -0.00039488
I       10.43184550       6.47155770       2.80598483        5       0.00038976      -0.00003974      -0.00029831
I        8.36576971       2.32350808       3.18539230        6      -0.00044123      -0.00004202       0.00066628
I        6.76857041       8.59371884       6.04424143        7       0.00031760      -0.00056763       0.00029666
I        5.82707087       6.82189379       1.84939051        8      -0.00017712      -0.00072718       0.00042616
I        9.30860681       4.09541088       7.37944873        9      -0.00054025       0.00003260       0.00048420
