20
Lattice="8.00858115100697 -0.45902485141131044 2.65162248249341 -4.348635652373717 9.473591788127258 -3.19382862985413 -3.711646189548172 2.2068141415889877 11.59368691493893" Properties=species:S:1:pos:R:3:spacegroup_kinds:I:1:forces:R:3 spacegroup="P 1" unit_cell=conventional occupancy="_JSON {\"0\": {\"Cs\": 1.0}, \"1\": {\"Cs\": 1.0}, \"2\": {\"Cs\": 1.0}, \"3\": {\"Cs\": 1.0}, \"4\": {\"Pb\": 1.0}, \"5\": {\"Pb\": 1.0}, \"6\": {\"Pb\": 1.0}, \"7\": {\"Pb\": 1.0}, \"8\": {\"I\": 1.0}, \"9\": {\"I\": 1.0}, \"10\": {\"I\": 1.0}, \"11\": {\"I\": 1.0}, \"12\": {\"I\": 1.0}, \"13\": {\"I\": 1.0}, \"14\": {\"I\": 1.0}, \"15\": {\"I\": 1.0}, \"16\": {\"I\": 1.0}, \"17\": {\"I\": 1.0}, \"18\": {\"I\": 1.0}, \"19\": {\"I\": 1.0}}" energy=-56.619966860432186 free_energy=-56.619966860432186 stress="-1.0589636494919192e-05 -2.471543420010975e-06 1.2643655855416484e-07 -2.471543420010975e-06 3.7307839521673264e-06 3.572719650988039e-06 1.2643655855416484e-07 3.572719650988039e-06 -4.874500754579713e-06" pbc="T T T"
Cs      -1.68698348       8.66557557       1.11280853        0       0.00007753       0.00060899      -0.00019223
Cs      -3.51681481       4.15856424       1.38409294        1       0.00014389      -0.00017031      -0.00035373
Cs       1.67564314       2.56727614       9.94996114        2      -0.00010577      -0.00003282      -0.00010771
Cs       3.50539244       7.07485226       9.67839275        3       0.00007981      -0.00014329       0.00018324
Pb       0.02068399       0.00547220       0.00470709        4      -0.00001756       0.00017580       0.00043067
Pb       1.85026815       4.51335099      -0.26543120        5      -0.00000043      -0.00025471       0.00011342
Pb       6.17284606       0.64982252       8.45299648        6       0.00004616       0.00046849       0.00025730
Pb      -0.00633428       5.61639998       5.53146004        7       0.00044099      -0.00014651      -0.00009813
I       -3.51127072       6.59804000      -1.79748490        8       0.00012682      -0.00013300      -0.00032547
I        2.66703314       1.63158468       1.12491503        9       0.00038428       0.00037860       0.00010391
I        6.24873888       0.42388545       5.21994483       10      -0.00037684       0.00038102       0.00013905
I        3.50105094       4.63466277      12.85971318       11      -0.00071157       0.00042079       0.00016803
I       -2.67870496       9.60145910       9.93770432       12       0.00006525      -0.00042213      -0.00027826
I        0.06978788       5.39112219       2.29824988       13      -0.00000903      -0.00038876      -0.00039177
I       -5.04094915       7.50749497       2.97792878       14       0.00029102      -0.00022390       0.00029145
I        1.13790181       2.54100821       5.90141315       15       0.00002511       0.00018020      -0.00027549
I       -6.25935052      10.80909751       5.84103844       16      -0.00009339      -0.00024753       0.00028972
I        5.02883452       3.72594508       8.08374321       17       0.00001963      -0.00021242      -0.00004001
I       -1.14961825       8.69212181       5.16095614       18      -0.00020971      -0.00008378       0.00011292
I       -0.08081608       5.84292312       8.76492475       19      -0.00017621      -0.00015472      -0.00002689
