20
Lattice="16.77547688282905 0.0 0.0 -7.452068011226625 6.646336852604101 0.0 0.0 -2.6128304338716397 7.731322845134075" Properties=species:S:1:pos:R:3 pbc="T T T"
Cs       5.84904870      -2.19009276       7.72394951
Cs       0.56911321       2.63327187       0.00715949
K        0.00000000      -1.30641522       3.86566142
In       2.74127536      -1.79517947       0.00003940
I        8.92724295      -2.31323519       1.54650515
I       -2.50910092       2.75633221       6.18480232
I        2.99213778      -0.57727815       1.54653932
I        3.42608827       1.02048909       6.18483649
I        5.62778941       2.58339338       1.54652513
I        0.79037633      -2.14019576       6.18482230
Cs      14.23678714      -2.19009276       7.72394951
Cs       8.95685166       2.63327187       0.00715949
K        8.38773844      -1.30641522       3.86566142
In      11.12901380      -1.79517947       0.00003940
I       17.31498139      -2.31323519       1.54650515
I        5.87863752       2.75633221       6.18480232
I       11.37987622      -0.57727815       1.54653932
I       11.81382671       1.02048909       6.18483649
I       14.01552785       2.58339338       1.54652513
I        9.17811478      -2.14019576       6.18482230
