20
Lattice="16.862006804844572 3.8616830312437154 1.8516218934812554 -5.773161404104607 6.333846110401724 -1.4895530940043669 -0.10138738594908805 -3.9267028420540746 9.09999692187984" Properties=species:S:1:pos:R:3:spacegroup_kinds:I:1:forces:R:3 spacegroup="P 1" unit_cell=conventional occupancy="_JSON {\"0\": {\"Cs\": 1.0}, \"1\": {\"Cs\": 1.0}, \"2\": {\"K\": 1.0}, \"3\": {\"In\": 1.0}, \"4\": {\"I\": 1.0}, \"5\": {\"I\": 1.0}, \"6\": {\"I\": 1.0}, \"7\": {\"I\": 1.0}, \"8\": {\"I\": 1.0}, \"9\": {\"I\": 1.0}, \"10\": {\"Cs\": 1.0}, \"11\": {\"Cs\": 1.0}, \"12\": {\"K\": 1.0}, \"13\": {\"In\": 1.0}, \"14\": {\"I\": 1.0}, \"15\": {\"I\": 1.0}, \"16\": {\"I\": 1.0}, \"17\": {\"I\": 1.0}, \"18\": {\"I\": 1.0}, \"19\": {\"I\": 1.0}}" energy=-51.25963819554718 free_energy=-51.25963819554718 stress="-4.3208786433082295e-06 2.219527091268556e-06 -1.134415141071236e-06 2.219527091268556e-06 -1.3739166301598074e-06 -7.700645105441903e-07 -1.134415141071236e-06 -7.700645105441903e-07 -5.9332302304165056e-06" pbc="T T T"
Cs       5.86402561      -2.28852731       8.54476759        0      -0.00006345       0.00018650      -0.00012878
Cs       0.92412782       3.35973900       0.90852900        1      -0.00019933       0.00002617      -0.00010997
K        1.53083347      -1.15157599       4.77216035        2       0.00032512      -0.00023824       0.00013222
In      -3.65762322       4.70084746      -1.02955230        3      -0.00021992       0.00009484       0.00003625
I        2.16914527       7.12811391       1.25436577        4      -0.00004311      -0.00010885       0.00007097
I       -1.13490057       0.30942657       6.70636548        5       0.00006731       0.00013920       0.00009312
I       -2.40988451       6.80418246       0.67102877        6       0.00024175      -0.00014620       0.00006725
I        3.44247266       0.56851369       7.29701154        7       0.00023093       0.00006765      -0.00001920
I        5.43339442       4.60624897       1.97814745        8      -0.00028311      -0.00000322       0.00000321
I       -4.45519881       2.79931069       5.97839199        9      -0.00027948       0.00018519      -0.00011615
Cs      14.29495140      -0.35778464       9.47056892       10       0.00010035       0.00031775      -0.00007056
Cs       9.35499564       5.29051534       1.83421398       11       0.00006874       0.00015344       0.00010621
K        9.96188479       0.77931763       5.69796679       12       0.00032147      -0.00020212       0.00015686
In       4.77325793       6.63176295      -0.10384496       13       0.00029208      -0.00018375       0.00033786
I       10.60017000       9.05903177       2.18020981       14       0.00003608      -0.00024738       0.00001342
I        7.29625919       2.24034650       7.63237461       15      -0.00032136       0.00004837      -0.00019050
I        6.02119201       8.73490659       1.59702080       16      -0.00002190      -0.00000400      -0.00032557
I       11.87358678       2.49947949       8.22284069       17      -0.00008102      -0.00027489      -0.00015375
I       -2.99773608       2.67530628       1.05231873       18      -0.00002670       0.00011481       0.00014554
I        3.97575042       4.73017301       6.90412545       19      -0.00014444       0.00007474      -0.00004841
