20
Lattice="20.0935112428791 -1.4130320087944896 -2.1492871984408413 -3.7452982972319364 8.382326249372298 0.6902493394352209 -3.146680468896487 -1.6030709449676666 7.84912591028126" Properties=species:S:1:pos:R:3:spacegroup_kinds:I:1:forces:R:3 spacegroup="P 1" unit_cell=conventional occupancy="_JSON {\"0\": {\"Cs\": 1.0}, \"1\": {\"Cs\": 1.0}, \"2\": {\"K\": 1.0}, \"3\": {\"In\": 1.0}, \"4\": {\"I\": 1.0}, \"5\": {\"I\": 1.0}, \"6\": {\"I\": 1.0}, \"7\": {\"I\": 1.0}, \"8\": {\"I\": 1.0}, \"9\": {\"I\": 1.0}, \"10\": {\"Cs\": 1.0}, \"11\": {\"Cs\": 1.0}, \"12\": {\"K\": 1.0}, \"13\": {\"In\": 1.0}, \"14\": {\"I\": 1.0}, \"15\": {\"I\": 1.0}, \"16\": {\"I\": 1.0}, \"17\": {\"I\": 1.0}, \"18\": {\"I\": 1.0}, \"19\": {\"I\": 1.0}}" energy=-51.307041301630264 free_energy=-51.307041301630264 stress="1.5121485794010382e-06 -3.460420212000401e-06 -2.865164287259349e-06 -3.460420212000401e-06 2.069184055125025e-06 -4.095426246436135e-06 -2.865164287259349e-06 -4.095426246436135e-06 -8.66784788361823e-07" pbc="T T T"
Cs      -1.81189970       3.88857679       9.25735961        0      -0.00036159       0.00087205      -0.00014305
Cs       3.52836517       1.26789490       5.90277549        1       0.00035808       0.00018394       0.00020965
K       -0.71926251      -0.45684957       3.84743170        2       0.00002537      -0.00049887       0.00051626
In       0.85432246       0.34383345      -0.07696738        3       0.00018157      -0.00038485      -0.00024527
I        1.57812533       1.79289619       2.45758629        4      -0.00010744      -0.00003179       0.00055572
I        3.28588342       4.96744764       4.85279092        5      -0.00001730       0.00024692       0.00019457
I        0.61306040      -1.23311460       6.99313798        6       0.00034999      -0.00016764       0.00002620
I        4.25019712       7.99304667       0.31751463        7       0.00005246       0.00055216      -0.00046781
I       -2.50875777       6.10497927       2.02542705        8       0.00037450      -0.00052460       0.00032649
I       -2.67472516       1.36216486       6.36024853        9      -0.00047753       0.00018417      -0.00045471
Cs       8.23484737       3.18206488       8.18266968       10      -0.00034880       0.00081520      -0.00003694
Cs      13.57508342       0.56139379       4.82811291       11       0.00044350       0.00015908       0.00022988
K        9.32749740      -1.16336333       2.77286697       12       0.00001125      -0.00047264       0.00027546
In      10.90109206      -0.36261057      -1.15166256       13      -0.00023167      -0.00074014       0.00006149
I       11.62494666       1.08640424       1.38324047       14      -0.00031889      -0.00016947      -0.00007926
I       13.33257358       4.26108227       3.77843101       15      -0.00005796      -0.00014631      -0.00044946
I       10.65968311      -1.93963184       5.91851042       16       0.00062123      -0.00011833       0.00007846
I       14.29699981       7.28654614      -0.75713782       17      -0.00039356       0.00053611      -0.00034624
I        7.53801522       5.39844462       0.95080830       18       0.00031253      -0.00024777       0.00014330
I        7.37199437       0.65572937       5.28561476       19      -0.00041574      -0.00004721      -0.00039475
