20
Lattice="19.528245028257533 0.0 0.0 -2.9716423611000704 9.30093705755672 0.0 -2.5930328532313225 -2.2486449234514505 6.52077447136762" Properties=species:S:1:pos:R:3 pbc="T T T"
Cs       2.35298817       6.77898910      -0.00002811
Cs       6.59824313       3.67867674      -0.00002811
K       -0.21713506      -0.54596299       3.26039596
In       1.07938792       0.57836842       0.00002459
I        2.34159952       2.56719593       1.30461150
I        4.01662557       5.64182899       5.21620358
I        0.48590358      -1.79876548       5.21618328
I        6.68518608      -0.44987944       1.30459119
I       -1.63188358       6.99072784       1.30459901
I       -1.77404528       1.21832270       5.21619110
Cs      12.11711068       6.77898910      -0.00002811
Cs      16.36236564       3.67867674      -0.00002811
K        9.54698746      -0.54596299       3.26039596
In      10.84351044       0.57836842       0.00002459
I       12.10572203       2.56719593       1.30461150
I       13.78074809       5.64182899       5.21620358
I       10.25002610      -1.79876548       5.21618328
I       16.44930859      -0.44987944       1.30459119
I        8.13223894       6.99072784       1.30459901
I        7.99007723       1.21832270       5.21619110
