20
Lattice="17.943543114650048 0.0 0.0 4.485885778700288 7.769782085572443 0.0 4.485885778772796 2.589927361913847 7.325421002493724" Properties=species:S:1:pos:R:3 pbc="T T T"
Cs       4.48585333       2.58991763       1.83135637
Cs      13.45768970       7.76979156       5.49406447
K        8.97177158       5.17985463       3.66271047
In       0.00000010       0.00000023       0.00000009
I        6.89321785       3.33793975       5.06497632
I       11.05032535       7.02176934       2.26044458
I        9.61621061       2.86333247       1.70240978
I        8.32733221       7.49637658       5.62301108
I        6.57106138       6.56602949       1.70241657
I       11.37248206       3.79368040       5.62300467
Cs      13.45762488       2.58991763       1.83135637
Cs      22.42946125       7.76979156       5.49406447
K       17.94354314       5.17985463       3.66271047
In       8.97177166       0.00000023       0.00000009
I       15.86498940       3.33793975       5.06497632
I       20.02209691       7.02176934       2.26044458
I       18.58798217       2.86333247       1.70240978
I       17.29910377       7.49637658       5.62301108
I       15.54283293       6.56602949       1.70241657
I       20.34425361       3.79368040       5.62300467
