20
Lattice="18.358613185364863 -0.028466136537234732 0.011993405103589014 4.587034671702012 8.001993200072398 -0.022716337843130725 4.574796189976433 2.62777523241417 6.9344804762536745" Properties=species:S:1:pos:R:3:spacegroup_kinds:I:1:forces:R:3 spacegroup="P 1" unit_cell=conventional occupancy="_JSON {\"0\": {\"Cs\": 1.0}, \"1\": {\"Cs\": 1.0}, \"2\": {\"K\": 1.0}, \"3\": {\"In\": 1.0}, \"4\": {\"I\": 1.0}, \"5\": {\"I\": 1.0}, \"6\": {\"I\": 1.0}, \"7\": {\"I\": 1.0}, \"8\": {\"I\": 1.0}, \"9\": {\"I\": 1.0}, \"10\": {\"Cs\": 1.0}, \"11\": {\"Cs\": 1.0}, \"12\": {\"K\": 1.0}, \"13\": {\"In\": 1.0}, \"14\": {\"I\": 1.0}, \"15\": {\"I\": 1.0}, \"16\": {\"I\": 1.0}, \"17\": {\"I\": 1.0}, \"18\": {\"I\": 1.0}, \"19\": {\"I\": 1.0}}" energy=-51.297892905397184 free_energy=-51.297892905397184 stress="4.083214481536476e-07 2.1162826006064262e-07 -4.5153202506273577e-07 2.1162826006064262e-07 -5.148738914364152e-08 -8.940675312670296e-07 -4.5153202506273577e-07 -8.940675312670296e-07 4.1187043740632906e-07" pbc="T T T"
Cs       4.59961958       2.64182293       1.91962294        0       0.00016825      -0.00000668      -0.00026760
Cs      13.74117051       7.97366915       4.99908476        1       0.00028961      -0.00009961      -0.00014640
K        9.17063236       5.30815641       3.45886823        2       0.00012110      -0.00036042       0.00001797
In      18.35883010      -0.02833356       0.01181539        3      -0.00015618      -0.00034075       0.00022896
I        6.95793286       3.20836957       5.24780434        4      -0.00060453       0.00032343       0.00065977
I       11.38346589       7.40660190       1.66899032        5      -0.00020831       0.00007254       0.00030139
I        9.87264892       2.29342247       1.74674597        6       0.00002490      -0.00006407      -0.00002941
I        8.46843490       8.32219289       5.17096706        7       0.00002960      -0.00005240      -0.00007659
I        6.24615982       6.19916950       1.67438489        8       0.00011651       0.00006310      -0.00022611
I       12.09501365       4.41648607       5.24360527        9      -0.00029421       0.00003311      -0.00020665
Cs      13.77889953       2.62768339       1.92561829       10       0.00015162      -0.00011518      -0.00023217
Cs      22.92054024       7.95942706       5.00508613       11       0.00008194       0.00003297      -0.00014774
K       18.35004836       5.29400604       3.46485034       12      -0.00014514      -0.00051418       0.00006317
In       9.17949071      -0.01434226       0.00596754       13      -0.00022318       0.00029992      -0.00003541
I       16.13679448       3.19424200       5.25394224       14       0.00050493       0.00028089       0.00009078
I       20.56273513       7.39224390       1.67502936       15      -0.00002552       0.00045016       0.00003819
I       19.05191680       2.27907964       1.75278499       16       0.00010357       0.00016920      -0.00015228
I       17.64779498       8.30788971       5.17675823       17      -0.00011420       0.00000165       0.00031461
I       15.42564510       6.18494431       1.68036837       18      -0.00004893      -0.00009751      -0.00017287
I       21.27414260       4.40228949       5.24951312       19       0.00022816      -0.00007616      -0.00002160
