40
Lattice="12.774061716799864 -3.755168847288207e-09 -5.749344990468976e-17 -3.755168850996496e-09 12.77406171680022 6.640044403710451e-17 -5.628080653090838e-17 6.692022297011528e-17 12.774061716173923" Properties=species:S:1:pos:R:3:spacegroup_kinds:I:1:forces:R:3 spacegroup="P 1" unit_cell=conventional occupancy="_JSON {\"0\": {\"Cs\": 1.0}, \"1\": {\"Pb\": 1.0}, \"2\": {\"I\": 1.0}, \"3\": {\"I\": 1.0}, \"4\": {\"I\": 1.0}, \"5\": {\"Cs\": 1.0}, \"6\": {\"Pb\": 1.0}, \"7\": {\"I\": 1.0}, \"8\": {\"I\": 1.0}, \"9\": {\"I\": 1.0}, \"10\": {\"Cs\": 1.0}, \"11\": {\"Pb\": 1.0}, \"12\": {\"I\": 1.0}, \"13\": {\"I\": 1.0}, \"14\": {\"I\": 1.0}, \"15\": {\"Cs\": 1.0}, \"16\": {\"Pb\": 1.0}, \"17\": {\"I\": 1.0}, \"18\": {\"I\": 1.0}, \"19\": {\"I\": 1.0}, \"20\": {\"Cs\": 1.0}, \"21\": {\"Pb\": 1.0}, \"22\": {\"I\": 1.0}, \"23\": {\"I\": 1.0}, \"24\": {\"I\": 1.0}, \"25\": {\"Cs\": 1.0}, \"26\": {\"Pb\": 1.0}, \"27\": {\"I\": 1.0}, \"28\": {\"I\": 1.0}, \"29\": {\"I\": 1.0}, \"30\": {\"Cs\": 1.0}, \"31\": {\"Pb\": 1.0}, \"32\": {\"I\": 1.0}, \"33\": {\"I\": 1.0}, \"34\": {\"I\": 1.0}, \"35\": {\"Cs\": 1.0}, \"36\": {\"Pb\": 1.0}, \"37\": {\"I\": 1.0}, \"38\": {\"I\": 1.0}, \"39\": {\"I\": 1.0}}" energy=-111.8459393951281 free_energy=-111.8459393951281 stress="-1.5587488967336336e-06 1.0083813111894114e-12 6.316693487496164e-21 1.0083813111894114e-12 -1.5587488939623296e-06 -4.59481104602022e-18 6.316693487496164e-21 -4.59481104602022e-18 -1.558707589838189e-06" pbc="T T T"
Cs       3.19347427       3.19355659       3.19351543        0      -0.00000863       0.00000863       0.00000000
Pb       0.00000925      -0.00000925      -0.00000000        1       0.00000022      -0.00000022       0.00000000
I        0.00006507      -0.00006507       3.19351543        2      -0.00000243       0.00000243      -0.00000000
I        3.19353492      -0.00006507      -0.00000000        3       0.00001327       0.00000243      -0.00000000
I        0.00006507       3.19349593      -0.00000000        4      -0.00000243      -0.00001327      -0.00000000
Cs       3.19347427       3.19355659       9.58054629        5      -0.00000863       0.00000863      -0.00000000
Pb       0.00000925      -0.00000925       6.38703086        6       0.00000022      -0.00000022      -0.00000000
I        0.00006507      -0.00006507       9.58054629        7      -0.00000243       0.00000243       0.00000000
I        3.19353492      -0.00006507       6.38703086        8       0.00001327       0.00000243      -0.00000000
I        0.00006507       3.19349593       6.38703086        9      -0.00000243      -0.00001327      -0.00000000
Cs       3.19347427       9.58058744       3.19351543       10      -0.00000863       0.00000863       0.00000000
Pb       0.00000925       6.38702161      -0.00000000       11       0.00000022      -0.00000022       0.00000000
I        0.00006507       6.38696579       3.19351543       12      -0.00000243       0.00000243      -0.00000000
I        3.19353492       6.38696578      -0.00000000       13       0.00001327       0.00000243      -0.00000000
I        0.00006507       9.58052679      -0.00000000       14      -0.00000243      -0.00001327      -0.00000000
Cs       3.19347427       9.58058744       9.58054629       15      -0.00000863       0.00000863      -0.00000000
Pb       0.00000925       6.38702161       6.38703086       16       0.00000022      -0.00000022      -0.00000000
I        0.00006507       6.38696579       9.58054629       17      -0.00000243       0.00000243       0.00000000
I        3.19353492       6.38696578       6.38703086       18       0.00001327       0.00000243      -0.00000000
I        0.00006507       9.58052679       6.38703086       19      -0.00000243      -0.00001327      -0.00000000
Cs       9.58050513       3.19355658       3.19351543       20      -0.00000863       0.00000863       0.00000000
Pb       6.38704011      -0.00000925      -0.00000000       21       0.00000022      -0.00000022       0.00000000
I        6.38709593      -0.00006507       3.19351543       22      -0.00000243       0.00000243      -0.00000000
I        9.58056578      -0.00006508      -0.00000000       23       0.00001327       0.00000243      -0.00000000
I        6.38709593       3.19349593      -0.00000000       24      -0.00000243      -0.00001327      -0.00000000
Cs       9.58050513       3.19355658       9.58054629       25      -0.00000863       0.00000863      -0.00000000
Pb       6.38704011      -0.00000925       6.38703086       26       0.00000022      -0.00000022      -0.00000000
I        6.38709593      -0.00006507       9.58054629       27      -0.00000243       0.00000243       0.00000000
I        9.58056578      -0.00006508       6.38703086       28       0.00001327       0.00000243      -0.00000000
I        6.38709593       3.19349593       6.38703086       29      -0.00000243      -0.00001327      -0.00000000
Cs       9.58050513       9.58058744       3.19351543       30      -0.00000863       0.00000863       0.00000000
Pb       6.38704011       6.38702160      -0.00000000       31       0.00000022      -0.00000022       0.00000000
I        6.38709593       6.38696578       3.19351543       32      -0.00000243       0.00000243      -0.00000000
I        9.58056578       6.38696578      -0.00000000       33       0.00001327       0.00000243      -0.00000000
I        6.38709593       9.58052679      -0.00000000       34      -0.00000243      -0.00001327      -0.00000000
Cs       9.58050513       9.58058744       9.58054629       35      -0.00000863       0.00000863      -0.00000000
Pb       6.38704011       6.38702160       6.38703086       36       0.00000022      -0.00000022      -0.00000000
I        6.38709593       6.38696578       9.58054629       37      -0.00000243       0.00000243       0.00000000
I        9.58056578       6.38696578       6.38703086       38       0.00001327       0.00000243      -0.00000000
I        6.38709593       9.58052679       6.38703086       39      -0.00000243      -0.00001327      -0.00000000
