20
Lattice="18.35835972833219 -0.029785670160061013 0.010788016822586552 4.5872607033572095 8.001684398933657 -0.023179451101200926 4.575232136031596 2.627547900646185 6.934183541303877" Properties=species:S:1:pos:R:3:spacegroup_kinds:I:1:forces:R:3 spacegroup="P 1" unit_cell=conventional occupancy="_JSON {\"0\": {\"Cs\": 1.0}, \"1\": {\"Cs\": 1.0}, \"2\": {\"K\": 1.0}, \"3\": {\"In\": 1.0}, \"4\": {\"I\": 1.0}, \"5\": {\"I\": 1.0}, \"6\": {\"I\": 1.0}, \"7\": {\"I\": 1.0}, \"8\": {\"I\": 1.0}, \"9\": {\"I\": 1.0}, \"10\": {\"Cs\": 1.0}, \"11\": {\"Cs\": 1.0}, \"12\": {\"K\": 1.0}, \"13\": {\"In\": 1.0}, \"14\": {\"I\": 1.0}, \"15\": {\"I\": 1.0}, \"16\": {\"I\": 1.0}, \"17\": {\"I\": 1.0}, \"18\": {\"I\": 1.0}, \"19\": {\"I\": 1.0}}" energy=-51.297891807361744 free_energy=-51.297891807361744 stress="1.999373064043835e-07 4.7669760127975005e-07 1.1386609725781706e-06 4.7669760127975005e-07 -8.058144313599973e-07 -6.614362865782121e-07 1.1386609725781706e-06 -6.614362865782121e-07 2.6661904888485575e-07" pbc="T T T"
Cs       4.60025480       2.64089895       1.91808047        0      -0.00031986       0.00042503       0.00021655
Cs      13.74232949       7.97234503       4.99727067        1      -0.00031358       0.00033931       0.00015773
K        9.17086579       5.30744764       3.45846608        2      -0.00015170      -0.00010215      -0.00028971
In      18.35835436      -0.02949077       0.01090952        3       0.00015540      -0.00034815      -0.00000894
I        6.95828161       3.20850937       5.24817685        4      -0.00011018      -0.00022151       0.00028718
I       11.38324495       7.40620673       1.66814340        5       0.00011892      -0.00050836       0.00020488
I        9.87271961       2.29306937       1.74615190        6      -0.00008440      -0.00030031      -0.00008340
I        8.46942046       8.32200920       5.17019254        7      -0.00018838      -0.00047531      -0.00019981
I        6.24565886       6.19866702       1.67429200        8       0.00060223       0.00011394      -0.00004426
I       12.09492901       4.41547636       5.24283091        9       0.00008895       0.00027471      -0.00025196
Cs      13.77945860       2.62601028       1.92345494       10      -0.00034436       0.00033515       0.00024596
Cs      22.92162829       7.95738936       5.00268356       11      -0.00050125       0.00042286       0.00017360
K       18.35008566       5.29263296       3.46387864       12      -0.00028231      -0.00030431      -0.00028656
In       9.17913574      -0.01478444       0.00556204       13       0.00002733       0.00012963      -0.00010363
I       16.13709943       3.19363849       5.25364484       14       0.00071243      -0.00033116      -0.00011430
I       20.56244770       7.39113217       1.67362792       15       0.00012158      -0.00025535       0.00011288
I       19.05180804       2.27798000       1.75159434       16       0.00008690       0.00021847       0.00006464
I       17.64857086       8.30690458       5.17534596       17      -0.00021568       0.00002096       0.00041141
I       15.42493915       6.18375749       1.67973231       18       0.00030621       0.00014097      -0.00020117
I       21.27398116       4.40054125       5.24827233       19       0.00029176       0.00042558      -0.00029107
