10
Lattice="9.420360135191276 0.0 0.0 4.710180067635303 8.158271189851066 0.0 4.710180067711437 2.71942373000954 7.691692052618411" Properties=species:S:1:pos:R:3 pbc="T T T"
Cs       4.71014762       2.71941400       1.92292409
Cs      14.13057256       8.15828067       5.76876779
K        9.42036017       5.43884737       3.84584600
In       0.00000011       0.00000024       0.00000009
I        7.22176499       3.52762654       5.34612528
I       11.61895538       7.35006804       2.34556668
I       10.06479920       2.98371329       1.78753187
I        8.77592080       7.89398124       5.90416004
I        6.89960852       6.89432819       1.78753867
I       11.94111208       3.98336718       5.90415363
