10
Lattice="9.180290943640065 -0.023248979569295874 0.004234294918517762 4.593263710837242 7.996357900386137 -0.01627983302355371 4.576318836350153 2.6176556656490972 6.9365496965176305" Properties=species:S:1:pos:R:3:spacegroup_kinds:I:1:forces:R:3 spacegroup="P 1" unit_cell=conventional occupancy="_JSON {\"0\": {\"Cs\": 1.0}, \"1\": {\"Cs\": 1.0}, \"2\": {\"K\": 1.0}, \"3\": {\"In\": 1.0}, \"4\": {\"I\": 1.0}, \"5\": {\"I\": 1.0}, \"6\": {\"I\": 1.0}, \"7\": {\"I\": 1.0}, \"8\": {\"I\": 1.0}, \"9\": {\"I\": 1.0}}" energy=-25.64894627044865 free_energy=-25.64894627044865 stress="4.3635650870685525e-07 -1.5844898804869963e-06 -3.3108828972068637e-06 -1.5844898804869963e-06 4.360923791787058e-09 -1.386115975182852e-06 -3.3108828972068637e-06 -1.386115975182852e-06 6.122083444856852e-06" pbc="T T T"
Cs       4.60109848       2.63464137       1.92034114        0       0.00007784       0.00019504       0.00019735
Cs      13.74880296       7.95555498       5.00327637        1      -0.00017446       0.00011463       0.00016867
K        9.17500243       5.29592968       3.46217811        2      -0.00019862      -0.00049536      -0.00002121
In       9.18036058      -0.02312118       0.00421219        3      -0.00013903       0.00002502       0.00028865
I        6.96021850       3.19773341       5.25110718        4       0.00024492      -0.00001561       0.00013446
I       11.38984207       7.39315703       1.67388819        5      -0.00005499       0.00021119      -0.00068040
I        9.87472452       2.28267528       1.74683724        6       0.00018704       0.00033506      -0.00027048
I        8.47498011       8.30799226       5.17827665        7      -0.00022753      -0.00013955      -0.00015179
I        6.25042026       6.19133420       1.68006819        8       0.00024427      -0.00018934       0.00008900
I       12.09927139       4.39929350       5.24431723        9       0.00004057      -0.00004109       0.00024574
