40
Lattice="17.667040509275754 0.0 0.0 -8.833520254637873 15.300105890721571 0.0 3.3398185136237255 1.9282451178851527 7.448165330455866" Properties=species:S:1:pos:R:3 pbc="T T T"
Cs       9.13091983       4.48290728       7.44111845
Cs       1.38061916       5.10830439       0.00695368
K        1.66990926       0.96412256       3.72408267
In       1.37749460       0.00645501       0.00002617
I        8.56270579       0.39746551       1.48988212
I        1.94882484       9.19370743       5.95830297
I        3.20835260       2.39554806       1.48989148
I        7.30321840       7.19568572       5.95831232
I        7.61588702       6.03354046       1.48987836
I        2.89565164       3.55768352       5.95829920
Cs       4.71415971      12.13296022       7.44111845
Cs      -3.03614097      12.75835734       0.00695368
K       -2.74685087       8.61417550       3.72408267
In      -3.03926553       7.65650796       0.00002617
I        4.14594566       8.04751845       1.48988212
I       -2.46793529      16.84376037       5.95830297
I       -1.20840752      10.04560101       1.48989148
I        2.88645827      14.84573866       5.95831232
I        3.19912690      13.68359340       1.48987836
I       -1.52110849      11.20773646       5.95829920
Cs      17.96444009       4.48290728       7.44111845
Cs      10.21413941       5.10830439       0.00695368
K       10.50342951       0.96412256       3.72408267
In      10.21101485       0.00645501       0.00002617
I       17.39622605       0.39746551       1.48988212
I       10.78234509       9.19370743       5.95830297
I       12.04187286       2.39554806       1.48989148
I       16.13673865       7.19568572       5.95831232
I       16.44940728       6.03354046       1.48987836
I       11.72917189       3.55768352       5.95829920
Cs      13.54767996      12.13296022       7.44111845
Cs       5.79737929      12.75835734       0.00695368
K        6.08666938       8.61417550       3.72408267
In       5.79425473       7.65650796       0.00002617
I       12.97946592       8.04751845       1.48988212
I        6.36558496      16.84376037       5.95830297
I        7.62511273      10.04560101       1.48989148
I       11.71997852      14.84573866       5.95831232
I       12.03264715      13.68359340       1.48987836
I        7.31241176      11.20773646       5.95829920
