20
Lattice="19.737897426115033 0.0 0.0 4.934474356570291 8.546760294129756 0.0 4.934474356650074 2.8489200981051837 8.05796310274311" Properties=species:S:1:pos:R:3 pbc="T T T"
Cs       4.93437176       2.84888934       2.01449573
Cs      14.80352542       8.54679027       6.04346686
K        9.86894857       5.69783978       4.02898128
In       0.00000018       0.00000066       0.00000027
I        8.24714599       2.73177620       4.42074159
I       11.49075123       8.66390281       3.63722094
I       11.90681532       4.08945865       1.87258455
I        7.83108074       7.30622027       6.18537786
I        7.22841200       7.22274695       1.87260603
I       12.50948601       4.17293457       6.18535760
Cs      14.80332047       2.84888934       2.01449573
Cs      24.67247413       8.54679027       6.04346686
K       19.73789729       5.69783978       4.02898128
In       9.86894890       0.00000066       0.00000027
I       18.11609470       2.73177620       4.42074159
I       21.35969995       8.66390281       3.63722094
I       21.77576403       4.08945865       1.87258455
I       17.70002946       7.30622027       6.18537786
I       17.09736072       7.22274695       1.87260603
I       22.37843472       4.17293457       6.18535760
