160
Lattice="18.04722225229937 0.0 0.0 -5.3906671752501065 15.140246694287649 0.0 5.693230403384384 7.8510936406503475 19.787954698658048" Properties=species:S:1:pos:R:3 pbc="T T T"
Cs       4.22876969       9.08131265       2.47349425
Cs       1.55796745       5.29681125       2.47349425
Cs       8.42110339       4.65234036       7.42048292
Cs      11.09207369       8.43796231       7.42048292
Pb       1.73745778       1.11939448      -0.00000551
Pb       3.16413877       3.78506167       0.00000000
Pb       3.16076538       3.08216789       4.94699400
Pb       6.32495466       6.86694108       4.94700970
I        1.71834739       6.57290683       0.41087777
I        4.08544236       2.78780019       0.41140688
I       10.68298659       2.17233420       2.47349425
I       10.93156215       7.16131310       9.48240636
I        8.56448021      10.94632980       9.48293548
I        6.35212803       5.95682223       2.47349425
I        2.90502668       8.20936444       4.53611073
I        5.27212165       4.42425780       4.53558161
I        1.96677699      11.56245428       7.42048292
I        9.74488286       5.52485549       5.35855948
I        7.37780092       9.30987219       5.35803037
I        6.29767905       7.77681897       7.42048292
Cs       7.07538489      13.00685947      12.36747160
Cs       4.40458265       9.22235807      12.36747160
Cs      11.26771859       8.57788718      17.31446027
Cs      13.93868890      12.36350913      17.31446027
Pb       4.58407298       5.04494130       9.89397184
Pb       6.01075397       7.71060849       9.89397735
Pb       6.00738058       7.00771471      14.84097135
Pb       9.17156987      10.79248790      14.84098705
I        4.56496259      10.49845365      10.30485511
I        6.93205756       6.71334701      10.30538423
I       13.52960179       6.09788102      12.36747160
I       13.77817735      11.08685992      19.37638371
I       11.41109541      14.87187662      19.37691282
I        9.19874323       9.88236905      12.36747160
I        5.75164189      12.13491126      14.43008808
I        8.11873686       8.34980462      14.42955896
I        4.81339220      15.48800110      17.31446027
I       12.59149806       9.45040231      15.25253683
I       10.22441612      13.23541901      15.25200772
I        9.14429425      11.70236579      17.31446027
Cs       1.53343610      16.65143600       2.47349425
Cs      -1.13736614      12.86693460       2.47349425
Cs       5.72576980      12.22246370       7.42048292
Cs       8.39674011      16.00808565       7.42048292
Pb      -0.95787581       8.68951782      -0.00000551
Pb       0.46880518      11.35518502       0.00000000
Pb       0.46543179      10.65229123       4.94699400
Pb       3.62962108      14.43706443       4.94700970
I       -0.97698620      14.14303018       0.41087777
I        1.39010878      10.35792353       0.41140688
I        7.98765300       9.74245754       2.47349425
I        8.23622856      14.73143645       9.48240636
I        5.86914662      18.51645315       9.48293548
I        3.65679444      13.52694558       2.47349425
I        0.20969310      15.77948779       4.53611073
I        2.57678807      11.99438115       4.53558161
I       -0.72855659      19.13257763       7.42048292
I        7.04954927      13.09497883       5.35855948
I        4.68246733      16.87999554       5.35803037
I        3.60234546      15.34694232       7.42048292
Cs       4.38005130      20.57698282      12.36747160
Cs       1.70924906      16.79248142      12.36747160
Cs       8.57238500      16.14801052      17.31446027
Cs      11.24335531      19.93363247      17.31446027
Pb       1.88873939      12.61506464       9.89397184
Pb       3.31542038      15.28073184       9.89397735
Pb       3.31204699      14.57783805      14.84097135
Pb       6.47623628      18.36261125      14.84098705
I        1.86962901      18.06857700      10.30485511
I        4.23672398      14.28347035      10.30538423
I       10.83426821      13.66800436      12.36747160
I       11.08284376      18.65698327      19.37638371
I        8.71576182      22.44199997      19.37691282
I        6.50340964      17.45249240      12.36747160
I        3.05630830      19.70503461      14.43008808
I        5.42340327      15.91992797      14.42955896
I        2.11805861      23.05812445      17.31446027
I        9.89616447      17.02052565      15.25253683
I        7.52908253      20.80554236      15.25200772
I        6.44896066      19.27248914      17.31446027
Cs      13.25238081       9.08131265       2.47349425
Cs      10.58157857       5.29681125       2.47349425
Cs      17.44471451       4.65234036       7.42048292
Cs      20.11568482       8.43796231       7.42048292
Pb      10.76106891       1.11939448      -0.00000551
Pb      12.18774990       3.78506167       0.00000000
Pb      12.18437651       3.08216789       4.94699400
Pb      15.34856579       6.86694108       4.94700970
I       10.74195852       6.57290683       0.41087777
I       13.10905349       2.78780019       0.41140688
I       19.70659772       2.17233420       2.47349425
I       19.95517328       7.16131310       9.48240636
I       17.58809134      10.94632980       9.48293548
I       15.37573915       5.95682223       2.47349425
I       11.92863781       8.20936444       4.53611073
I       14.29573278       4.42425780       4.53558161
I       10.99038812      11.56245428       7.42048292
I       18.76849399       5.52485549       5.35855948
I       16.40141204       9.30987219       5.35803037
I       15.32129018       7.77681897       7.42048292
Cs      16.09899602      13.00685947      12.36747160
Cs      13.42819378       9.22235807      12.36747160
Cs      20.29132971       8.57788718      17.31446027
Cs      22.96230002      12.36350913      17.31446027
Pb      13.60768411       5.04494130       9.89397184
Pb      15.03436510       7.71060849       9.89397735
Pb      15.03099171       7.00771471      14.84097135
Pb      18.19518099      10.79248790      14.84098705
I       13.58857372      10.49845365      10.30485511
I       15.95566869       6.71334701      10.30538423
I       22.55321292       6.09788102      12.36747160
I       22.80178848      11.08685992      19.37638371
I       20.43470654      14.87187662      19.37691282
I       18.22235435       9.88236905      12.36747160
I       14.77525301      12.13491126      14.43008808
I       17.14234798       8.34980462      14.42955896
I       13.83700332      15.48800110      17.31446027
I       21.61510919       9.45040231      15.25253683
I       19.24802725      13.23541901      15.25200772
I       18.16790538      11.70236579      17.31446027
Cs      10.55704723      16.65143600       2.47349425
Cs       7.88624499      12.86693460       2.47349425
Cs      14.74938092      12.22246370       7.42048292
Cs      17.42035123      16.00808565       7.42048292
Pb       8.06573532       8.68951782      -0.00000551
Pb       9.49241631      11.35518502       0.00000000
Pb       9.48904292      10.65229123       4.94699400
Pb      12.65323220      14.43706443       4.94700970
I        8.04662493      14.14303018       0.41087777
I       10.41371990      10.35792353       0.41140688
I       17.01126413       9.74245754       2.47349425
I       17.25983969      14.73143645       9.48240636
I       14.89275775      18.51645315       9.48293548
I       12.68040556      13.52694558       2.47349425
I        9.23330422      15.77948779       4.53611073
I       11.60039919      11.99438115       4.53558161
I        8.29505453      19.13257763       7.42048292
I       16.07316040      13.09497883       5.35855948
I       13.70607846      16.87999554       5.35803037
I       12.62595659      15.34694232       7.42048292
Cs      13.40366243      20.57698282      12.36747160
Cs      10.73286019      16.79248142      12.36747160
Cs      17.59599613      16.14801052      17.31446027
Cs      20.26696643      19.93363247      17.31446027
Pb      10.91235052      12.61506464       9.89397184
Pb      12.33903151      15.28073184       9.89397735
Pb      12.33565812      14.57783805      14.84097135
Pb      15.49984740      18.36261125      14.84098705
I       10.89324013      18.06857700      10.30485511
I       13.26033510      14.28347035      10.30538423
I       19.85787933      13.66800436      12.36747160
I       20.10645489      18.65698327      19.37638371
I       17.73937295      22.44199997      19.37691282
I       15.52702077      17.45249240      12.36747160
I       12.07991942      19.70503461      14.43008808
I       14.44701439      15.91992797      14.42955896
I       11.14166973      23.05812445      17.31446027
I       18.91977560      17.02052565      15.25253683
I       16.55269366      20.80554236      15.25200772
I       15.47257179      19.27248914      17.31446027
