160
Lattice="19.7847098425812 0.2641349412083412 0.31544506520175836 -5.587295277736466 16.397249491535828 -0.09237323696844366 6.689130637363882 8.33851600666804 25.72681948693463" Properties=species:S:1:pos:R:3:spacegroup_kinds:I:1:forces:R:3 spacegroup="P 1" unit_cell=conventional occupancy="_JSON {\"0\": {\"Cs\": 1.0}, \"1\": {\"Cs\": 1.0}, \"2\": {\"Cs\": 1.0}, \"3\": {\"Cs\": 1.0}, \"4\": {\"Pb\": 1.0}, \"5\": {\"Pb\": 1.0}, \"6\": {\"Pb\": 1.0}, \"7\": {\"Pb\": 1.0}, \"8\": {\"I\": 1.0}, \"9\": {\"I\": 1.0}, \"10\": {\"I\": 1.0}, \"11\": {\"I\": 1.0}, \"12\": {\"I\": 1.0}, \"13\": {\"I\": 1.0}, \"14\": {\"I\": 1.0}, \"15\": {\"I\": 1.0}, \"16\": {\"I\": 1.0}, \"17\": {\"I\": 1.0}, \"18\": {\"I\": 1.0}, \"19\": {\"I\": 1.0}, \"20\": {\"Cs\": 1.0}, \"21\": {\"Cs\": 1.0}, \"22\": {\"Cs\": 1.0}, \"23\": {\"Cs\": 1.0}, \"24\": {\"Pb\": 1.0}, \"25\": {\"Pb\": 1.0}, \"26\": {\"Pb\": 1.0}, \"27\": {\"Pb\": 1.0}, \"28\": {\"I\": 1.0}, \"29\": {\"I\": 1.0}, \"30\": {\"I\": 1.0}, \"31\": {\"I\": 1.0}, \"32\": {\"I\": 1.0}, \"33\": {\"I\": 1.0}, \"34\": {\"I\": 1.0}, \"35\": {\"I\": 1.0}, \"36\": {\"I\": 1.0}, \"37\": {\"I\": 1.0}, \"38\": {\"I\": 1.0}, \"39\": {\"I\": 1.0}, \"40\": {\"Cs\": 1.0}, \"41\": {\"Cs\": 1.0}, \"42\": {\"Cs\": 1.0}, \"43\": {\"Cs\": 1.0}, \"44\": {\"Pb\": 1.0}, \"45\": {\"Pb\": 1.0}, \"46\": {\"Pb\": 1.0}, \"47\": {\"Pb\": 1.0}, \"48\": {\"I\": 1.0}, \"49\": {\"I\": 1.0}, \"50\": {\"I\": 1.0}, \"51\": {\"I\": 1.0}, \"52\": {\"I\": 1.0}, \"53\": {\"I\": 1.0}, \"54\": {\"I\": 1.0}, \"55\": {\"I\": 1.0}, \"56\": {\"I\": 1.0}, \"57\": {\"I\": 1.0}, \"58\": {\"I\": 1.0}, \"59\": {\"I\": 1.0}, \"60\": {\"Cs\": 1.0}, \"61\": {\"Cs\": 1.0}, \"62\": {\"Cs\": 1.0}, \"63\": {\"Cs\": 1.0}, \"64\": {\"Pb\": 1.0}, \"65\": {\"Pb\": 1.0}, \"66\": {\"Pb\": 1.0}, \"67\": {\"Pb\": 1.0}, \"68\": {\"I\": 1.0}, \"69\": {\"I\": 1.0}, \"70\": {\"I\": 1.0}, \"71\": {\"I\": 1.0}, \"72\": {\"I\": 1.0}, \"73\": {\"I\": 1.0}, \"74\": {\"I\": 1.0}, \"75\": {\"I\": 1.0}, \"76\": {\"I\": 1.0}, \"77\": {\"I\": 1.0}, \"78\": {\"I\": 1.0}, \"79\": {\"I\": 1.0}, \"80\": {\"Cs\": 1.0}, \"81\": {\"Cs\": 1.0}, \"82\": {\"Cs\": 1.0}, \"83\": {\"Cs\": 1.0}, \"84\": {\"Pb\": 1.0}, \"85\": {\"Pb\": 1.0}, \"86\": {\"Pb\": 1.0}, \"87\": {\"Pb\": 1.0}, \"88\": {\"I\": 1.0}, \"89\": {\"I\": 1.0}, \"90\": {\"I\": 1.0}, \"91\": {\"I\": 1.0}, \"92\": {\"I\": 1.0}, \"93\": {\"I\": 1.0}, \"94\": {\"I\": 1.0}, \"95\": {\"I\": 1.0}, \"96\": {\"I\": 1.0}, \"97\": {\"I\": 1.0}, \"98\": {\"I\": 1.0}, \"99\": {\"I\": 1.0}, \"100\": {\"Cs\": 1.0}, \"101\": {\"Cs\": 1.0}, \"102\": {\"Cs\": 1.0}, \"103\": {\"Cs\": 1.0}, \"104\": {\"Pb\": 1.0}, \"105\": {\"Pb\": 1.0}, \"106\": {\"Pb\": 1.0}, \"107\": {\"Pb\": 1.0}, \"108\": {\"I\": 1.0}, \"109\": {\"I\": 1.0}, \"110\": {\"I\": 1.0}, \"111\": {\"I\": 1.0}, \"112\": {\"I\": 1.0}, \"113\": {\"I\": 1.0}, \"114\": {\"I\": 1.0}, \"115\": {\"I\": 1.0}, \"116\": {\"I\": 1.0}, \"117\": {\"I\": 1.0}, \"118\": {\"I\": 1.0}, \"119\": {\"I\": 1.0}, \"120\": {\"Cs\": 1.0}, \"121\": {\"Cs\": 1.0}, \"122\": {\"Cs\": 1.0}, \"123\": {\"Cs\": 1.0}, \"124\": {\"Pb\": 1.0}, \"125\": {\"Pb\": 1.0}, \"126\": {\"Pb\": 1.0}, \"127\": {\"Pb\": 1.0}, \"128\": {\"I\": 1.0}, \"129\": {\"I\": 1.0}, \"130\": {\"I\": 1.0}, \"131\": {\"I\": 1.0}, \"132\": {\"I\": 1.0}, \"133\": {\"I\": 1.0}, \"134\": {\"I\": 1.0}, \"135\": {\"I\": 1.0}, \"136\": {\"I\": 1.0}, \"137\": {\"I\": 1.0}, \"138\": {\"I\": 1.0}, \"139\": {\"I\": 1.0}, \"140\": {\"Cs\": 1.0}, \"141\": {\"Cs\": 1.0}, \"142\": {\"Cs\": 1.0}, \"143\": {\"Cs\": 1.0}, \"144\": {\"Pb\": 1.0}, \"145\": {\"Pb\": 1.0}, \"146\": {\"Pb\": 1.0}, \"147\": {\"Pb\": 1.0}, \"148\": {\"I\": 1.0}, \"149\": {\"I\": 1.0}, \"150\": {\"I\": 1.0}, \"151\": {\"I\": 1.0}, \"152\": {\"I\": 1.0}, \"153\": {\"I\": 1.0}, \"154\": {\"I\": 1.0}, \"155\": {\"I\": 1.0}, \"156\": {\"I\": 1.0}, \"157\": {\"I\": 1.0}, \"158\": {\"I\": 1.0}, \"159\": {\"I\": 1.0}}" energy=-447.97667743564546 free_energy=-447.97667743564546 stress="1.2805051731997351e-06 -1.823274653458553e-06 -6.72601772323082e-07 -1.823274653458553e-06 -2.716249568125826e-06 1.9558484714459406e-06 -6.72601772323082e-07 1.9558484714459406e-06 -7.775014106296919e-07" pbc="T T T"
Cs       5.15777628      12.24394200       3.62602095        0      -0.00007401      -0.00001642       0.00004149
Cs       3.05329597       7.06592635       3.59441316        1       0.00007569       0.00015338      -0.00012569
Cs       7.84618725       4.03707613       9.66337908        2       0.00002172       0.00009615       0.00001504
Cs      12.85872148       7.20894357       9.74119571        3       0.00007497       0.00020088       0.00018317
Pb       7.17706837       6.87717216      25.64639200        4       0.00002193       0.00014705       0.00013888
Pb       3.53559705       4.23979597      -0.03350697        5       0.00000722      -0.00024899       0.00031856
Pb       3.86386367       2.65538826       6.34097073        6      -0.00006463       0.00021231      -0.00011547
Pb       7.05355726       8.45830726       6.39063842        7      -0.00022868       0.00015872       0.00011039
I        0.59925283       5.48828582       0.87089647        8      -0.00034793       0.00008863       0.00012557
I        6.74749263       3.72641941      -0.10272072        9      -0.00030569       0.00028836      -0.00014336
I       14.01176318       3.25353564       3.39314082       10       0.00011785      -0.00020951       0.00045815
I       15.25575990       5.69042435      12.46423929       11       0.00008939       0.00008974      -0.00006603
I        7.72247612      11.55250605      12.72166786       12      -0.00015777       0.00008494      -0.00005753
I        6.89632956       7.99124227       3.27907585       13       0.00017413      -0.00020191      -0.00027662
I        4.06137695       9.65623899       6.37198837       14       0.00016694      -0.00005717       0.00015593
I        5.45286016       5.55699736       6.74318942       15       0.00000171      -0.00008228       0.00022636
I        1.38906137      10.70665079       9.63503808       16       0.00009601      -0.00013364      -0.00002285
I       10.20358874       7.82291627       6.52616872       17      -0.00007584       0.00011592       0.00007297
I        7.80978148      11.62126403       6.48712121       18       0.00026436      -0.00008905       0.00008868
I        6.62689038       8.60893076       9.71898489       19       0.00000552      -0.00031250      -0.00025803
Cs       8.50139406      16.41461123      16.49069442       20       0.00010359      -0.00014299       0.00008905
Cs       6.39797991      11.23718955      16.45690176       21       0.00001212      -0.00006069       0.00004581
Cs      11.19139935       8.20710740      22.52538171       22      -0.00005769      -0.00000143       0.00001275
Cs      16.20318289      11.37895136      22.60365983       23       0.00017794       0.00002752       0.00035030
Pb       3.83128894       2.70842461      12.78312033       24       0.00004044       0.00002346      -0.00020210
Pb       6.87923306       8.40957257      12.83036563       25       0.00007108      -0.00004124      -0.00023074
Pb       7.20797427       6.82500151      19.20435173       26       0.00045254       0.00006326      -0.00007530
Pb      10.39809210      12.62753274      19.25363316       27       0.00003453      -0.00023296      -0.00016430
I        3.94310480       9.65858092      13.73509192       28       0.00029306      -0.00001332       0.00005148
I       10.09100661       7.89564317      12.75999372       29      -0.00025281       0.00000821       0.00015675
I       17.35673589       7.42230996      16.25673958       30       0.00007650      -0.00019143       0.00037856
I       18.59906620       9.86048553      25.32791656       31       0.00017697      -0.00010961      -0.00018059
I       11.06669027      15.72116786      25.58549027       32       0.00034583       0.00031845       0.00006831
I       10.24163202      12.15956264      16.14201144       33       0.00003840       0.00006486       0.00037383
I        7.40623816      13.82553381      19.23560737       34      -0.00026409       0.00016741       0.00005970
I        8.79710578       9.72635432      19.60662550       35       0.00004912      -0.00002591       0.00010406
I        4.73486182      14.87521255      22.49832121       36      -0.00013035      -0.00007097      -0.00011767
I       13.54817030      11.99231228      19.38975171       37       0.00001521       0.00000101      -0.00003729
I       11.15454181      15.79042093      19.35071442       38      -0.00017011       0.00004886      -0.00010253
I        9.97223496      12.77736592      22.58213674       39       0.00004021      -0.00019147      -0.00033125
Cs       7.95094607       4.04566082       3.67306296       40      -0.00002954      -0.00008759       0.00008775
Cs       0.26014902      15.26429746       3.54924130       41      -0.00005169       0.00019589      -0.00025602
Cs       5.05240243      12.23733303       9.61623402       42       0.00007318      -0.00008511       0.00005752
Cs      10.06539558      15.40832495       9.69562813       43      -0.00000698       0.00007243       0.00010251
Pb       4.38280391      15.07574923      25.59973306       44       0.00031169      -0.00007693       0.00011871
Pb       0.74123922      12.43824658      -0.07919596       45      -0.00001045      -0.00009192      -0.00000826
Pb       1.07037065      10.85374673       6.29480024       46      -0.00015557       0.00027628      -0.00005696
Pb       4.26002542      16.65702703       6.34432701       47      -0.00010338      -0.00018171      -0.00012587
I       -2.19455641      13.68709203       0.82643202       48       0.00013484      -0.00002760      -0.00013643
I        3.95325965      11.92518141      -0.14928079       49      -0.00029543       0.00008590      -0.00011882
I       11.21820906      11.45209988       3.34734814       50       0.00012218      -0.00007181      -0.00003126
I       12.46236738      13.88891749      12.41779531       51       0.00004342       0.00009292       0.00005019
I        4.92863204      19.75049353      12.67627984       52       0.00004906       0.00013118      -0.00028078
I        4.10283826      16.18985168       3.23277634       53       0.00019123      -0.00017086      -0.00006108
I        1.26781515      17.85477311       6.32706590       54      -0.00010446       0.00013996      -0.00000278
I        2.65852611      13.75559354       6.69668842       55       0.00016988       0.00014815       0.00013987
I        4.18185718       2.50860356       9.68127462       56       0.00017828      -0.00005754       0.00016260
I        7.41006270      16.02150407       6.47981920       57      -0.00016039       0.00026884       0.00005493
I        5.01623278      19.81974899       6.44129182       58       0.00004503      -0.00001384       0.00003422
I        3.83503820      16.80613276       9.67269799       59      -0.00020719      -0.00009087      -0.00008595
Cs      11.29519725       8.21420863      16.53546092       60       0.00000402      -0.00013356       0.00039403
Cs       3.60477277      19.43347833      16.41182167       61      -0.00018888       0.00016249      -0.00003428
Cs       8.39802349      16.40627223      22.47994498       62      -0.00009248      -0.00007983      -0.00006943
Cs      13.41037292      19.57876044      22.55929429       63      -0.00003231      -0.00015734       0.00022082
Pb       1.03778664      10.90680530      12.73671856       64       0.00010806       0.00011420      -0.00005528
Pb       4.08604079      16.60755383      12.78419335       65       0.00012358       0.00013904       0.00012020
Pb       4.41481872      15.02289144      19.15827942       66       0.00009189       0.00032358       0.00016676
Pb       7.60426485      20.82682777      19.20777843       67      -0.00018441      -0.00030322      -0.00000230
I        1.14984053      17.85716558      13.68814085       68       0.00002128      -0.00007989       0.00002981
I        7.29795880      16.09448112      12.71483645       69      -0.00025425      -0.00029132      -0.00013306
I       14.56279942      15.62200134      16.21068284       70       0.00011035      -0.00020758      -0.00000159
I       15.80662138      18.05864604      25.28222444       71      -0.00003237      -0.00004482      -0.00038247
I        8.27247545      23.91949434      25.53974225       72       0.00025143       0.00022433       0.00000278
I        7.44722232      20.35982220      16.09617053       73       0.00035680      -0.00015215      -0.00012846
I        4.61198328      22.02383530      19.18938660       74      -0.00018139       0.00042321      -0.00002439
I        6.00373146      17.92490085      19.55997104       75       0.00006186      -0.00004215       0.00010344
I        7.52808818       6.67716145      22.54474932       76      -0.00013147      -0.00022334      -0.00033342
I       10.75431359      20.19112948      19.34407343       77       0.00009380       0.00015019      -0.00014651
I        8.36106817      23.98953666      19.30433308       78      -0.00032750      -0.00002951      -0.00009223
I        7.17812791      20.97582850      22.53603124       79       0.00001082      -0.00013888       0.00013215
Cs      15.04935625      12.37603415       3.78461790       80       0.00006502      -0.00013860       0.00026148
Cs      12.94627668       7.19829706       3.75217770       81       0.00011015       0.00027430       0.00000981
Cs      17.73884412       4.17053678       9.82014961       82       0.00005507      -0.00016387       0.00008451
Cs       2.96657468       7.07780651       9.58409743       83       0.00014419       0.00008048       0.00019231
Pb      17.06794199       7.00977415      25.80373512       84       0.00033175       0.00001003       0.00050973
Pb      13.42710951       4.37219596       0.12448773       85       0.00006569      -0.00015985       0.00030460
Pb      13.75624576       2.78710595       6.49845818       86       0.00018199       0.00023981      -0.00022945
Pb      16.94612906       8.59057524       6.54808012       87      -0.00013655      -0.00027552       0.00015008
I       10.49147281       5.62182985       1.02965337       88      -0.00012062       0.00003535      -0.00017498
I       16.63896704       3.85816234       0.05438342       89      -0.00016347       0.00014719       0.00009704
I        4.11967549       3.12158576       3.23579396       90       0.00021584      -0.00016368       0.00007460
I        5.36378849       5.55868157      12.30700749       91      -0.00013951       0.00002682      -0.00019431
I       17.61432405      11.68388911      12.88018778       92      -0.00002314       0.00006671      -0.00013092
I       16.78950200       8.12354991       3.43657414       93      -0.00000544      -0.00029395      -0.00009064
I       13.95391020       9.78798777       6.53042009       94      -0.00051108       0.00019156      -0.00008487
I       15.34524945       5.68882367       6.90059090       95      -0.00014564      -0.00014219      -0.00014229
I       11.28193765      10.83805846       9.79247761       96       0.00002291      -0.00003508      -0.00010031
I        0.31141738       7.69095355       6.36888187       97      -0.00009549      -0.00008085      -0.00000891
I       17.70230591      11.75329060       6.64532047       98      -0.00014642       0.00010288      -0.00017486
I       16.51969757       8.73966050       9.87648770       99       0.00013837      -0.00001502       0.00033860
Cs      18.39437983      16.54511601      16.64763100      100       0.00011505      -0.00013055       0.00022933
Cs      16.29056892      11.36653914      16.61575925      101       0.00007786       0.00044463       0.00011113
Cs      21.08330677       8.33862516      22.68572040      102       0.00001427       0.00009045      -0.00007637
Cs       6.31154958      11.24624760      22.44811599      103       0.00003918       0.00010007       0.00009074
Pb      13.72414195       2.84011693      12.94036711      104      -0.00003723       0.00020607       0.00027831
Pb      16.77189123       8.54104077      12.98797228      105      -0.00015149       0.00013207      -0.00030809
Pb      17.10099829       6.95644552      19.36209675      106      -0.00028550       0.00011046      -0.00025384
Pb      20.29064006      12.75998406      19.41190771      107      -0.00004511      -0.00008670      -0.00018500
I       13.83588101       9.78997117      13.89277824      108      -0.00005760       0.00000930      -0.00019259
I       19.98388506       8.02789763      12.91888565      109      -0.00003922       0.00017466      -0.00021948
I        7.46311355       7.29247402      16.09925133      110       0.00025906      -0.00035175       0.00015025
I        8.70956839       9.72702181      25.17025903      111      -0.00021649       0.00027546      -0.00013778
I       20.95956920      15.85330223      25.74319039      112      -0.00012936       0.00021547      -0.00006676
I       20.13372612      12.29305140      16.30024608      113      -0.00008443      -0.00011592      -0.00003428
I       17.29826473      13.95716964      19.39345075      114       0.00011410      -0.00006293       0.00000087
I       18.69092348       9.85798624      19.76407036      115      -0.00021395      -0.00009045       0.00013427
I       14.62586937      15.00781906      22.65592690      116       0.00004847      -0.00005187       0.00057278
I        3.65596016      11.86033921      19.23214287      117      -0.00005310      -0.00006690      -0.00002329
I       21.04701650      15.92293846      19.50916714      118      -0.00026269      -0.00003088      -0.00016483
I       19.86387443      12.90955322      22.74008952      119       0.00003468      -0.00013966      -0.00032642
Cs      17.84305697       4.17730202       3.83021323      120       0.00009677       0.00004756       0.00000715
Cs      10.15230614      15.39674593       3.70564145      121       0.00000124       0.00008516      -0.00005298
Cs      14.94539870      12.36865883       9.77407370      122       0.00001148      -0.00020369       0.00003445
Cs       0.17282003      15.27728862       9.53759645      123       0.00021263      -0.00012713       0.00032705
Pb      14.27483247      15.20820215      25.75765628      124       0.00020063      -0.00007640       0.00019357
Pb      10.63461834      12.57049713       0.07838379      125      -0.00039307       0.00001229       0.00034327
Pb      10.96250390      10.98579662       6.45277884      126      -0.00001919       0.00010794      -0.00053829
Pb      14.15223236      16.78898554       6.50219460      127      -0.00009384       0.00001048       0.00001968
I        7.69791450      13.82027182       0.98139232      128      -0.00010094       0.00004854       0.00008292
I       13.84620611      12.05697442       0.00883465      129      -0.00016048      -0.00004788      -0.00011473
I        1.32602917      11.32010295       3.18939833      130       0.00013804      -0.00019963       0.00001025
I        2.56976048      13.75735278      12.26057011      131      -0.00024001      -0.00020994      -0.00026299
I       14.82050477      19.88271536      12.83410947      132       0.00027945       0.00004887      -0.00004401
I       13.99551404      16.32142079       3.39063157      133       0.00014348      -0.00003865      -0.00007360
I       11.16014713      17.98663139       6.48375337      134      -0.00028782       0.00012324      -0.00000219
I       12.55091915      13.88766008       6.85463071      135       0.00014928      -0.00019814       0.00017305
I       14.07561179       2.63978148       9.83880150      136      -0.00014853      -0.00007649      -0.00011631
I       -2.48235022      15.88991560       6.32298693      137      -0.00001023      -0.00016503      -0.00006789
I       14.90850710      19.95176641       6.59850410      138      -0.00010335       0.00008034      -0.00003159
I       13.72624849      16.93912164       9.83046367      139      -0.00003541      -0.00016533      -0.00015172
Cs      21.18750891       8.34766628      16.69504326      140       0.00022160      -0.00009397      -0.00012954
Cs      13.49679178      19.56611814      16.56970483      141      -0.00011384       0.00010022      -0.00010946
Cs      18.28908631      16.53785226      22.63831053      142       0.00016280       0.00008480      -0.00004926
Cs       3.51712658      19.44522120      22.40025948      143       0.00008251       0.00006117       0.00017801
Pb      10.93018610      11.03865904      12.89401341      144       0.00040702       0.00010471       0.00042310
Pb      13.97832762      16.73977310      12.94191543      145      -0.00030527       0.00001405       0.00006399
Pb      14.30721428      15.15522987      19.31600471      146      -0.00031210       0.00007789      -0.00043428
Pb      17.49669011      20.95808701      19.36549917      147       0.00052772      -0.00016441       0.00031754
I       11.04207221      17.98874622      13.84660121      148       0.00013165       0.00003810       0.00003910
I       17.19012690      16.22661660      12.87224428      149       0.00000813       0.00018802      -0.00018415
I        4.67027086      15.48907339      16.05298366      150       0.00015702      -0.00020430      -0.00008962
I        5.91395391      17.92613865      25.12329220      151       0.00012512       0.00011479       0.00003628
I       18.16625115      24.05184678      25.69712012      152      -0.00004886       0.00006393      -0.00003469
I       17.33997482      20.49055032      16.25407934      153       0.00002856      -0.00005724      -0.00039537
I       14.50465949      22.15564559      19.34810243      154      -0.00030433       0.00018728       0.00002768
I       15.89573543      18.05664593      19.71830653      155       0.00016394       0.00022661       0.00012219
I       17.41918590       6.81000597      22.70218389      156       0.00001855      -0.00016778      -0.00014024
I        0.86217085      20.05933278      19.18546592      157      -0.00006634      -0.00004769      -0.00002365
I       18.25275054      24.12094490      19.46317405      158      -0.00019065       0.00014279      -0.00009562
I       17.07224796      21.10739269      22.69384024      159      -0.00022135      -0.00009747      -0.00005638
