40
Lattice="16.75394730873022 -4.406244387681618 6.883115587731814e-06 2.32841787856384 8.853612241286227 1.6696823634867097e-06 5.078773508568108e-06 -1.5106218260548341e-06 12.639229528412722" Properties=species:S:1:pos:R:3:spacegroup_kinds:I:1:forces:R:3 spacegroup="P 1" unit_cell=conventional occupancy="_JSON {\"0\": {\"Cs\": 1.0}, \"1\": {\"Cs\": 1.0}, \"2\": {\"Cs\": 1.0}, \"3\": {\"Cs\": 1.0}, \"4\": {\"Pb\": 1.0}, \"5\": {\"Pb\": 1.0}, \"6\": {\"Pb\": 1.0}, \"7\": {\"Pb\": 1.0}, \"8\": {\"I\": 1.0}, \"9\": {\"I\": 1.0}, \"10\": {\"I\": 1.0}, \"11\": {\"I\": 1.0}, \"12\": {\"I\": 1.0}, \"13\": {\"I\": 1.0}, \"14\": {\"I\": 1.0}, \"15\": {\"I\": 1.0}, \"16\": {\"I\": 1.0}, \"17\": {\"I\": 1.0}, \"18\": {\"I\": 1.0}, \"19\": {\"I\": 1.0}, \"20\": {\"Cs\": 1.0}, \"21\": {\"Cs\": 1.0}, \"22\": {\"Cs\": 1.0}, \"23\": {\"Cs\": 1.0}, \"24\": {\"Pb\": 1.0}, \"25\": {\"Pb\": 1.0}, \"26\": {\"Pb\": 1.0}, \"27\": {\"Pb\": 1.0}, \"28\": {\"I\": 1.0}, \"29\": {\"I\": 1.0}, \"30\": {\"I\": 1.0}, \"31\": {\"I\": 1.0}, \"32\": {\"I\": 1.0}, \"33\": {\"I\": 1.0}, \"34\": {\"I\": 1.0}, \"35\": {\"I\": 1.0}, \"36\": {\"I\": 1.0}, \"37\": {\"I\": 1.0}, \"38\": {\"I\": 1.0}, \"39\": {\"I\": 1.0}}" energy=-113.01606243116302 free_energy=-113.01606243116302 stress="-1.3921492745863437e-06 -8.178855761246057e-08 1.0516134335547114e-06 -8.178855761246057e-08 -1.3249908536695243e-06 -2.213820441498876e-07 1.0516134335547114e-06 -2.213820441498876e-07 -1.7749995072209277e-06" pbc="T T T"
Cs       6.67595180       6.97318480       3.15979658        0      -0.00000698       0.00006803       0.00005506
Cs       1.78208718       3.52778382       3.15979851        1      -0.00017245      -0.00005516       0.00005617
Cs       5.16833686      -0.62257569       9.47943038        2       0.00014664      -0.00004296      -0.00002570
Cs      10.06268684       2.82355902       9.47944503        3       0.00002517      -0.00011073      -0.00005960
Pb       0.56931456      -0.14973296       0.00004097        4       0.00024083      -0.00004183       0.00002367
Pb       5.92209144       3.17532038      12.63920749        5       0.00035220      -0.00022131       0.00000066
Pb       0.56947667      -0.14982925       6.31954229        6      -0.00032406       0.00008306       0.00011717
Pb       5.92207187       3.17520516       6.31960479        7       0.00057497       0.00009076       0.00008607
I        3.81706788       5.61135597       0.52634630        8      -0.00033300       0.00028853      -0.00000792
I        3.60100584       0.93484473       0.52640710        9      -0.00015762       0.00007447      -0.00004964
I        8.25834828      -2.08271537       3.15978244       10       0.00026204       0.00000427       0.00006012
I        8.02798431       0.73979507      12.11295099       11      -0.00023815       0.00007772      -0.00002019
I        8.24363533       5.41571214      12.11272015       12      -0.00022943       0.00000574       0.00009264
I        6.65362219       3.07182105       3.15999713       13       0.00005263       0.00003414      -0.00075687
I        3.81698026       5.61152827       5.79328566       14      -0.00012714      -0.00012156      -0.00005439
I        3.60100066       0.93489299       5.79323560       15      -0.00015656      -0.00007191      -0.00005666
I        3.58555638       8.43412981       9.47944685       16       0.00002998       0.00009558       0.00000157
I        8.02799327       0.73978252       6.84588901       17      -0.00029368       0.00018581       0.00005866
I        8.24360563       5.41571977       6.84613904       18      -0.00007405       0.00003997      -0.00010516
I        5.19051138       3.27878957       9.47926184       19      -0.00001165      -0.00000703       0.00071252
Cs      15.05294919       4.77004456       3.15979714       20      -0.00017933       0.00010462       0.00007535
Cs      10.15906029       1.32465848       3.15980536       21      -0.00015321      -0.00004115       0.00003006
Cs      13.54533545      -2.82571896       9.47943895       22      -0.00002224       0.00000175      -0.00006224
Cs       1.68571424       5.02667877       9.47944564       23       0.00002042      -0.00009688      -0.00008719
Pb       8.94630291      -2.35287322       0.00004971       24       0.00017705       0.00002358      -0.00001088
Pb      14.29918898       0.97205792      12.63920777       25      -0.00038631       0.00022998       0.00002835
Pb       8.94642107      -2.35291119       6.31955178       26      -0.00017948      -0.00005513       0.00008279
Pb      14.29913696       0.97197879       6.31960525       27       0.00001604       0.00042079       0.00010682
I       12.19395535       3.40837147       0.52635251       28       0.00004059      -0.00023978      -0.00003091
I       11.97794679      -1.26827365       0.52640937       29       0.00012889       0.00014969      -0.00004011
I       16.63530905      -4.28582327       3.15980094       30       0.00034135      -0.00004046      -0.00004125
I       16.40489377      -1.46322608      12.11295644       31       0.00006334      -0.00032142      -0.00003820
I       16.62058319       3.21259788      12.11272160       32      -0.00000001       0.00004298       0.00010761
I       15.03057914       0.86871651       3.16001746       33       0.00016568      -0.00002672      -0.00088073
I       12.19392268       3.40844907       5.79328542       34       0.00004632      -0.00030922      -0.00002773
I       11.97795904      -1.26822068       5.79323946       35      -0.00002287      -0.00006672      -0.00006121
I       11.96251930       6.23102027       9.47946143       36       0.00009416       0.00005543      -0.00008330
I       16.40489995      -1.46323469       6.84588843       37       0.00001911      -0.00024277       0.00008364
I       16.62055223       3.21260132       6.84614279       38       0.00017723       0.00010410      -0.00010969
I       13.56746771       1.07568730       9.47924916       39       0.00009360      -0.00006825       0.00083062
