40
Lattice="17.32439128126397 0.0 0.0 4.3138598399580745 8.074534118916574 0.0 0.0 0.0 12.6392814112898" Properties=species:S:1:pos:R:3 pbc="T T T"
Cs       8.66139551       7.44599158       3.15982037
Cs       2.64686442       3.40891443       3.15982037
Cs       5.49253472       0.62835250       9.47946108
Cs      11.50706581       4.66580947       9.47946108
Pb       0.58892071       0.00004883       0.00000268
Pb       7.07694845       4.03721811      -0.00000264
Pb       0.58892071       0.00004883       6.31963807
Pb       7.07694845       4.03721811       6.31964339
I        5.27997768       5.64299530       0.52523808
I        4.10163934       1.60571299       0.52541742
I        8.55810050       0.07624222       3.15982037
I        8.87393863       2.43155394      12.11386403
I       10.05227697       6.46880576      12.11404338
I        7.85130117       4.11331485       3.15982037
I        5.27997768       5.64299530       5.79440267
I        4.10163934       1.60571299       5.79422333
I        5.59577151       7.99848621       9.47946108
I        8.87393863       2.43155394       6.84505813
I       10.05227697       6.46880576       6.84487878
I        6.30257084       3.96102471       9.47946108
Cs      17.32359115       7.44599158       3.15982037
Cs      11.30906006       3.40891443       3.15982037
Cs      14.15473036       0.62835250       9.47946108
Cs      20.16926145       4.66580947       9.47946108
Pb       9.25111635       0.00004883       0.00000268
Pb      15.73914409       4.03721811      -0.00000264
Pb       9.25111635       0.00004883       6.31963807
Pb      15.73914409       4.03721811       6.31964339
I       13.94217332       5.64299530       0.52523808
I       12.76383498       1.60571299       0.52541742
I       17.22029614       0.07624222       3.15982037
I       17.53613427       2.43155394      12.11386403
I       18.71447261       6.46880576      12.11404338
I       16.51349681       4.11331485       3.15982037
I       13.94217332       5.64299530       5.79440267
I       12.76383498       1.60571299       5.79422333
I       14.25796715       7.99848621       9.47946108
I       17.53613427       2.43155394       6.84505813
I       18.71447261       6.46880576       6.84487878
I       14.96476648       3.96102471       9.47946108
