10
Lattice="9.296010972688444 0.005561172324943344 0.1988833435591291 -4.666860728498098 8.014665736425478 0.6663392287409752 -0.18911682751698988 -0.8392440694408714 8.786342700292268" Properties=species:S:1:pos:R:3:spacegroup_kinds:I:1:forces:R:3 spacegroup="P 1" unit_cell=conventional occupancy="_JSON {\"0\": {\"Cs\": 1.0}, \"1\": {\"Cs\": 1.0}, \"2\": {\"K\": 1.0}, \"3\": {\"In\": 1.0}, \"4\": {\"I\": 1.0}, \"5\": {\"I\": 1.0}, \"6\": {\"I\": 1.0}, \"7\": {\"I\": 1.0}, \"8\": {\"I\": 1.0}, \"9\": {\"I\": 1.0}}" energy=-25.793814718811536 free_energy=-25.793814718811536 stress="-1.0772868437127686e-06 1.919093138967401e-06 -3.1063677118129245e-06 1.919093138967401e-06 -1.2056529476463586e-06 2.132664192000048e-06 -3.1063677118129245e-06 2.132664192000048e-06 -3.5174205493092952e-06" pbc="T T T"
Cs       0.56384128       4.50519479       9.31402915        0      -0.00001970       0.00069054      -0.00051465
Cs       5.21739700       1.83635049       9.15870145        1      -0.00023187       0.00042533      -0.00063202
K        0.66941752      -0.41810040       4.40960334        2       0.00066989      -0.00048236      -0.00026858
In       0.76537704       0.00035387       0.01570569        3      -0.00034888       0.00001300       0.00027408
I        1.94081891       1.93478353       2.00119401        4       0.00015239       0.00001384       0.00008303
I        4.02959342       5.24713340       7.68240116        5      -0.00052022      -0.00068953       0.00048058
I        3.05183070      -0.66945060       7.09707393        6      -0.00062006       0.00017037      -0.00010603
I        7.58568701      -0.16349803       1.92026969        7       0.00023573      -0.00005747       0.00016999
I       -2.71588424       5.74560132       2.26566112        8       0.00024085       0.00025667       0.00066356
I       -0.61068748       1.43107892       7.21959516        9       0.00044186      -0.00034039      -0.00014997
