10
Lattice="8.778380562521688 0.0 0.0 -4.600921407329004 7.96902963912514 0.0 1.164456918974144 4.701202739183442 7.337479163089102" Properties=species:S:1:pos:R:3 pbc="T T T"
Cs       1.58610733       2.88636251       0.02323206
Cs      -1.71661882      10.21396922       7.31398305
K       -2.15394134       2.56569810       3.66873110
In      -2.73622801       0.21507087       0.00009436
I       -3.69512023       3.25391483       1.46781263
I        3.56458471       9.84661175       5.86968154
I       -0.69445520       6.05624044       5.86974013
I        0.56390729       7.04393779       1.46787122
I       -4.80208440       9.10669415       1.46783375
I        4.67160305       3.99364085       5.86970266
