10
Lattice="9.263978905970554 0.10404570008193405 -0.7800733533507092 -4.9118883314683295 7.658479065070177 -1.9211560222727497 0.6811215709357796 2.549826273659502 8.425378844347373" Properties=species:S:1:pos:R:3:spacegroup_kinds:I:1:forces:R:3 spacegroup="P 1" unit_cell=conventional occupancy="_JSON {\"0\": {\"Cs\": 1.0}, \"1\": {\"Cs\": 1.0}, \"2\": {\"K\": 1.0}, \"3\": {\"In\": 1.0}, \"4\": {\"I\": 1.0}, \"5\": {\"I\": 1.0}, \"6\": {\"I\": 1.0}, \"7\": {\"I\": 1.0}, \"8\": {\"I\": 1.0}, \"9\": {\"I\": 1.0}}" energy=-25.793814824815144 free_energy=-25.793814824815144 stress="-2.0350173966112143e-06 1.3324360306338964e-06 -6.744427811803501e-07 1.3324360306338964e-06 8.883963505089477e-06 -1.883459451019759e-06 -6.744427811803501e-07 -1.883459451019759e-06 7.365557392688261e-06" pbc="T T T"
Cs       1.65141248       2.80576248      -0.95561189        0      -0.00015586       0.00001018       0.00003984
Cs      -2.39651491       7.85820476       7.03984732        1      -0.00002285      -0.00022506       0.00015537
K        6.71606985       1.55401887       3.61285945        2      -0.00060142       0.00044302       0.00020121
In       6.37475162       0.27996393      -0.59966533        3       0.00029633      -0.00014816      -0.00010021
I        5.23705731       2.80628316       0.57870018        4       0.00038898      -0.00041611       0.00014457
I        3.28165754       7.96173944       4.72584265        5       0.00003008       0.00036238       0.00060234
I        8.07530528       4.34646388       5.43287832        6       0.00010534       0.00015345       0.00028343
I        0.44359617       6.42096164      -0.12830855        7       0.00001959       0.00047183      -0.00009697
I        8.94115696       0.80127358       0.88616729        8      -0.00016282      -0.00013296      -0.00065855
I        4.48971812       2.30859598       6.34008324        9       0.00010261      -0.00051857      -0.00057103
