40
Lattice="17.373625134761333 1.5325981973963794 -0.789319459877123 8.262887015631767 16.522355308164215 0.40357979354871254 4.982960746289466 2.44724486535685 7.310391372494783" Properties=species:S:1:pos:R:3:spacegroup_kinds:I:1:forces:R:3 spacegroup="P 1" unit_cell=conventional occupancy="_JSON {\"0\": {\"Cs\": 1.0}, \"1\": {\"Cs\": 1.0}, \"2\": {\"K\": 1.0}, \"3\": {\"In\": 1.0}, \"4\": {\"I\": 1.0}, \"5\": {\"I\": 1.0}, \"6\": {\"I\": 1.0}, \"7\": {\"I\": 1.0}, \"8\": {\"I\": 1.0}, \"9\": {\"I\": 1.0}, \"10\": {\"Cs\": 1.0}, \"11\": {\"Cs\": 1.0}, \"12\": {\"K\": 1.0}, \"13\": {\"In\": 1.0}, \"14\": {\"I\": 1.0}, \"15\": {\"I\": 1.0}, \"16\": {\"I\": 1.0}, \"17\": {\"I\": 1.0}, \"18\": {\"I\": 1.0}, \"19\": {\"I\": 1.0}, \"20\": {\"Cs\": 1.0}, \"21\": {\"Cs\": 1.0}, \"22\": {\"K\": 1.0}, \"23\": {\"In\": 1.0}, \"24\": {\"I\": 1.0}, \"25\": {\"I\": 1.0}, \"26\": {\"I\": 1.0}, \"27\": {\"I\": 1.0}, \"28\": {\"I\": 1.0}, \"29\": {\"I\": 1.0}, \"30\": {\"Cs\": 1.0}, \"31\": {\"Cs\": 1.0}, \"32\": {\"K\": 1.0}, \"33\": {\"In\": 1.0}, \"34\": {\"I\": 1.0}, \"35\": {\"I\": 1.0}, \"36\": {\"I\": 1.0}, \"37\": {\"I\": 1.0}, \"38\": {\"I\": 1.0}, \"39\": {\"I\": 1.0}}" energy=-102.59578584777266 free_energy=-102.59578584777266 stress="3.1784631663958455e-07 1.392140076627235e-07 -4.2272272516155126e-07 1.392140076627235e-07 -9.499202264902161e-07 -8.407944932579636e-08 -4.2272272516155126e-07 -8.407944932579636e-08 2.786574230471181e-07" pbc="T T T"
Cs       4.59542135       2.77771165       1.69309050        0      -0.00025399       0.00010352      -0.00007095
Cs      13.20690112       8.69721357       5.42333853        1       0.00007808      -0.00020225       0.00019794
K        8.89995525       5.73746531       3.55889596        2       0.00033298       0.00005970      -0.00000643
In      17.37359534       1.53279659      -0.78935583        3       0.00036154      -0.00038660       0.00068028
I        6.50081137       3.59236584       5.02535135        4       0.00015724      -0.00010477       0.00012195
I       11.29944589       7.88229697       2.09130454        5       0.00003808       0.00006206       0.00003177
I        8.57908033       3.46665242       0.86201778        6      -0.00000009      -0.00011994      -0.00010849
I        9.22155598       8.00815974       6.25587548        7      -0.00001856      -0.00005108      -0.00038137
I        6.67676951       7.70883342       1.64215112        8       0.00045191      -0.00011904       0.00011870
I       11.12403858       3.76612370       5.47505311        9       0.00030606      -0.00044748       0.00032327
Cs       8.72619310      11.03899907       1.89484562       10      -0.00003129       0.00018122       0.00018750
Cs      17.33784326      16.95751771       5.62606737       11       0.00014478       0.00006666       0.00006394
K       13.03192202      13.99895262       3.76085767       12      -0.00039724      -0.00009525      -0.00009472
In      21.50494156       9.79390355      -0.58723682       13      -0.00065708      -0.00004746      -0.00053111
I       10.63291785      11.85276299       5.22737383       14      -0.00019980       0.00013060       0.00016843
I       15.43150823      16.14343134       2.29343940       15      -0.00007877       0.00014262      -0.00002746
I       12.71191221      11.72732269       1.06462607       16      -0.00015776       0.00022935      -0.00007548
I       13.35391692      16.26933818       6.45723708       17      -0.00000982       0.00011097      -0.00001027
I       10.80888121      15.97028292       1.84327018       18      -0.00043193       0.00010411      -0.00008240
I       15.25649666      12.02795964       5.67678848       19      -0.00022893      -0.00017601       0.00006686
Cs      13.28081452       3.54499539       1.29883896       20       0.00013849      -0.00001749      -0.00000270
Cs      21.89432148       9.46286162       5.02923295       21      -0.00007320      -0.00001864       0.00002256
K       17.58819092       6.50304283       3.16431987       22      -0.00007412       0.00011613      -0.00031728
In       8.68671802       0.76630179      -0.39493106       23      -0.00001249       0.00056713       0.00027144
I       15.18819646       4.35837372       4.63099839       24       0.00001123       0.00009988      -0.00025835
I       19.98620302       8.65000031       1.69758596       25      -0.00007877      -0.00029162       0.00001560
I       17.26575134       4.23303233       0.46736175       26       0.00009298      -0.00020678       0.00011845
I       17.90853999       8.77439695       5.85997232       27       0.00001229       0.00027455       0.00035881
I       15.36368796       8.47417383       1.24784296       28       0.00011016      -0.00015402      -0.00005522
I       19.81082497       4.53135933       5.08137892       29      -0.00051058       0.00021252      -0.00038745
Cs      17.41103510      11.80595865       1.50115396       30       0.00042826      -0.00013458       0.00003014
Cs      26.02405327      17.72364169       5.23191743       31       0.00022403       0.00003801      -0.00020447
K       21.71892290      14.76494932       3.36568820       32       0.00005125       0.00004280       0.00002357
In      12.81866135       9.02727060      -0.19287539       33       0.00017719      -0.00029810      -0.00023491
I       19.32051630      12.61890315       4.83294934       34      -0.00017645       0.00023026       0.00002090
I       24.11835742      16.91039195       1.89919591       35       0.00015610      -0.00008959      -0.00004029
I       21.39773045      12.49406262       0.66951212       36      -0.00010429       0.00031201       0.00003704
I       22.04011241      17.03578362       6.06224217       37      -0.00011459      -0.00035451      -0.00015596
I       19.49523151      16.73648258       1.44908105       38      -0.00005638       0.00000273       0.00007044
I       23.94229207      12.79364108       5.28289099       39       0.00039347       0.00022839       0.00011574
