20
Lattice="18.523905526119847 1.3137305685824388 0.9984806119983772 -5.115366316013436 7.5688368810698545 -1.7523207974728252 -0.5840918735318631 1.6112590249826746 8.66064853640802" Properties=species:S:1:pos:R:3:spacegroup_kinds:I:1:forces:R:3 spacegroup="P 1" unit_cell=conventional occupancy="_JSON {\"0\": {\"Cs\": 1.0}, \"1\": {\"Cs\": 1.0}, \"2\": {\"K\": 1.0}, \"3\": {\"In\": 1.0}, \"4\": {\"I\": 1.0}, \"5\": {\"I\": 1.0}, \"6\": {\"I\": 1.0}, \"7\": {\"I\": 1.0}, \"8\": {\"I\": 1.0}, \"9\": {\"I\": 1.0}, \"10\": {\"Cs\": 1.0}, \"11\": {\"Cs\": 1.0}, \"12\": {\"K\": 1.0}, \"13\": {\"In\": 1.0}, \"14\": {\"I\": 1.0}, \"15\": {\"I\": 1.0}, \"16\": {\"I\": 1.0}, \"17\": {\"I\": 1.0}, \"18\": {\"I\": 1.0}, \"19\": {\"I\": 1.0}}" energy=-51.58762824901113 free_energy=-51.58762824901113 stress="-1.080467953074295e-06 -1.046353559095148e-05 -7.512210719464804e-07 -1.046353559095148e-05 -3.434299018535682e-06 -4.704046326878725e-06 -7.512210719464804e-07 -4.704046326878725e-06 -1.1402693410451161e-06" pbc="T T T"
Cs       4.50870109       4.13754968       8.52566615        0      -0.00018470      -0.00026071      -0.00017520
Cs       0.29842670       4.83192793      -0.87272230        1      -0.00047152      -0.00019004       0.00004341
K        0.33027676       0.37228156       4.45289115        2      -0.00000841      -0.00044118      -0.00018171
In      -4.49366903       7.13488570      -1.62996432        3       0.00020678      -0.00025612       0.00019449
I        2.22312910       7.94578290       0.47025944        4       0.00001094       0.00027773      -0.00004680
I       -2.53219374       8.59233550       5.43052220        5       0.00042765      -0.00024086      -0.00067028
I        1.59731135       2.04374259       1.52733478        6      -0.00046331       0.00042035       0.00009334
I        3.20955426       6.92488478       6.12495010        7      -0.00000400       0.00037303      -0.00005562
I        5.98894106       6.12778589       1.06157226        8       0.00037574       0.00035462       0.00066446
I       -1.18301967       2.84118887       6.59054229        9       0.00010891      -0.00006715       0.00017220
Cs      13.77065437       4.79441499       9.02490590       10      -0.00018849      -0.00025852      -0.00017053
Cs       9.56037895       5.48879320      -0.37348145       11      -0.00046775      -0.00019224       0.00003874
K        9.59222906       1.02914627       4.95212968       12      -0.00000821      -0.00043044      -0.00016699
In       4.76828366       7.79174179      -1.13070834       13       0.00021054      -0.00020602       0.00010302
I       11.48507879       8.60264720       0.96950097       14       0.00003010       0.00027983      -0.00005651
I        6.72976213       9.24920179       5.92976127       15       0.00040835      -0.00024296      -0.00066050
I       10.85926412       2.70060812       2.02657497       16      -0.00046321       0.00041809       0.00009348
I       12.47150703       7.58174983       6.62419054       17      -0.00000414       0.00037520      -0.00005584
I       -3.27300926       5.47091706       0.56233807       18       0.00036175       0.00037738       0.00063119
I        8.07893063       3.49805773       7.08977642       19       0.00012299      -0.00009000       0.00020563
