40
Lattice="12.773301233809145 -8.93628653776107e-10 8.740561528983569e-17 -8.936286539108077e-10 12.773301233809152 6.79000544159739e-17 8.780155411526058e-17 6.813508551948277e-17 12.773301233603666" Properties=species:S:1:pos:R:3:spacegroup_kinds:I:1:forces:R:3 spacegroup="P 1" unit_cell=conventional occupancy="_JSON {\"0\": {\"Cs\": 1.0}, \"1\": {\"Pb\": 1.0}, \"2\": {\"I\": 1.0}, \"3\": {\"I\": 1.0}, \"4\": {\"I\": 1.0}, \"5\": {\"Cs\": 1.0}, \"6\": {\"Pb\": 1.0}, \"7\": {\"I\": 1.0}, \"8\": {\"I\": 1.0}, \"9\": {\"I\": 1.0}, \"10\": {\"Cs\": 1.0}, \"11\": {\"Pb\": 1.0}, \"12\": {\"I\": 1.0}, \"13\": {\"I\": 1.0}, \"14\": {\"I\": 1.0}, \"15\": {\"Cs\": 1.0}, \"16\": {\"Pb\": 1.0}, \"17\": {\"I\": 1.0}, \"18\": {\"I\": 1.0}, \"19\": {\"I\": 1.0}, \"20\": {\"Cs\": 1.0}, \"21\": {\"Pb\": 1.0}, \"22\": {\"I\": 1.0}, \"23\": {\"I\": 1.0}, \"24\": {\"I\": 1.0}, \"25\": {\"Cs\": 1.0}, \"26\": {\"Pb\": 1.0}, \"27\": {\"I\": 1.0}, \"28\": {\"I\": 1.0}, \"29\": {\"I\": 1.0}, \"30\": {\"Cs\": 1.0}, \"31\": {\"Pb\": 1.0}, \"32\": {\"I\": 1.0}, \"33\": {\"I\": 1.0}, \"34\": {\"I\": 1.0}, \"35\": {\"Cs\": 1.0}, \"36\": {\"Pb\": 1.0}, \"37\": {\"I\": 1.0}, \"38\": {\"I\": 1.0}, \"39\": {\"I\": 1.0}}" energy=-111.84593549304992 free_energy=-111.84593549304992 stress="-1.939512449591428e-05 -2.409692791336694e-12 8.309931253835165e-19 -2.409692791336694e-12 -1.939512449592089e-05 2.4821315675077485e-18 8.309931253835165e-19 2.4821315675077485e-18 -1.9395124221759377e-05" pbc="T T T"
Cs       3.19335445       3.19329617       3.19332531        0       0.00000098      -0.00000098      -0.00000000
Pb       0.00001224      -0.00001224      -0.00000000        1      -0.00000387       0.00000387      -0.00000000
I        0.00000755      -0.00000755       3.19332531        2      -0.00000200       0.00000200      -0.00000000
I        3.19333154      -0.00000755      -0.00000000        3       0.00000689       0.00000200      -0.00000000
I        0.00000755       3.19331908      -0.00000000        4      -0.00000200      -0.00000689      -0.00000000
Cs       3.19335445       3.19329617       9.57997593        5       0.00000098      -0.00000098      -0.00000000
Pb       0.00001224      -0.00001224       6.38665062        6      -0.00000387       0.00000387      -0.00000000
I        0.00000755      -0.00000755       9.57997593        7      -0.00000200       0.00000200       0.00000000
I        3.19333154      -0.00000755       6.38665062        8       0.00000689       0.00000200      -0.00000000
I        0.00000755       3.19331908       6.38665062        9      -0.00000200      -0.00000689      -0.00000000
Cs       3.19335445       9.57994678       3.19332531       10       0.00000098      -0.00000098      -0.00000000
Pb       0.00001224       6.38663837      -0.00000000       11      -0.00000387       0.00000387      -0.00000000
I        0.00000755       6.38664307       3.19332531       12      -0.00000200       0.00000200      -0.00000000
I        3.19333154       6.38664307      -0.00000000       13       0.00000689       0.00000200      -0.00000000
I        0.00000755       9.57996969      -0.00000000       14      -0.00000200      -0.00000689      -0.00000000
Cs       3.19335445       9.57994678       9.57997593       15       0.00000098      -0.00000098      -0.00000000
Pb       0.00001224       6.38663837       6.38665062       16      -0.00000387       0.00000387      -0.00000000
I        0.00000755       6.38664307       9.57997593       17      -0.00000200       0.00000200       0.00000000
I        3.19333154       6.38664307       6.38665062       18       0.00000689       0.00000200      -0.00000000
I        0.00000755       9.57996969       6.38665062       19      -0.00000200      -0.00000689      -0.00000000
Cs       9.58000507       3.19329617       3.19332531       20       0.00000098      -0.00000098      -0.00000000
Pb       6.38666286      -0.00001224      -0.00000000       21      -0.00000387       0.00000387      -0.00000000
I        6.38665817      -0.00000755       3.19332531       22      -0.00000200       0.00000200      -0.00000000
I        9.57998216      -0.00000755      -0.00000000       23       0.00000689       0.00000200      -0.00000000
I        6.38665817       3.19331908      -0.00000000       24      -0.00000200      -0.00000689      -0.00000000
Cs       9.58000507       3.19329617       9.57997593       25       0.00000098      -0.00000098      -0.00000000
Pb       6.38666286      -0.00001224       6.38665062       26      -0.00000387       0.00000387      -0.00000000
I        6.38665817      -0.00000755       9.57997593       27      -0.00000200       0.00000200       0.00000000
I        9.57998216      -0.00000755       6.38665062       28       0.00000689       0.00000200      -0.00000000
I        6.38665817       3.19331908       6.38665062       29      -0.00000200      -0.00000689      -0.00000000
Cs       9.58000506       9.57994678       3.19332531       30       0.00000098      -0.00000098      -0.00000000
Pb       6.38666286       6.38663837      -0.00000000       31      -0.00000387       0.00000387      -0.00000000
I        6.38665817       6.38664307       3.19332531       32      -0.00000200       0.00000200      -0.00000000
I        9.57998216       6.38664307      -0.00000000       33       0.00000689       0.00000200      -0.00000000
I        6.38665817       9.57996969      -0.00000000       34      -0.00000200      -0.00000689      -0.00000000
Cs       9.58000506       9.57994678       9.57997593       35       0.00000098      -0.00000098      -0.00000000
Pb       6.38666286       6.38663837       6.38665062       36      -0.00000387       0.00000387      -0.00000000
I        6.38665817       6.38664307       9.57997593       37      -0.00000200       0.00000200       0.00000000
I        9.57998216       6.38664307       6.38665062       38       0.00000689       0.00000200      -0.00000000
I        6.38665817       9.57996969       6.38665062       39      -0.00000200      -0.00000689      -0.00000000
