10
Lattice="8.712290941572398 -0.25414927615135124 -0.19825864406210866 4.136297343739636 7.762636906566179 -0.21890779388790765 4.129990693603816 2.39182377823967 7.294914892565725" Properties=species:S:1:pos:R:3:spacegroup_kinds:I:1:forces:R:3 spacegroup="P 1" unit_cell=conventional occupancy="_JSON {\"0\": {\"Cs\": 1.0}, \"1\": {\"Cs\": 1.0}, \"2\": {\"K\": 1.0}, \"3\": {\"In\": 1.0}, \"4\": {\"I\": 1.0}, \"5\": {\"I\": 1.0}, \"6\": {\"I\": 1.0}, \"7\": {\"I\": 1.0}, \"8\": {\"I\": 1.0}, \"9\": {\"I\": 1.0}}" energy=-25.648937685378993 free_energy=-25.648937685378993 stress="2.158313405107326e-06 1.593432281688913e-06 -2.5686797910347594e-06 1.593432281688913e-06 2.912954650432708e-06 -2.331438017735564e-06 -2.5686797910347594e-06 -2.331438017735564e-06 -5.318832301108459e-06" pbc="T T T"
Cs       4.08267387       2.38221790       1.67708832        0       0.00014383       0.00037279      -0.00039574
Cs      12.89599464       7.51706427       5.20147914        1      -0.00013505       0.00025535      -0.00040143
K        8.48862354       4.95114430       3.43895478        2       0.00047235      -0.00077964      -0.00020629
In       8.71204478      -0.25388536      -0.19811377        3       0.00027244      -0.00015482      -0.00005271
I        8.74052477       1.71790474       2.02969839        4      -0.00051664      -0.00025938      -0.00006361
I        8.23942035       8.18272209       4.84820855        5      -0.00053055      -0.00005502      -0.00012459
I       11.15771885       5.69024529       1.23314809        6      -0.00005295       0.00005310       0.00000346
I        5.82061493       4.21001585       5.64423580        7       0.00018865       0.00013732       0.00031374
I        6.57359933       6.46030081       0.87631395        8      -0.00001457       0.00009573       0.00042340
I       10.40467885       3.43951797       6.00059375        9       0.00017249       0.00033457       0.00050377
