10
Lattice="12.774135555411714 -3.130859186210384e-10 -4.894850314493997e-16 -1.5654295973772544e-10 6.387067777705936 3.3966173046523754e-16 -2.4501169644691664e-16 3.396883942851376e-16 6.387067777632845" Properties=species:S:1:pos:R:3:spacegroup_kinds:I:1:forces:R:3 spacegroup="P 1" unit_cell=conventional occupancy="_JSON {\"0\": {\"Cs\": 1.0}, \"1\": {\"Pb\": 1.0}, \"2\": {\"I\": 1.0}, \"3\": {\"I\": 1.0}, \"4\": {\"I\": 1.0}, \"5\": {\"Cs\": 1.0}, \"6\": {\"Pb\": 1.0}, \"7\": {\"I\": 1.0}, \"8\": {\"I\": 1.0}, \"9\": {\"I\": 1.0}}" energy=-27.961484854908807 free_energy=-27.961484854908807 stress="1.723887825716021e-07 -1.6257046159164719e-12 -1.6370991855295264e-17 -1.6257046159164719e-12 1.7238878435509154e-07 -8.969245751858172e-18 -1.6370991855295264e-17 -8.969245751858172e-18 1.7239478090475504e-07" pbc="T T T"
Cs       3.19359648       3.19347130       3.19353389        0       0.00000364      -0.00000364      -0.00000000
Pb       0.00000121      -0.00000121      -0.00000000        1       0.00000628      -0.00000628      -0.00000000
I       -0.00000710       0.00000710       3.19353389        2      -0.00000175       0.00000175       0.00000000
I        3.19353845       0.00000710       0.00000000        3      -0.00000643       0.00000175      -0.00000000
I       -0.00000710       3.19352932       0.00000000        4      -0.00000175       0.00000643      -0.00000000
Cs       9.58066426       3.19347130       3.19353389        5       0.00000364      -0.00000364      -0.00000000
Pb       6.38706899      -0.00000121      -0.00000000        6       0.00000628      -0.00000628      -0.00000000
I        6.38706068       0.00000710       3.19353389        7      -0.00000175       0.00000175       0.00000000
I        9.58060623       0.00000710       0.00000000        8      -0.00000643       0.00000175      -0.00000000
I        6.38706068       3.19352932       0.00000000        9      -0.00000175       0.00000643      -0.00000000
