40
Lattice="19.737897426115055 0.0 0.0 9.868948713140634 17.093520588259373 0.0 4.934474356650076 2.848920098105232 8.057963102743097" Properties=species:S:1:pos:R:3 pbc="T T T"
Cs       4.93437176       2.84888934       2.01449573
Cs      14.80352542       8.54679027       6.04346686
K        9.86894857       5.69783978       4.02898128
In       0.00000018       0.00000066       0.00000027
I        8.24714599       2.73177620       4.42074159
I       11.49075123       8.66390281       3.63722094
I       11.90681532       4.08945865       1.87258455
I        7.83108074       7.30622027       6.18537786
I        7.22841200       7.22274695       1.87260603
I       12.50948601       4.17293457       6.18535760
Cs       9.86884612      11.39564963       2.01449573
Cs      19.73799978      17.09355057       6.04346686
K       14.80342293      14.24460007       4.02898128
In       4.93447454       8.54676095       0.00000027
I       13.18162035      11.27853649       4.42074159
I       16.42522559      17.21066311       3.63722094
I       16.84128968      12.63621895       1.87258455
I       12.76555510      15.85298056       6.18537786
I       12.16288636      15.76950724       1.87260603
I       17.44396037      12.71969486       6.18535760
Cs      14.80332047       2.84888934       2.01449573
Cs      24.67247413       8.54679027       6.04346686
K       19.73789729       5.69783978       4.02898128
In       9.86894890       0.00000066       0.00000027
I       18.11609470       2.73177620       4.42074159
I       21.35969995       8.66390281       3.63722094
I       21.77576403       4.08945865       1.87258455
I       17.70002946       7.30622027       6.18537786
I       17.09736072       7.22274695       1.87260603
I       22.37843472       4.17293457       6.18535760
Cs      19.73779483      11.39564963       2.01449573
Cs      29.60694849      17.09355057       6.04346686
K       24.67237164      14.24460007       4.02898128
In      14.80342325       8.54676095       0.00000027
I       23.05056906      11.27853649       4.42074159
I       26.29417430      17.21066311       3.63722094
I       26.71023839      12.63621895       1.87258455
I       22.63450381      15.85298056       6.18537786
I       22.03183507      15.76950724       1.87260603
I       27.31290908      12.71969486       6.18535760
