10
Lattice="12.77450504421045 4.089636707079998e-11 -2.901069393555457e-17 2.0448183543586724e-11 6.387252522105227 9.971697226822656e-16 -1.447411780668655e-17 9.972036192063947e-16 6.387252521985094" Properties=species:S:1:pos:R:3:spacegroup_kinds:I:1:forces:R:3 spacegroup="P 1" unit_cell=conventional occupancy="_JSON {\"0\": {\"Cs\": 1.0}, \"1\": {\"Pb\": 1.0}, \"2\": {\"I\": 1.0}, \"3\": {\"I\": 1.0}, \"4\": {\"I\": 1.0}, \"5\": {\"Cs\": 1.0}, \"6\": {\"Pb\": 1.0}, \"7\": {\"I\": 1.0}, \"8\": {\"I\": 1.0}, \"9\": {\"I\": 1.0}}" energy=-27.961484651255834 free_energy=-27.961484651255834 stress="8.833027636929127e-06 -1.0110662352361019e-12 -4.498204826575652e-18 -1.0110662352361019e-12 8.833027636682556e-06 3.1201921008606594e-18 -4.498204826575652e-18 3.1201921008606594e-18 8.833032155618881e-06" pbc="T T T"
Cs       3.19368997       3.19356255       3.19362626        0       0.00000344      -0.00000344      -0.00000000
Pb       0.00000016      -0.00000016      -0.00000000        1       0.00000660      -0.00000660      -0.00000000
I       -0.00000562       0.00000562       3.19362626        2      -0.00000211       0.00000211       0.00000000
I        3.19363039       0.00000562       0.00000000        3      -0.00000583       0.00000211       0.00000000
I       -0.00000562       3.19362213       0.00000000        4      -0.00000211       0.00000583       0.00000000
Cs       9.58094249       3.19356255       3.19362626        5       0.00000344      -0.00000344      -0.00000000
Pb       6.38725268      -0.00000016      -0.00000000        6       0.00000660      -0.00000660      -0.00000000
I        6.38724690       0.00000562       3.19362626        7      -0.00000211       0.00000211       0.00000000
I        9.58088291       0.00000562       0.00000000        8      -0.00000583       0.00000211       0.00000000
I        6.38724690       3.19362213       0.00000000        9      -0.00000211       0.00000583       0.00000000
