40
Lattice="18.593465395063937 -0.40577760396289847 0.004940974847458418 -8.946172777035132 16.3057061383854 -0.0033753774108275843 -0.002880113294441232 0.0018592930345933951 8.828625417092843" Properties=species:S:1:pos:R:3:spacegroup_kinds:I:1:forces:R:3 spacegroup="P 1" unit_cell=conventional occupancy="_JSON {\"0\": {\"Cs\": 1.0}, \"1\": {\"Cs\": 1.0}, \"2\": {\"K\": 1.0}, \"3\": {\"In\": 1.0}, \"4\": {\"I\": 1.0}, \"5\": {\"I\": 1.0}, \"6\": {\"I\": 1.0}, \"7\": {\"I\": 1.0}, \"8\": {\"I\": 1.0}, \"9\": {\"I\": 1.0}, \"10\": {\"Cs\": 1.0}, \"11\": {\"Cs\": 1.0}, \"12\": {\"K\": 1.0}, \"13\": {\"In\": 1.0}, \"14\": {\"I\": 1.0}, \"15\": {\"I\": 1.0}, \"16\": {\"I\": 1.0}, \"17\": {\"I\": 1.0}, \"18\": {\"I\": 1.0}, \"19\": {\"I\": 1.0}, \"20\": {\"Cs\": 1.0}, \"21\": {\"Cs\": 1.0}, \"22\": {\"K\": 1.0}, \"23\": {\"In\": 1.0}, \"24\": {\"I\": 1.0}, \"25\": {\"I\": 1.0}, \"26\": {\"I\": 1.0}, \"27\": {\"I\": 1.0}, \"28\": {\"I\": 1.0}, \"29\": {\"I\": 1.0}, \"30\": {\"Cs\": 1.0}, \"31\": {\"Cs\": 1.0}, \"32\": {\"K\": 1.0}, \"33\": {\"In\": 1.0}, \"34\": {\"I\": 1.0}, \"35\": {\"I\": 1.0}, \"36\": {\"I\": 1.0}, \"37\": {\"I\": 1.0}, \"38\": {\"I\": 1.0}, \"39\": {\"I\": 1.0}}" energy=-103.17526527558637 free_energy=-103.17526527558637 stress="-9.018391902880722e-07 -1.52750188178028e-06 -2.2076381621131818e-07 -1.52750188178028e-06 1.6957477543903864e-06 1.0201405372306733e-06 -2.2076381621131818e-07 1.0201405372306733e-06 -3.3403966317603916e-07" pbc="T T T"
Cs       2.67029113       4.01432951       0.01153798        0       0.00012231       0.00000593      -0.00019430
Cs      -1.92233477       6.80168378       8.81640902        1       0.00003376      -0.00015860       0.00007220
K       16.55745685       1.02668439       4.41851903        2      -0.00086691       0.00022489       0.00016580
In      16.55664049       1.02641020       0.00453697        3       0.00038534      -0.00038093      -0.00038072
I       15.38976303       3.16743724       1.77040602        4       0.00022771      -0.00004900      -0.00004706
I        3.95149332       7.24266350       7.06318258        5       0.00007012      -0.00018156       0.00019943
I       -0.76827546       3.51464530       7.06202197        6       0.00043252       0.00009352      -0.00010601
I        1.51597706       7.30113742       1.76648080        7      -0.00000765       0.00037489      -0.00001901
I       -4.07230490       9.52461752       1.76450665        8      -0.00013178       0.00022965       0.00006956
I        4.82075728       1.29124313       7.06304243        9      -0.00026540      -0.00015879       0.00024011
Cs      -1.80279526      12.16718258       0.00985029       10       0.00012231       0.00000593      -0.00019430
Cs      -6.39542116      14.95453685       8.81472134       11       0.00003375      -0.00015860       0.00007220
K       12.08437047       9.17953746       4.41683134       12      -0.00086691       0.00022489       0.00016579
In      12.08355410       9.17926327       0.00284928       13       0.00038534      -0.00038091      -0.00038071
I       10.91667664      11.32029031       1.76871833       14       0.00022771      -0.00004901      -0.00004707
I       -0.52159307      15.39551657       7.06149489       15       0.00007011      -0.00018156       0.00019944
I       -5.24136184      11.66749837       7.06033428       16       0.00043251       0.00009351      -0.00010601
I       -2.95710933      15.45399049       1.76479311       17      -0.00000765       0.00037489      -0.00001901
I        0.40078149       1.37176445       1.76619433       18      -0.00013178       0.00022965       0.00006956
I        0.34767089       9.44409619       7.06135474       19      -0.00026541      -0.00015879       0.00024011
Cs      11.96702383       3.81144071       0.01400846       20       0.00012231       0.00000593      -0.00019430
Cs       7.37439792       6.59879497       8.81887951       21       0.00003376      -0.00015860       0.00007220
K        7.26072416       1.22957319       4.41604854       22      -0.00086691       0.00022489       0.00016580
In       7.25990779       1.22929900       0.00206649       23       0.00038534      -0.00038092      -0.00038074
I        6.09303033       3.37032604       1.76793553       24       0.00022771      -0.00004900      -0.00004706
I       13.24822601       7.03977470       7.06565307       25       0.00007012      -0.00018156       0.00019943
I        8.52845724       3.31175650       7.06449246       26       0.00043251       0.00009351      -0.00010601
I       10.81270975       7.09824861       1.76895129       27      -0.00000765       0.00037489      -0.00001901
I        5.22442780       9.32172872       1.76697713       28      -0.00013178       0.00022965       0.00006956
I       14.11748998       1.08835432       7.06551292       29      -0.00026541      -0.00015879       0.00024011
Cs       7.49393744      11.96429378       0.01232077       30       0.00012231       0.00000593      -0.00019430
Cs       2.90131154      14.75164804       8.81719182       31       0.00003376      -0.00015860       0.00007220
K        2.78763777       9.38242626       4.41436086       32      -0.00086691       0.00022489       0.00016580
In       2.78682140       9.38215207       0.00037880       33       0.00038534      -0.00038092      -0.00038072
I        1.61994394      11.52317911       1.76624784       34       0.00022771      -0.00004900      -0.00004706
I        8.77513963      15.19262777       7.06396538       35       0.00007011      -0.00018156       0.00019944
I        4.05537085      11.46460957       7.06280477       36       0.00043251       0.00009351      -0.00010601
I        6.33962336      15.25110168       1.76726360       37      -0.00000765       0.00037489      -0.00001901
I        9.69751418       1.16887565       1.76866482       38      -0.00013178       0.00022965       0.00006956
I        9.64440359       9.24120739       7.06382523       39      -0.00026540      -0.00015879       0.00024011
