40
Lattice="19.279825182722266 0.0 0.0 -8.940506605209684 15.485411685628323 0.0 0.0 0.0 7.671104525553138" Properties=species:S:1:pos:R:3 pbc="T T T"
Cs       2.85403305       3.91461480       0.02433331
Cs      -1.84935558       6.49551674       7.64658500
K       -2.08245471       1.33373813       3.83555738
In      -2.08250399       1.33373759       0.00008436
I       -3.23800360       3.37252525       1.53456941
I        4.24265870       7.03775992       6.13658541
I       -0.71128074       3.35507502       6.13662481
I        1.71592905       7.05494822       1.53460881
I       -4.02600584       9.05910187       1.53456621
I        5.03070754       1.35103456       6.13658221
Cs      -1.61622025      11.65732064       0.02433331
Cs      -6.31960888      14.23822259       7.64658500
K       -6.55270802       9.07644398       3.83555738
In      -6.55275729       9.07644343       0.00008436
I       -7.70825690      11.11523109       1.53456941
I       -0.22759460      14.78046576       6.13658541
I       -5.18153404      11.09778086       6.13662481
I       -2.75432425      14.79765406       1.53460881
I       -8.49625914      16.80180771       1.53456621
I        0.56045424       9.09374040       6.13658221
Cs      12.49394565       3.91461480       0.02433331
Cs       7.79055701       6.49551674       7.64658500
K        7.55745788       1.33373813       3.83555738
In       7.55740860       1.33373759       0.00008436
I        6.40190899       3.37252525       1.53456941
I       13.88257129       7.03775992       6.13658541
I        8.92863185       3.35507502       6.13662481
I       11.35584164       7.05494822       1.53460881
I        5.61390675       9.05910187       1.53456621
I       14.67062013       1.35103456       6.13658221
Cs       8.02369234      11.65732064       0.02433331
Cs       3.32030371      14.23822259       7.64658500
K        3.08720457       9.07644398       3.83555738
In       3.08715530       9.07644343       0.00008436
I        1.93165569      11.11523109       1.53456941
I        9.41231799      14.78046576       6.13658541
I        4.45837855      11.09778086       6.13662481
I        6.88558834      14.79765406       1.53460881
I        1.14365345      16.80180771       1.53456621
I       10.20036683       9.09374040       6.13658221
