80
Lattice="19.527163141200298 0.0 0.0 -9.763581570600145 16.911019344122597 0.0 2.5211209913879995 5.680846972393779 17.46731743347944" Properties=species:S:1:pos:R:3 pbc="T T T"
Cs       3.96574896       2.83925675       0.02776504
Cs       0.33649089       8.48009444       8.70580412
K        0.63028025       1.42021174       4.36682936
In      -0.92006038       0.01171569       0.00003108
I       -1.93148142       2.80637037       1.74710141
I        6.23371341       8.51304606       6.98656034
I        1.38467996       4.49141265       6.98658031
I        2.91754772       6.82788648       1.74712137
I       -2.98974272       9.01650990       1.74710951
I        7.29199264       2.30284226       6.98656844
Cs       5.22630946       5.67968023       8.76142376
Cs       1.59705139      11.32051793      17.43946284
K        1.89084074       4.26063523      13.10048808
In       0.34050011       2.85213918       8.73368980
I       -0.67092093       5.64679385      10.48076013
I        7.49427390      11.35346955      15.72021906
I        2.64524046       7.33183613      15.72023903
I        4.17810821       9.66830997      10.48078009
I       -1.72918222      11.85693339      10.48076822
I        8.55255314       5.14326575      15.72022716
Cs      -0.91604182      11.29476642       0.02776504
Cs      -4.54529990      16.93560411       8.70580412
K       -4.25151054       9.87572142       4.36682936
In      -5.80185117       8.46722537       0.00003108
I       -6.81327221      11.26188004       1.74710141
I        1.35192262      16.96855573       6.98656034
I       -3.49711082      12.94692232       6.98658031
I       -1.96424307      15.28339616       1.74712137
I       -7.87153350      17.47201957       1.74710951
I        2.41020185      10.75835193       6.98656844
Cs       0.34451867      14.13518991       8.76142376
Cs      -3.28473940      19.77602760      17.43946284
K       -2.99095004      12.71614490      13.10048808
In      -4.54129067      11.30764885       8.73368980
I       -5.55271171      14.10230353      10.48076013
I        2.61248312      19.80897922      15.72021906
I       -2.23655033      15.78734580      15.72023903
I       -0.70368257      18.12381964      10.48078009
I       -6.61097301      20.31244306      10.48076822
I        3.67076235      13.59877542      15.72022716
Cs      13.72933053       2.83925675       0.02776504
Cs      10.10007246       8.48009444       8.70580412
K       10.39386182       1.42021174       4.36682936
In       8.84352119       0.01171569       0.00003108
I        7.83210015       2.80637037       1.74710141
I       15.99729498       8.51304606       6.98656034
I       11.14826153       4.49141265       6.98658031
I       12.68112929       6.82788648       1.74712137
I        6.77383885       9.01650990       1.74710951
I       17.05557421       2.30284226       6.98656844
Cs      14.98989103       5.67968023       8.76142376
Cs      11.36063296      11.32051793      17.43946284
K       11.65442231       4.26063523      13.10048808
In      10.10408168       2.85213918       8.73368980
I        9.09266064       5.64679385      10.48076013
I       17.25785547      11.35346955      15.72021906
I       12.40882203       7.33183613      15.72023903
I       13.94168979       9.66830997      10.48078009
I        8.03439935      11.85693339      10.48076822
I       18.31613471       5.14326575      15.72022716
Cs       8.84753975      11.29476642       0.02776504
Cs       5.21828168      16.93560411       8.70580412
K        5.51207103       9.87572142       4.36682936
In       3.96173040       8.46722537       0.00003108
I        2.95030936      11.26188004       1.74710141
I       11.11550419      16.96855573       6.98656034
I        6.26647075      12.94692232       6.98658031
I        7.79933850      15.28339616       1.74712137
I        1.89204807      17.47201957       1.74710951
I       12.17378342      10.75835193       6.98656844
Cs      10.10810024      14.13518991       8.76142376
Cs       6.47884217      19.77602760      17.43946284
K        6.77263153      12.71614490      13.10048808
In       5.22229090      11.30764885       8.73368980
I        4.21086986      14.10230353      10.48076013
I       12.37606469      19.80897922      15.72021906
I        7.52703124      15.78734580      15.72023903
I        9.05989900      18.12381964      10.48078009
I        3.15260856      20.31244306      10.48076822
I       13.43434392      13.59877542      15.72022716
