80
Lattice="18.54921024831039 -0.06299055362631036 -1.3320319766858062 -9.412949191833363 15.92829816935523 -1.923150228119975 1.253842460796523 2.8420303854609323 17.38176120357094" Properties=species:S:1:pos:R:3:spacegroup_kinds:I:1:forces:R:3 spacegroup="P 1" unit_cell=conventional occupancy="_JSON {\"0\": {\"Cs\": 1.0}, \"1\": {\"Cs\": 1.0}, \"2\": {\"K\": 1.0}, \"3\": {\"In\": 1.0}, \"4\": {\"I\": 1.0}, \"5\": {\"I\": 1.0}, \"6\": {\"I\": 1.0}, \"7\": {\"I\": 1.0}, \"8\": {\"I\": 1.0}, \"9\": {\"I\": 1.0}, \"10\": {\"Cs\": 1.0}, \"11\": {\"Cs\": 1.0}, \"12\": {\"K\": 1.0}, \"13\": {\"In\": 1.0}, \"14\": {\"I\": 1.0}, \"15\": {\"I\": 1.0}, \"16\": {\"I\": 1.0}, \"17\": {\"I\": 1.0}, \"18\": {\"I\": 1.0}, \"19\": {\"I\": 1.0}, \"20\": {\"Cs\": 1.0}, \"21\": {\"Cs\": 1.0}, \"22\": {\"K\": 1.0}, \"23\": {\"In\": 1.0}, \"24\": {\"I\": 1.0}, \"25\": {\"I\": 1.0}, \"26\": {\"I\": 1.0}, \"27\": {\"I\": 1.0}, \"28\": {\"I\": 1.0}, \"29\": {\"I\": 1.0}, \"30\": {\"Cs\": 1.0}, \"31\": {\"Cs\": 1.0}, \"32\": {\"K\": 1.0}, \"33\": {\"In\": 1.0}, \"34\": {\"I\": 1.0}, \"35\": {\"I\": 1.0}, \"36\": {\"I\": 1.0}, \"37\": {\"I\": 1.0}, \"38\": {\"I\": 1.0}, \"39\": {\"I\": 1.0}, \"40\": {\"Cs\": 1.0}, \"41\": {\"Cs\": 1.0}, \"42\": {\"K\": 1.0}, \"43\": {\"In\": 1.0}, \"44\": {\"I\": 1.0}, \"45\": {\"I\": 1.0}, \"46\": {\"I\": 1.0}, \"47\": {\"I\": 1.0}, \"48\": {\"I\": 1.0}, \"49\": {\"I\": 1.0}, \"50\": {\"Cs\": 1.0}, \"51\": {\"Cs\": 1.0}, \"52\": {\"K\": 1.0}, \"53\": {\"In\": 1.0}, \"54\": {\"I\": 1.0}, \"55\": {\"I\": 1.0}, \"56\": {\"I\": 1.0}, \"57\": {\"I\": 1.0}, \"58\": {\"I\": 1.0}, \"59\": {\"I\": 1.0}, \"60\": {\"Cs\": 1.0}, \"61\": {\"Cs\": 1.0}, \"62\": {\"K\": 1.0}, \"63\": {\"In\": 1.0}, \"64\": {\"I\": 1.0}, \"65\": {\"I\": 1.0}, \"66\": {\"I\": 1.0}, \"67\": {\"I\": 1.0}, \"68\": {\"I\": 1.0}, \"69\": {\"I\": 1.0}, \"70\": {\"Cs\": 1.0}, \"71\": {\"Cs\": 1.0}, \"72\": {\"K\": 1.0}, \"73\": {\"In\": 1.0}, \"74\": {\"I\": 1.0}, \"75\": {\"I\": 1.0}, \"76\": {\"I\": 1.0}, \"77\": {\"I\": 1.0}, \"78\": {\"I\": 1.0}, \"79\": {\"I\": 1.0}}" energy=-206.35052861469083 free_energy=-206.35052861469083 stress="-3.2136795296689743e-06 -5.750337099875231e-06 -5.934031687571252e-07 -5.750337099875231e-06 2.525143639170726e-06 6.216911484618525e-07 -5.934031687571252e-07 6.216911484618525e-07 -1.2288776824027785e-06" pbc="T T T"
Cs       3.82919186       2.64869826      -0.69403570        0      -0.00006454      -0.00006514      -0.00012940
Cs      -0.20742739       6.73020312       7.86701715        1       0.00001876      -0.00016673       0.00016284
K       -0.47343399       0.72308353       4.40051340        2       0.00010702      -0.00007847      -0.00036216
In      17.76261328      -0.05044572      -1.27704499        3      -0.00007349       0.00027271      -0.00061337
I       16.66325685       2.32670145       0.20807078        4      -0.00009148      -0.00003121      -0.00007932
I        5.50787132       6.98916190       5.63308323        5      -0.00006976      -0.00005661      -0.00030544
I        0.92118248       3.22472207       6.58044626        6       0.00038164       0.00011355       0.00010952
I        2.70041680       6.15409424       0.59243758        7      -0.00005781       0.00023124      -0.00001030
I       -2.93542327       8.24302304       0.65937251        8      -0.00008689      -0.00005496      -0.00008635
I        6.55730497       1.13560241       6.51368731        9      -0.00034616       0.00039354       0.00017846
Cs       4.45611375       4.06970032       7.99693285       10      -0.00008292      -0.00006287      -0.00018836
Cs       0.41949435       8.15123289      16.55783512       11       0.00010255      -0.00024073       0.00024172
K        0.15358955       2.14419277      13.09130669       12       0.00005188      -0.00008927      -0.00019906
In      18.38956374       1.37069339       7.41368605       13      -0.00015171      -0.00041365       0.00034021
I       17.29021272       3.74777746       8.89895520       14      -0.00012640      -0.00004700      -0.00009929
I        6.13477166       8.41008644      14.32392933       15      -0.00015241       0.00018714      -0.00031553
I        1.54819154       4.64582761      15.27125629       16       0.00006917      -0.00029608       0.00052455
I        3.32736646       7.57517772       9.28324145       17      -0.00021792      -0.00014823       0.00045198
I       -2.30849179       9.66399324       9.35020716       18      -0.00022144       0.00005775       0.00016178
I        7.18419611       2.55673534      15.20445365       19      -0.00002713       0.00018619       0.00042487
Cs      -0.87736850      10.61271585      -1.65548290       20       0.00009681       0.00026120      -0.00023434
Cs      -4.91380786      14.69440590       6.90530434       21      -0.00010288      -0.00023187       0.00021895
K       13.36933829       8.62438334       2.10662094       22       0.00017277      -0.00009361       0.00022686
In      13.05613649       7.91377956      -2.23882337       23      -0.00002673      -0.00024914       0.00047388
I       11.95685707      10.29087155      -0.75351791       24      -0.00029319       0.00010244      -0.00009983
I        0.80122192      14.95335087       4.67127955       25       0.00025690      -0.00020250       0.00022076
I       -3.78523916      11.18897434       5.61890700       26       0.00007806      -0.00039281       0.00017960
I       -2.00610752      14.11822341      -0.36914607       27      -0.00010528       0.00002178       0.00014249
I       -7.64197466      16.20715496      -0.30215330       28       0.00000352      -0.00002815      -0.00013612
I        1.85070699       9.09981295       5.55212967       29       0.00005032       0.00013999       0.00007246
Cs      -0.25039689      12.03376196       7.03532113       30      -0.00005873       0.00020397      -0.00022148
Cs      -4.28695857      16.11531756      15.59631626       31      -0.00004718       0.00003532       0.00011419
K       13.99612262      10.04517005      10.79781446       32       0.00023627      -0.00002420      -0.00034685
In      13.68299446       9.33472552       6.45223406       33       0.00028297       0.00028153      -0.00058763
I       12.58370177      11.71184661       7.93724516       34      -0.00007458       0.00014680       0.00026964
I        1.42824725      16.37438787      13.36218378       35       0.00002844      -0.00013152       0.00014717
I       -3.15836310      12.60992340      14.30988888       36       0.00023939      -0.00013654      -0.00028925
I       -1.37920461      15.53920676       8.32182167       37       0.00017498       0.00045982      -0.00024904
I       -7.01505157      17.62805700       8.38873025       38       0.00004098       0.00009130      -0.00022549
I        2.47759511      10.52092801      14.24300401       39       0.00007786       0.00009764       0.00005340
Cs      13.10383228       2.61721833      -1.36006432       40      -0.00013214      -0.00010256      -0.00012192
Cs       9.06715022       6.69868610       7.20104043       41       0.00007771      -0.00011112       0.00014164
K        8.80111785       0.69146226       3.73457768       42       0.00014560      -0.00001470      -0.00048707
In       8.48799615      -0.01895809      -0.61103284       43       0.00003524       0.00028770      -0.00062085
I        7.38871152       2.35818522       0.87409725       44      -0.00015510      -0.00000193      -0.00005231
I       14.78242290       6.95767019       4.96707926       45      -0.00006251      -0.00002853      -0.00032772
I       10.19579260       3.19322133       5.91440789       46       0.00031491       0.00008806       0.00010832
I       11.97505480       6.12263557      -0.07357809       47      -0.00008909       0.00015599      -0.00000903
I        6.33919626       8.21147941      -0.00666021       48      -0.00020243       0.00001133      -0.00004607
I       15.83193161       1.10418675       5.84764726       49      -0.00035612       0.00028706       0.00022706
Cs      13.73068175       4.03816021       7.33096471       50       0.00000858       0.00002341      -0.00023274
Cs       9.69411209       8.11976789      15.89178789       51       0.00007195      -0.00028835       0.00027608
K        9.42822906       2.11281077      12.42520863       52       0.00004686      -0.00016015      -0.00007586
In       9.11495553       1.40221187       8.07968187       53      -0.00018972      -0.00049040       0.00043641
I        8.01557269       3.77928361       9.56495868       54      -0.00012168      -0.00004638      -0.00010339
I       15.40940021       8.37859034      13.65790533       55      -0.00010799       0.00014019      -0.00027794
I       10.82279006       4.61434889      14.60529335       56       0.00011793      -0.00028203       0.00041473
I       12.60194343       7.54364587       8.61722289       57      -0.00020163      -0.00007941       0.00048429
I        6.96611961       9.63255714       8.68420748       58      -0.00017766      -0.00002372       0.00012140
I       16.45878941       2.52518319      14.53843909       59       0.00000301       0.00026403       0.00044813
Cs       8.39724447      10.58123229      -2.32154889       60       0.00007800       0.00022602      -0.00019879
Cs       4.36078089      14.66289201       6.23934627       61      -0.00007394      -0.00017417       0.00018009
K        4.09469785       8.65577321       2.77275773       62       0.00018054      -0.00006341      -0.00002588
In       3.78151037       7.94527363      -1.57280030       63       0.00001493      -0.00022758       0.00044874
I        2.68223046      10.32238756      -0.08752855       64      -0.00018734       0.00000225      -0.00000489
I       10.07584977      14.92185980       4.00525007       65       0.00017367      -0.00018149       0.00021749
I        5.48933555      11.15744568       4.95293387       66       0.00012541      -0.00029752       0.00006175
I        7.26848923      14.08671888      -1.03512606       67      -0.00003017       0.00010568       0.00006075
I        1.63263125      16.17561988      -0.96818781       68       0.00000326       0.00000119      -0.00008891
I       11.12532358       9.06836314       4.88615352       69       0.00003214       0.00009922      -0.00000232
Cs       9.02419978      12.00224925       6.36937379       70      -0.00003155       0.00025611      -0.00027984
Cs       4.98766814      16.08383651      14.93025026       71      -0.00006914      -0.00000069       0.00015236
K        4.72154363      10.07677761      11.46369727       72       0.00024207      -0.00006383      -0.00009090
In       4.40840105       9.36621481       7.11822599       73       0.00022859       0.00026520      -0.00045622
I        3.30910884      11.74331828       8.60330945       74      -0.00017389       0.00022270       0.00013220
I       10.70283003      16.34290797      12.69615656       75       0.00011842      -0.00019753       0.00021485
I        6.11624878      12.57844324      13.64386698       76       0.00023651      -0.00017676      -0.00025289
I        7.89541391      15.50772091       7.65579312       77       0.00007748       0.00035521      -0.00020456
I        2.25957126      17.59664280       7.72268445       78      -0.00001353       0.00000480      -0.00018322
I       11.75221104      10.48936700      13.57697961       79       0.00005120       0.00017350       0.00008031
