10
Lattice="8.074594401592513 0.0 0.0 4.037297200830238 6.9928038770152545 0.0 4.037297200895514 2.330934625722423 6.592878902244361" Properties=species:S:1:pos:R:3 pbc="T T T"
Cs       4.03711477       2.33087993       1.64822927
Cs      12.11207362       6.99285719       4.94464874
K        8.07459404       4.66186845       3.29643887
In       0.00000025       0.00000112       0.00000046
I        7.72611314       0.85126325       1.92283664
I        8.42307505       8.47247265       4.67004111
I       11.69849905       4.72950476       1.53201716
I        4.45068709       4.59423103       5.06086040
I        5.91451522       5.90968880       1.53205536
I       10.23467442       3.41405155       5.06082436
