10
Lattice="8.722896501087218 -0.27343803063154093 -0.18234011282701282 4.126103276897938 7.672092357555927 -0.17401404211744398 4.132819473086471 2.382816793868547 7.382098293117063" Properties=species:S:1:pos:R:3:spacegroup_kinds:I:1:forces:R:3 spacegroup="P 1" unit_cell=conventional occupancy="_JSON {\"0\": {\"Cs\": 1.0}, \"1\": {\"Cs\": 1.0}, \"2\": {\"K\": 1.0}, \"3\": {\"In\": 1.0}, \"4\": {\"I\": 1.0}, \"5\": {\"I\": 1.0}, \"6\": {\"I\": 1.0}, \"7\": {\"I\": 1.0}, \"8\": {\"I\": 1.0}, \"9\": {\"I\": 1.0}}" energy=-25.648944289234677 free_energy=-25.648944289234677 stress="-1.9307212952150725e-06 3.907587322189239e-06 -1.6018233367635394e-07 3.907587322189239e-06 -4.1588140734912855e-06 -4.783477580388018e-06 -1.6018233367635394e-07 -4.783477580388018e-06 4.481148672145506e-07" pbc="T T T"
Cs       4.10252730       2.34619818       1.68219317        0      -0.00027619      -0.00017934       0.00005825
Cs      12.87983733       7.43427144       5.34316219        1       0.00019534       0.00070071       0.00001631
K        8.49162811       4.89173150       3.51321817        2      -0.00037233      -0.00045104      -0.00030804
In       8.72287907      -0.27323845      -0.18217455        3      -0.00002923      -0.00015303      -0.00008346
I        8.75702114       1.66549068       2.08072220        4       0.00037114      -0.00018244       0.00065942
I        8.22266522       8.11710782       4.94440121        5       0.00064695      -0.00037116      -0.00001237
I        2.38756678       5.86647130       1.42416056        6      -0.00063014       0.00024105      -0.00000274
I       14.59556560       3.91433578       5.60230265        7      -0.00028374       0.00013129      -0.00033860
I        6.52764394       6.30880910       0.93619668        8       0.00033161       0.00004880      -0.00000710
I       10.45374566       3.47199973       6.08932330        9       0.00004660       0.00021517       0.00001832
