20
Lattice="18.40620193099518 0.31705436430528644 0.3830582243677057 -4.556368794135234 8.831426588610725 0.21791262199148856 0.1854144398587934 3.884766094425857 7.678015910964152" Properties=species:S:1:pos:R:3:spacegroup_kinds:I:1:forces:R:3 spacegroup="P 1" unit_cell=conventional occupancy="_JSON {\"0\": {\"Cs\": 1.0}, \"1\": {\"Cs\": 1.0}, \"2\": {\"K\": 1.0}, \"3\": {\"In\": 1.0}, \"4\": {\"I\": 1.0}, \"5\": {\"I\": 1.0}, \"6\": {\"I\": 1.0}, \"7\": {\"I\": 1.0}, \"8\": {\"I\": 1.0}, \"9\": {\"I\": 1.0}, \"10\": {\"Cs\": 1.0}, \"11\": {\"Cs\": 1.0}, \"12\": {\"K\": 1.0}, \"13\": {\"In\": 1.0}, \"14\": {\"I\": 1.0}, \"15\": {\"I\": 1.0}, \"16\": {\"I\": 1.0}, \"17\": {\"I\": 1.0}, \"18\": {\"I\": 1.0}, \"19\": {\"I\": 1.0}}" energy=-51.307041976573714 free_energy=-51.307041976573714 stress="1.8940244156731277e-06 1.0813842199640217e-06 3.0926938236063013e-06 1.0813842199640217e-06 2.3397536138250404e-06 7.904775023789099e-07 3.0926938236063013e-06 7.904775023789099e-07 1.0278947136579143e-06" pbc="T T T"
Cs       5.49681423       6.16397118       6.52156499        0       0.00028547      -0.00024480      -0.00016101
Cs       0.78825197       6.14190658       1.57541837        1       0.00054814      -0.00033702      -0.00028362
K       -3.73536623      10.48893921       4.06173674        2      -0.00073269       0.00028835       0.00011937
In      -3.83010170       8.54676129       0.22253961        3       0.00056451       0.00041875       0.00022597
I        2.89199957       9.45493078       1.92844074        4       0.00058966       0.00002613       0.00012820
I       -1.16312906      11.68206407       6.38645561        5       0.00032358       0.00011302       0.00000717
I        1.88418014       2.42801876       0.59688358        6      -0.00041951      -0.00012307      -0.00031667
I        4.40132196       9.87732248       7.50003294        7       0.00001859       0.00034688      -0.00001737
I        6.55647682       7.58696077       2.94376074        8      -0.00062675      -0.00008033       0.00013834
I       -0.27043388       4.71830714       5.15265482        9      -0.00056468      -0.00007712       0.00028016
Cs      14.69991043       6.32250795       6.71309632       10       0.00032752      -0.00030324      -0.00017488
Cs       9.99135751       6.30042457       1.76694564       11       0.00050640      -0.00027908      -0.00027035
K        5.46773367      10.64745989       4.25323602       12      -0.00074348       0.00031258       0.00031261
In       5.37299168       8.70539612       0.41414718       13       0.00060250      -0.00026701      -0.00021252
I       12.09508096       9.61346950       2.11998810       14       0.00072746      -0.00004073       0.00002573
I        8.03999248      11.84057943       6.57796563       15       0.00018319       0.00018075       0.00011115
I       11.08726447       2.58650156       0.78840439       16      -0.00029328       0.00017485      -0.00028778
I       13.60443919      10.03589273       7.69157001       17      -0.00010716       0.00005052      -0.00004613
I       -2.64662246       7.42843215       2.75223137       18      -0.00064825      -0.00006630       0.00013530
I        8.93266481       4.87683638       5.34418324       19      -0.00054125      -0.00009313       0.00028632
