40
Lattice="17.965748679164793 0.17562990293594702 3.8295336026406193 8.593816663702247 14.892680386126838 2.7969384984300785 2.8509501337340697 2.3862185762025594 8.43246012467357" Properties=species:S:1:pos:R:3:spacegroup_kinds:I:1:forces:R:3 spacegroup="P 1" unit_cell=conventional occupancy="_JSON {\"0\": {\"Cs\": 1.0}, \"1\": {\"Cs\": 1.0}, \"2\": {\"K\": 1.0}, \"3\": {\"In\": 1.0}, \"4\": {\"I\": 1.0}, \"5\": {\"I\": 1.0}, \"6\": {\"I\": 1.0}, \"7\": {\"I\": 1.0}, \"8\": {\"I\": 1.0}, \"9\": {\"I\": 1.0}, \"10\": {\"Cs\": 1.0}, \"11\": {\"Cs\": 1.0}, \"12\": {\"K\": 1.0}, \"13\": {\"In\": 1.0}, \"14\": {\"I\": 1.0}, \"15\": {\"I\": 1.0}, \"16\": {\"I\": 1.0}, \"17\": {\"I\": 1.0}, \"18\": {\"I\": 1.0}, \"19\": {\"I\": 1.0}, \"20\": {\"Cs\": 1.0}, \"21\": {\"Cs\": 1.0}, \"22\": {\"K\": 1.0}, \"23\": {\"In\": 1.0}, \"24\": {\"I\": 1.0}, \"25\": {\"I\": 1.0}, \"26\": {\"I\": 1.0}, \"27\": {\"I\": 1.0}, \"28\": {\"I\": 1.0}, \"29\": {\"I\": 1.0}, \"30\": {\"Cs\": 1.0}, \"31\": {\"Cs\": 1.0}, \"32\": {\"K\": 1.0}, \"33\": {\"In\": 1.0}, \"34\": {\"I\": 1.0}, \"35\": {\"I\": 1.0}, \"36\": {\"I\": 1.0}, \"37\": {\"I\": 1.0}, \"38\": {\"I\": 1.0}, \"39\": {\"I\": 1.0}}" energy=-102.59577305538949 free_energy=-102.59577305538949 stress="1.7003329499430094e-06 -3.3956535195845294e-06 2.3627771131886664e-06 -3.3956535195845294e-06 3.126119359124492e-06 -2.582082207694103e-06 2.3627771131886664e-06 -2.582082207694103e-06 -8.722156294896544e-06" pbc="T T T"
Cs       4.05421487       2.65918299       2.87141845        0       0.00010269      -0.00011881       0.00035875
Cs      12.07414366       7.26137336       8.87554835        1       0.00003255       0.00015775       0.00010332
K        8.06611166       4.95981709       5.87351382        2      -0.00001299      -0.00011193      -0.00025602
In      17.96562119       0.17550570       3.82947571        3       0.00003725       0.00003810      -0.00002846
I        4.92743119       3.49751951       6.60754626        4      -0.00000155       0.00003513      -0.00007843
I       11.20460928       6.42151855       5.13916227        5       0.00031348       0.00010571      -0.00022089
I        9.27734258       2.43661628       3.71234212        6       0.00013358       0.00030933      -0.00008191
I        6.85428912       7.48288425       8.03427028        7      -0.00012811      -0.00005953       0.00000551
I        6.42377600       6.03390772       2.93004374        8       0.00010678      -0.00005168       0.00006035
I        9.70526419       3.88638050       8.81852875        9       0.00005377      -0.00000745      -0.00043719
Cs       8.35192780      10.10331879       4.26952566       10      -0.00023248       0.00011645      -0.00007012
Cs      16.37135763      14.71091057      10.27525617       11       0.00005064      -0.00019480      -0.00011491
K       12.36314797      12.40601196       7.27156925       12      -0.00004300       0.00013221       0.00012920
In      22.26287547       7.62219114       5.22776747       13      -0.00001928       0.00012546      -0.00000706
I        9.22286684      10.94561371       8.00467686       14       0.00040085      -0.00028170       0.00017676
I       15.50338067      13.86641454       6.53901882       15      -0.00008864      -0.00030372       0.00018994
I       13.57511078       9.88364998       5.11015050       16      -0.00017258      -0.00003631       0.00023330
I       11.15050981      14.92863084       9.43334268       17       0.00013238       0.00034007      -0.00005414
I       10.71896781      13.47918139       4.32983404       18      -0.00009756       0.00001744      -0.00007677
I       14.00419314      11.33476194      10.21552146       19      -0.00027849      -0.00004333       0.00024565
Cs      13.03948705       2.74468710       4.78333459       20       0.00010018      -0.00010143       0.00031335
Cs      21.05821979       7.35056945      10.78995619       21       0.00033092       0.00010416      -0.00014357
K       17.04741553       5.04840934       7.78736233       22      -0.00004826      -0.00002169      -0.00019510
In       8.98287260       0.08730278       1.91510313       23       0.00009155      -0.00002790       0.00012920
I       13.90741233       3.58710968       8.52056065       24      -0.00004874       0.00030631      -0.00026163
I       20.18763500       6.50966555       7.05375920       25      -0.00015205       0.00027407      -0.00017899
I       18.25958032       2.52577380       5.62577421       26      -0.00020479      -0.00027578      -0.00010111
I       15.83583425       7.57135196       9.94826413       27      -0.00016361       0.00012109       0.00019501
I       15.40623332       6.12040106       4.84371313       28       0.00022497      -0.00018638      -0.00024299
I       18.69143471       3.97557398      10.72889592       29       0.00008840      -0.00011436       0.00008810
Cs      17.33674427      10.19143528       6.18367655       30      -0.00006261       0.00004637      -0.00006017
Cs      25.35544627      14.79683538      12.18685818       31       0.00018092      -0.00013777      -0.00020208
K       21.34441924      12.49409402       9.18563276       32       0.00001438       0.00023233       0.00013105
In      13.27969221       7.53440288       3.31320901       33       0.00002574       0.00001075      -0.00008468
I       18.20565138      11.03311904       9.91966325       34       0.00002595       0.00003857       0.00005405
I       24.48256863      13.95740465       8.45110051       35       0.00005916      -0.00026478       0.00019148
I       22.55670898       9.97229128       7.02369480       36      -0.00012441      -0.00011203       0.00028339
I       20.13349158      15.01688109      11.34754062       37      -0.00034471      -0.00004402      -0.00014192
I       19.70515475      13.56737753       6.24128070       38       0.00001850       0.00005528       0.00011897
I       22.98719107      11.42100397      12.12842029       39      -0.00030079      -0.00007121       0.00003078
