20
Lattice="14.051532812977676 0.0 0.0 0.0 14.051532812977674 0.0 0.0 0.0 7.025766406488837" Properties=species:S:1:pos:R:3:oxi_states:R:1 pbc="T T T"
Cs       3.51307163       3.51269477       3.51288320       1.00000000
Pb      -0.00000000      -0.00000000       0.00000000       2.00000000
I        0.00000000      -0.00000000       3.51288320      -1.00000000
I        3.51288320       0.00000000      -0.00000000      -1.00000000
I       -0.00000000       3.51288320       0.00000000      -1.00000000
Cs       3.51307163      10.53846118       3.51288320       1.00000000
Pb      -0.00000000       7.02576641       0.00000000       2.00000000
I        0.00000000       7.02576641       3.51288320      -1.00000000
I        3.51288320       7.02576641      -0.00000000      -1.00000000
I       -0.00000000      10.53864961       0.00000000      -1.00000000
Cs      10.53883804       3.51269477       3.51288320       1.00000000
Pb       7.02576641      -0.00000000       0.00000000       2.00000000
I        7.02576641      -0.00000000       3.51288320      -1.00000000
I       10.53864961       0.00000000      -0.00000000      -1.00000000
I        7.02576641       3.51288320       0.00000000      -1.00000000
Cs      10.53883804      10.53846118       3.51288320       1.00000000
Pb       7.02576641       7.02576641       0.00000000       2.00000000
I        7.02576641       7.02576641       3.51288320      -1.00000000
I       10.53864961       7.02576641      -0.00000000      -1.00000000
I        7.02576641      10.53864961       0.00000000      -1.00000000
