20
Lattice="12.77403764584435 -2.9175720697943077e-09 1.8584655066657946e-16 -2.917572069758101e-09 12.77403764584447 -2.9626634183731804e-16 9.275297509509788e-17 -1.4814483328858458e-16 6.387018822163354" Properties=species:S:1:pos:R:3:spacegroup_kinds:I:1:forces:R:3 spacegroup="P 1" unit_cell=conventional occupancy="_JSON {\"0\": {\"Cs\": 1.0}, \"1\": {\"Pb\": 1.0}, \"2\": {\"I\": 1.0}, \"3\": {\"I\": 1.0}, \"4\": {\"I\": 1.0}, \"5\": {\"Cs\": 1.0}, \"6\": {\"Pb\": 1.0}, \"7\": {\"I\": 1.0}, \"8\": {\"I\": 1.0}, \"9\": {\"I\": 1.0}, \"10\": {\"Cs\": 1.0}, \"11\": {\"Pb\": 1.0}, \"12\": {\"I\": 1.0}, \"13\": {\"I\": 1.0}, \"14\": {\"I\": 1.0}, \"15\": {\"Cs\": 1.0}, \"16\": {\"Pb\": 1.0}, \"17\": {\"I\": 1.0}, \"18\": {\"I\": 1.0}, \"19\": {\"I\": 1.0}}" energy=-55.92296969518885 free_energy=-55.92296969518885 stress="-2.1233345759373536e-06 -2.9145645457890045e-11 -1.066034397141956e-18 -2.9145645457890045e-11 -2.1233345804928374e-06 -1.730408642373018e-18 -1.066034397141956e-18 -1.730408642373018e-18 -2.123196217118118e-06" pbc="T T T"
Cs       3.19373452       3.19328430       3.19350941        0       0.00001614      -0.00001614      -0.00000000
Pb       0.00000591      -0.00000591      -0.00000000        1       0.00003401      -0.00003401      -0.00000000
I       -0.00004426       0.00004426       3.19350941        2      -0.00000018       0.00000018       0.00000000
I        3.19353821       0.00004426       0.00000000        3      -0.00004979       0.00000018      -0.00000000
I       -0.00004426       3.19348062       0.00000000        4      -0.00000018       0.00004979      -0.00000000
Cs       3.19373452       9.58030312       3.19350941        5       0.00001614      -0.00001614      -0.00000000
Pb       0.00000591       6.38701292      -0.00000000        6       0.00003401      -0.00003401      -0.00000000
I       -0.00004426       6.38706308       3.19350941        7      -0.00000018       0.00000018       0.00000000
I        3.19353820       6.38706308       0.00000000        8      -0.00004979       0.00000018      -0.00000000
I       -0.00004426       9.58049944       0.00000000        9      -0.00000018       0.00004979      -0.00000000
Cs       9.58075334       3.19328430       3.19350941       10       0.00001614      -0.00001614      -0.00000000
Pb       6.38702473      -0.00000591      -0.00000000       11       0.00003401      -0.00003401      -0.00000000
I        6.38697457       0.00004426       3.19350941       12      -0.00000018       0.00000018       0.00000000
I        9.58055703       0.00004426       0.00000000       13      -0.00004979       0.00000018      -0.00000000
I        6.38697456       3.19348061       0.00000000       14      -0.00000018       0.00004979      -0.00000000
Cs       9.58075334       9.58030312       3.19350941       15       0.00001614      -0.00001614      -0.00000000
Pb       6.38702473       6.38701291      -0.00000000       16       0.00003401      -0.00003401      -0.00000000
I        6.38697456       6.38706308       3.19350941       17      -0.00000018       0.00000018       0.00000000
I        9.58055703       6.38706308       0.00000000       18      -0.00004979       0.00000018      -0.00000000
I        6.38697456       9.58049944       0.00000000       19      -0.00000018       0.00004979      -0.00000000
