40
Lattice="18.578468545929876 0.6779578163045044 -0.06946092958738603 -9.880108817275145 15.668255587540774 -1.685358220359565 0.005581594063126527 0.9411288342030436 8.778729109456613" Properties=species:S:1:pos:R:3:spacegroup_kinds:I:1:forces:R:3 spacegroup="P 1" unit_cell=conventional occupancy="_JSON {\"0\": {\"Cs\": 1.0}, \"1\": {\"Cs\": 1.0}, \"2\": {\"K\": 1.0}, \"3\": {\"In\": 1.0}, \"4\": {\"I\": 1.0}, \"5\": {\"I\": 1.0}, \"6\": {\"I\": 1.0}, \"7\": {\"I\": 1.0}, \"8\": {\"I\": 1.0}, \"9\": {\"I\": 1.0}, \"10\": {\"Cs\": 1.0}, \"11\": {\"Cs\": 1.0}, \"12\": {\"K\": 1.0}, \"13\": {\"In\": 1.0}, \"14\": {\"I\": 1.0}, \"15\": {\"I\": 1.0}, \"16\": {\"I\": 1.0}, \"17\": {\"I\": 1.0}, \"18\": {\"I\": 1.0}, \"19\": {\"I\": 1.0}, \"20\": {\"Cs\": 1.0}, \"21\": {\"Cs\": 1.0}, \"22\": {\"K\": 1.0}, \"23\": {\"In\": 1.0}, \"24\": {\"I\": 1.0}, \"25\": {\"I\": 1.0}, \"26\": {\"I\": 1.0}, \"27\": {\"I\": 1.0}, \"28\": {\"I\": 1.0}, \"29\": {\"I\": 1.0}, \"30\": {\"Cs\": 1.0}, \"31\": {\"Cs\": 1.0}, \"32\": {\"K\": 1.0}, \"33\": {\"In\": 1.0}, \"34\": {\"I\": 1.0}, \"35\": {\"I\": 1.0}, \"36\": {\"I\": 1.0}, \"37\": {\"I\": 1.0}, \"38\": {\"I\": 1.0}, \"39\": {\"I\": 1.0}}" energy=-103.17524825875132 free_energy=-103.17524825875132 stress="-9.872150756491239e-06 7.237672060340628e-07 8.42831648757087e-06 7.237672060340628e-07 3.956734395762684e-06 -2.5936260941656886e-06 8.42831648757087e-06 -2.5936260941656886e-06 2.616011517827129e-06" pbc="T T T"
Cs       2.86158155       3.74882308      -0.42872486        0       0.00008712      -0.00014996       0.00008286
Cs      -1.87612442       7.19154184       8.13316383        1      -0.00010486       0.00005382      -0.00004072
K       -1.68191973       1.38347897       4.29113441        2       0.00002949       0.00003734      -0.00029654
In      16.89384266       1.59100149      -0.16788736        3       0.00005131       0.00000025       0.00021353
I       15.58464840       3.82431240       1.36932851        4      -0.00005407      -0.00007247       0.00003050
I        3.97936606       7.79390874       6.26567810        5       0.00000724       0.00012275       0.00010258
I       -0.55364654       3.81587808       6.69277210        6       0.00000172      -0.00000226       0.00004246
I        1.53898669       7.12446085       1.01166597        7       0.00015725      -0.00006683       0.00005842
I       -4.18831111       9.04133784       0.80328090        8      -0.00008437      -0.00012352       0.00000990
I        5.17377739       1.89888191       6.90127737        9       0.00005917       0.00020213      -0.00001974
Cs      -2.07847461      11.58295043      -1.27140368       10       0.00009814      -0.00015057       0.00008213
Cs      -6.81617783      15.02566966       7.29048392       11      -0.00010948       0.00005503      -0.00003513
K       -6.62197331       9.21760823       3.44845504       12       0.00002560       0.00002733      -0.00030067
In      11.95379537       9.42514017      -1.01057364       13       0.00001561      -0.00006667       0.00025517
I       10.64459490      11.65843879       0.52664907       14      -0.00005804      -0.00006357       0.00003226
I       -0.96068745      15.62803584       5.42299729       15       0.00000182       0.00012873       0.00011024
I       -5.49370349      11.65000158       5.85009873       16       0.00001507       0.00002353       0.00001314
I       -3.40106792      14.95858760       0.16898769       17       0.00015584      -0.00006187       0.00005474
I        0.75174458       1.20721019       1.64596159       18      -0.00008852      -0.00012606       0.00000345
I        0.23371479       9.73300920       6.05859284       19       0.00010428       0.00020678       0.00001048
Cs      12.15081766       4.08779758      -0.46345416       20       0.00007806      -0.00010984       0.00008701
Cs       7.41310771       7.53052429       8.09843022       21      -0.00009016       0.00001471      -0.00003813
K        7.60732180       1.72246192       4.25638463       22      -0.00000844       0.00004684      -0.00019168
In       7.60464866       1.25202284      -0.13307781       23      -0.00018718      -0.00003343      -0.00024880
I        6.29541664       3.48532746       1.40405056       24      -0.00007137      -0.00002264       0.00006651
I       13.26859837       8.13289286       6.23095509       25       0.00001860       0.00008459       0.00007420
I        8.73558790       4.15486018       6.65803455       26      -0.00001444      -0.00004013       0.00009489
I       10.82821609       7.46342854       0.97695238       27       0.00018927       0.00000723      -0.00003339
I        5.10089011       9.38031602       0.76852911       28       0.00012563      -0.00010552       0.00014691
I       14.46304106       2.23786078       6.86656626       29      -0.00011588       0.00018677      -0.00013667
Cs       7.21076230      11.92192544      -1.30613252       30       0.00008270      -0.00011116       0.00008167
Cs       2.47305499      15.36465239       7.25575123       31      -0.00010108       0.00001565      -0.00003770
K        2.66726966       9.55658978       3.41370300       32      -0.00002193       0.00004978      -0.00017755
In       2.66461083       9.08614833      -0.97574724       33      -0.00028384      -0.00002274      -0.00030715
I        1.35536160      11.31945576       0.56137289       34      -0.00006656      -0.00002789       0.00005977
I        8.32854310      15.96702215       5.38827633       35       0.00002243       0.00007578       0.00007254
I        3.79553313      11.98898830       5.81535557       36      -0.00001178      -0.00004317       0.00009645
I        5.88816409      15.29756043       0.13426780       37       0.00017629      -0.00001806      -0.00000476
I       10.04095205       1.54618861       1.61121299       38       0.00008154      -0.00011007       0.00011761
I        9.52298551      10.07198841       6.02388571       39      -0.00011219       0.00018940      -0.00013078
