40
Lattice="18.338332880939813 -2.9560002243287724 0.9029374012867347 -6.770727288386663 17.175942850623482 2.2345993107603572 -0.6517996460178259 -1.3883241850823003 8.694621151450644" Properties=species:S:1:pos:R:3:spacegroup_kinds:I:1:forces:R:3 spacegroup="P 1" unit_cell=conventional occupancy="_JSON {\"0\": {\"Cs\": 1.0}, \"1\": {\"Cs\": 1.0}, \"2\": {\"K\": 1.0}, \"3\": {\"In\": 1.0}, \"4\": {\"I\": 1.0}, \"5\": {\"I\": 1.0}, \"6\": {\"I\": 1.0}, \"7\": {\"I\": 1.0}, \"8\": {\"I\": 1.0}, \"9\": {\"I\": 1.0}, \"10\": {\"Cs\": 1.0}, \"11\": {\"Cs\": 1.0}, \"12\": {\"K\": 1.0}, \"13\": {\"In\": 1.0}, \"14\": {\"I\": 1.0}, \"15\": {\"I\": 1.0}, \"16\": {\"I\": 1.0}, \"17\": {\"I\": 1.0}, \"18\": {\"I\": 1.0}, \"19\": {\"I\": 1.0}, \"20\": {\"Cs\": 1.0}, \"21\": {\"Cs\": 1.0}, \"22\": {\"K\": 1.0}, \"23\": {\"In\": 1.0}, \"24\": {\"I\": 1.0}, \"25\": {\"I\": 1.0}, \"26\": {\"I\": 1.0}, \"27\": {\"I\": 1.0}, \"28\": {\"I\": 1.0}, \"29\": {\"I\": 1.0}, \"30\": {\"Cs\": 1.0}, \"31\": {\"Cs\": 1.0}, \"32\": {\"K\": 1.0}, \"33\": {\"In\": 1.0}, \"34\": {\"I\": 1.0}, \"35\": {\"I\": 1.0}, \"36\": {\"I\": 1.0}, \"37\": {\"I\": 1.0}, \"38\": {\"I\": 1.0}, \"39\": {\"I\": 1.0}}" energy=-103.17526025509673 free_energy=-103.17526025509673 stress="-2.0083466330916169e-07 1.3685281331697816e-08 1.4946320844384047e-08 1.3685281331697816e-08 -3.0322211724140597e-07 -4.894939360640385e-07 1.4946320844384047e-08 -4.894939360640385e-07 1.5729096488491671e-06" pbc="T T T"
Cs       0.84365007       4.10183601       9.71681026        0      -0.00001062      -0.00004939      -0.00020086
Cs       5.03300284       0.75681914       9.42999973        1       0.00027487      -0.00011149       0.00004317
K        0.37236097      -0.43159790       4.44172360        2       0.00008951       0.00002226      -0.00023868
In       0.69827434       0.26269406       0.09423672        3       0.00019215      -0.00042409      -0.00011939
I        2.10084721       1.83579942       2.24412950        4      -0.00008194       0.00037510       0.00052417
I        4.42787232       4.41090237       8.20774128        5      -0.00010587      -0.00007232      -0.00018065
I        2.57804316      -1.25605704       7.16426982        6       0.00002663       0.00003521      -0.00018884
I        7.33588837      -1.08521142       2.17039073        7       0.00045294       0.00004045      -0.00015799
I       -1.94905330       6.31363570       2.65551540        8      -0.00033960       0.00030980      -0.00011802
I       -0.69118894       1.41122035       7.34501788        9      -0.00012466       0.00020823      -0.00009671
Cs      -2.54169535      12.68958895      10.83395276       10      -0.00008745       0.00013659      -0.00007829
Cs       1.64794005       9.34476321      10.54741033       11      -0.00021435       0.00002535      -0.00000292
K       -3.01294236       8.15650077       5.55891602       12       0.00008028      -0.00016333      -0.00002871
In      -2.68710764       8.85061904       1.21161159       13       0.00029808      -0.00044844      -0.00028177
I       -1.28475221      10.42403353       3.36175084       14       0.00014364      -0.00005366      -0.00021333
I        1.04238993      12.99879576       9.32481460       15       0.00016208       0.00003780       0.00013745
I       -0.80730162       7.33203884       8.28158353       16      -0.00009540       0.00000922       0.00013969
I        3.95047149       7.50302289       3.28772523       17       0.00011093      -0.00014487       0.00013845
I       -5.33460943      14.90170721       3.77276185       18      -0.00001487      -0.00014629       0.00002820
I       -4.07648997       9.99910997       8.46220632       19      -0.00031716       0.00010224       0.00016887
Cs      10.01272219       2.62373416      10.16815148       20       0.00008719       0.00000789      -0.00012921
Cs      14.20229310      -0.72122954       9.88145885       21       0.00012970       0.00004504       0.00008737
K        9.54160645      -1.90963909       4.89320604       22      -0.00004260       0.00013155      -0.00038923
In       9.86749853      -1.21542501       0.54555926       23      -0.00023961       0.00009350       0.00066128
I       11.27005652       0.35797092       2.69579573       24      -0.00036196      -0.00021358      -0.00027799
I       13.59707318       2.93275056       8.65886546       25       0.00006983       0.00023220       0.00063563
I       11.74721026      -2.73404706       7.61560422       26      -0.00000812      -0.00000128       0.00009110
I       16.50515148      -2.56325911       2.62174597       27      -0.00015588       0.00013525       0.00028661
I        7.21970303       4.83581055       3.10698635       28       0.00021960      -0.00046311       0.00014875
I        8.47781323      -0.06671569       7.79648268       29       0.00005219      -0.00023703       0.00002838
Cs       6.62745414      11.21157086      11.28546985       30      -0.00011481       0.00012515      -0.00021924
Cs      10.81704467       7.86673401      10.99885570       31       0.00006039       0.00003592      -0.00005818
K        6.15620249       6.67856657       6.01020933       32      -0.00015933      -0.00012459       0.00032606
In       6.48213877       7.37258035       1.66314138       33      -0.00050621       0.00003378      -0.00064394
I        7.88447241       8.94587302       3.81296111       34       0.00036610       0.00041110       0.00046413
I       10.21165311      11.52092414       9.77638357       35      -0.00009685      -0.00026598      -0.00007827
I        8.36170266       5.85399030       8.73298014       36       0.00032298       0.00002167      -0.00001083
I       13.11977152       6.02486818       3.73922147       37      -0.00003554      -0.00014355      -0.00017051
I        3.83456494      13.42358585       4.22419792       38      -0.00002460       0.00027520      -0.00002680
I        5.09247996       8.52106942       8.91372336       39      -0.00000163       0.00021251       0.00000108
