80
Lattice="21.43964916017624 0.0 0.0 -10.727611361442872 18.580767921872198 0.0 0.0 3.453186408702518 16.523389595830555" Properties=species:S:1:pos:R:3 pbc="T T T"
Cs       5.15580025       3.19219421       0.02629766
Cs      -0.20540983       8.00458639       8.23537849
K       -0.20281081       0.95320114       4.13084750
In      -0.20281544       0.08990383       0.00000779
I       -1.59118287       2.88155598       1.65268900
I        6.54157125       8.31523940       6.60900937
I        1.21947829       3.89657234       6.60901339
I        3.73090934       7.30019741       1.65269301
I       -2.75595722       9.70489610       1.65268934
I        7.70634996       1.49188488       6.60900972
Cs       5.15580025       4.91878741       8.28799246
Cs      -0.20540983       9.73117959      16.49707329
K       -0.20281081       2.67979434      12.39254230
In      -0.20281544       1.81649703       8.26170258
I       -1.59118287       4.60814918       9.91438379
I        6.54157125      10.04183260      14.87070417
I        1.21947829       5.62316555      14.87070818
I        3.73090934       9.02679062       9.91438781
I       -2.75595722      11.43148931       9.91438414
I        7.70634996       3.21847809      14.87070452
Cs      -0.20800543      12.48257817       0.02629766
Cs      -5.56921551      17.29497035       8.23537849
K       -5.56661649      10.24358510       4.13084750
In      -5.56662112       9.38028779       0.00000779
I       -6.95498855      12.17193994       1.65268900
I        1.17776557      17.60562336       6.60900937
I       -4.14432739      13.18695630       6.60901339
I       -1.63289635      16.59058138       1.65269301
I       -8.11976290      18.99528007       1.65268934
I        2.34254428      10.78226885       6.60900972
Cs      -0.20800543      14.20917137       8.28799246
Cs      -5.56921551      19.02156355      16.49707329
K       -5.56661649      11.97017830      12.39254230
In      -5.56662112      11.10688100       8.26170258
I       -6.95498855      13.89853314       9.91438379
I        1.17776557      19.33221656      14.87070417
I       -4.14432739      14.91354951      14.87070818
I       -1.63289635      18.31717458       9.91438781
I       -8.11976290      20.72187327       9.91438414
I        2.34254428      12.50886205      14.87070452
Cs      15.87562483       3.19219421       0.02629766
Cs      10.51441475       8.00458639       8.23537849
K       10.51701377       0.95320114       4.13084750
In      10.51700914       0.08990383       0.00000779
I        9.12864171       2.88155598       1.65268900
I       17.26139583       8.31523940       6.60900937
I       11.93930287       3.89657234       6.60901339
I       14.45073392       7.30019741       1.65269301
I        7.96386736       9.70489610       1.65268934
I       18.42617454       1.49188488       6.60900972
Cs      15.87562483       4.91878741       8.28799246
Cs      10.51441475       9.73117959      16.49707329
K       10.51701377       2.67979434      12.39254230
In      10.51700914       1.81649703       8.26170258
I        9.12864171       4.60814918       9.91438379
I       17.26139583      10.04183260      14.87070417
I       11.93930287       5.62316555      14.87070818
I       14.45073392       9.02679062       9.91438781
I        7.96386736      11.43148931       9.91438414
I       18.42617454       3.21847809      14.87070452
Cs      10.51181915      12.48257817       0.02629766
Cs       5.15060907      17.29497035       8.23537849
K        5.15320809      10.24358510       4.13084750
In       5.15320346       9.38028779       0.00000779
I        3.76483603      12.17193994       1.65268900
I       11.89759015      17.60562336       6.60900937
I        6.57549719      13.18695630       6.60901339
I        9.08692823      16.59058138       1.65269301
I        2.60006168      18.99528007       1.65268934
I       13.06236886      10.78226885       6.60900972
Cs      10.51181915      14.20917137       8.28799246
Cs       5.15060907      19.02156355      16.49707329
K        5.15320809      11.97017830      12.39254230
In       5.15320346      11.10688100       8.26170258
I        3.76483603      13.89853314       9.91438379
I       11.89759015      19.33221656      14.87070417
I        6.57549719      14.91354951      14.87070818
I        9.08692823      18.31717458       9.91438781
I        2.60006168      20.72187327       9.91438414
I       13.06236886      12.50886205      14.87070452
