80
Lattice="18.595076827326984 0.012383281244659322 0.001697692976600275 -9.308876258075152 16.02227385090636 -1.5980572227654166 0.004355483435065542 1.7506857454387506 17.570443503956685" Properties=species:S:1:pos:R:3:spacegroup_kinds:I:1:forces:R:3 spacegroup="P 1" unit_cell=conventional occupancy="_JSON {\"0\": {\"Cs\": 1.0}, \"1\": {\"Cs\": 1.0}, \"2\": {\"K\": 1.0}, \"3\": {\"In\": 1.0}, \"4\": {\"I\": 1.0}, \"5\": {\"I\": 1.0}, \"6\": {\"I\": 1.0}, \"7\": {\"I\": 1.0}, \"8\": {\"I\": 1.0}, \"9\": {\"I\": 1.0}, \"10\": {\"Cs\": 1.0}, \"11\": {\"Cs\": 1.0}, \"12\": {\"K\": 1.0}, \"13\": {\"In\": 1.0}, \"14\": {\"I\": 1.0}, \"15\": {\"I\": 1.0}, \"16\": {\"I\": 1.0}, \"17\": {\"I\": 1.0}, \"18\": {\"I\": 1.0}, \"19\": {\"I\": 1.0}, \"20\": {\"Cs\": 1.0}, \"21\": {\"Cs\": 1.0}, \"22\": {\"K\": 1.0}, \"23\": {\"In\": 1.0}, \"24\": {\"I\": 1.0}, \"25\": {\"I\": 1.0}, \"26\": {\"I\": 1.0}, \"27\": {\"I\": 1.0}, \"28\": {\"I\": 1.0}, \"29\": {\"I\": 1.0}, \"30\": {\"Cs\": 1.0}, \"31\": {\"Cs\": 1.0}, \"32\": {\"K\": 1.0}, \"33\": {\"In\": 1.0}, \"34\": {\"I\": 1.0}, \"35\": {\"I\": 1.0}, \"36\": {\"I\": 1.0}, \"37\": {\"I\": 1.0}, \"38\": {\"I\": 1.0}, \"39\": {\"I\": 1.0}, \"40\": {\"Cs\": 1.0}, \"41\": {\"Cs\": 1.0}, \"42\": {\"K\": 1.0}, \"43\": {\"In\": 1.0}, \"44\": {\"I\": 1.0}, \"45\": {\"I\": 1.0}, \"46\": {\"I\": 1.0}, \"47\": {\"I\": 1.0}, \"48\": {\"I\": 1.0}, \"49\": {\"I\": 1.0}, \"50\": {\"Cs\": 1.0}, \"51\": {\"Cs\": 1.0}, \"52\": {\"K\": 1.0}, \"53\": {\"In\": 1.0}, \"54\": {\"I\": 1.0}, \"55\": {\"I\": 1.0}, \"56\": {\"I\": 1.0}, \"57\": {\"I\": 1.0}, \"58\": {\"I\": 1.0}, \"59\": {\"I\": 1.0}, \"60\": {\"Cs\": 1.0}, \"61\": {\"Cs\": 1.0}, \"62\": {\"K\": 1.0}, \"63\": {\"In\": 1.0}, \"64\": {\"I\": 1.0}, \"65\": {\"I\": 1.0}, \"66\": {\"I\": 1.0}, \"67\": {\"I\": 1.0}, \"68\": {\"I\": 1.0}, \"69\": {\"I\": 1.0}, \"70\": {\"Cs\": 1.0}, \"71\": {\"Cs\": 1.0}, \"72\": {\"K\": 1.0}, \"73\": {\"In\": 1.0}, \"74\": {\"I\": 1.0}, \"75\": {\"I\": 1.0}, \"76\": {\"I\": 1.0}, \"77\": {\"I\": 1.0}, \"78\": {\"I\": 1.0}, \"79\": {\"I\": 1.0}}" energy=-206.3505117690345 free_energy=-206.3505117690345 stress="-1.8709425541153552e-06 -5.754771478972942e-07 4.805014617888193e-06 -5.754771478972942e-07 2.6325926379031657e-06 -1.6201910257842516e-07 4.805014617888193e-06 -1.6201910257842516e-07 5.49414736101296e-07" pbc="T T T"
Cs       4.47103141       2.75566550      -0.24460872        0      -0.00004154      -0.00066600      -0.00031201
Cs      -0.17744404       6.29256343       8.21728802        1      -0.00013670      -0.00049702      -0.00031283
K       18.41984955       0.52870001       4.38652843        2       0.00023969      -0.00084130      -0.00021606
In      18.41926234       0.08961225      -0.00639510        3       0.00016048      -0.00091853       0.00035112
I       17.21457415       2.37401362       1.54117392        4      -0.00005026       0.00054065       0.00013265
I        5.67391871       6.68528365       6.43146476        5       0.00010179       0.00035248       0.00003159
I        1.05971432       2.87041899       6.81104478        6      -0.00013927       0.00005858       0.00066945
I        3.23394224       6.17702097       1.16025940        7       0.00000872       0.00011310       0.00038979
I       -2.39205590       8.24672406       0.95244023        8      -0.00026958       0.00043112      -0.00017412
I        6.68537738       0.80003260       7.01909454        9       0.00005454       0.00044037       0.00013585
Cs       4.47321514       3.63100240       8.54061779       10      -0.00008848      -0.00062809      -0.00035089
Cs      -0.17526651       7.16789086      17.00250763       11      -0.00014536      -0.00039727      -0.00026496
K       18.42202691       1.40404118      13.17174900       12       0.00024055      -0.00083580      -0.00020965
In      18.42139991       0.96466933       8.77890696       13       0.00046088       0.00083356      -0.00013676
I       17.21671290       3.24941486      10.32645704       14       0.00015937       0.00018119      -0.00009221
I        5.67607648       7.56065599      15.21672801       15       0.00022359       0.00013088      -0.00018267
I        1.06185732       3.74568867      15.59637511       16       0.00012735       0.00051341       0.00016049
I        3.23610076       7.05233014       9.94551284       17       0.00011592       0.00028327       0.00032860
I       -2.38987395       9.12206208       9.73764896       18      -0.00029176       0.00047329      -0.00010760
I        6.68754071       1.67537401      15.80429095       19       0.00013415       0.00046812       0.00023539
Cs      -0.18340303      10.76678913      -1.04363540       20      -0.00007030      -0.00058021      -0.00031606
Cs      -4.83188482      14.30369112       7.41825925       21      -0.00012493      -0.00044368      -0.00029518
K       13.76541253       8.53983008       3.58750882       22       0.00023231      -0.00080879      -0.00024561
In      13.76482749       8.10051418      -0.80542949       23       0.00016611       0.00057041       0.00037928
I       12.56009317      10.38521435       0.74221446       24       0.00019541       0.00011684      -0.00016620
I        1.01945889      14.69644833       5.63247412       25       0.00022917       0.00015520      -0.00014959
I       -3.59473910      10.88152572       6.01205058       26      -0.00001576       0.00026827       0.00048590
I       -1.42052192      14.18811109       0.36129052       27       0.00016488       0.00035389       0.00020119
I        2.26237345       0.23558324       1.75144182       28      -0.00024012       0.00047652      -0.00009314
I        2.03092054       8.81117009       6.22003318       29       0.00017486       0.00046202       0.00028454
Cs      -0.18122355      11.64214682       7.74158824       30      -0.00008014      -0.00067800      -0.00034328
Cs      -4.82970142      15.17904203      16.20347937       31      -0.00015700      -0.00048391      -0.00028411
K       13.76759041       9.41517294      12.37273301       32       0.00023181      -0.00080950      -0.00025172
In      13.76697579       8.97596640       7.97985712       33       0.00035412      -0.00015622      -0.00001452
I       12.56229676      11.26052068       9.52739326       34       0.00003470       0.00038471       0.00004612
I        1.02166725      15.57175197      14.41764922       35       0.00005260       0.00041961       0.00005549
I       -3.59255472      11.75688356      14.79726518       36      -0.00005603       0.00017948       0.00049802
I       -1.41832130      15.06349584       9.14645231       37       0.00002954       0.00014662       0.00040209
I        2.26456281       1.11092720      10.53668771       38      -0.00027264       0.00045368      -0.00012380
I        2.03313574       9.68651220      15.00531292       39      -0.00007821       0.00042024       0.00001122
Cs      13.76857330       2.76184790      -0.24375113       40      -0.00006045      -0.00060655      -0.00034378
Cs       9.12009995       6.29876332       8.21812960       41      -0.00017962      -0.00054617      -0.00028254
K        9.12232569       0.52251111       4.38567288       42       0.00014380      -0.00085913      -0.00018796
In       9.12182942       0.08336859      -0.00717252       43      -0.00052473      -0.00066174      -0.00006814
I        7.91701930       2.36783987       1.54034863       44       0.00003897       0.00043374       0.00005458
I       14.97146657       6.69147046       6.43230712       45       0.00004485       0.00037856       0.00005461
I       10.35722912       2.87656550       6.81196531       46       0.00003817       0.00033594       0.00034526
I       12.53148746       6.18322762       1.16108313       47      -0.00004267       0.00002280       0.00050218
I        6.90546462       8.25291848       0.95326269       48      -0.00015728       0.00043635      -0.00007119
I       15.98296534       0.80621629       7.02000688       49      -0.00024536       0.00043939      -0.00009813
Cs      13.77074349       3.63718344       8.54146899       50      -0.00001991      -0.00056489      -0.00034753
Cs       9.12227662       7.17409203      17.00335171       51      -0.00017342      -0.00045412      -0.00026093
K        9.12450324       1.39785332      13.17089361       52       0.00014417      -0.00085619      -0.00018302
In       9.12400163       0.95857263       8.77801906       53      -0.00047018       0.00020800       0.00011502
I        7.91917111       3.24321785      10.32561282       54       0.00019039       0.00020008      -0.00013255
I       14.97361519       7.56685443      15.21757169       55       0.00021919       0.00009088      -0.00016206
I       10.35939241       3.75188347      15.59721534       56       0.00013929       0.00048736       0.00022292
I       12.53365430       7.05854623       9.94632889       57       0.00001428       0.00014150       0.00044917
I        6.90760962       9.12826162       9.73842963       58       0.00007659       0.00047988       0.00018996
I       15.98512071       1.68155937      15.80519699       59      -0.00015766       0.00045808      -0.00003224
Cs       9.11413059      10.77297227      -1.04278273       60      -0.00004014      -0.00052834      -0.00031829
Cs       4.46566578      14.30989325       7.41910601       61      -0.00020598      -0.00050641      -0.00029914
K        4.46788557       8.53364324       3.58665064       62       0.00015703      -0.00083372      -0.00020698
In       4.46733848       8.09435506      -0.80627862       63      -0.00016156       0.00033604       0.00039457
I        3.26255448      10.37901526       0.74136936       64       0.00019911       0.00016175      -0.00017940
I       10.31699849      14.70264913       5.63332542       65       0.00020980       0.00011101      -0.00013936
I        5.70278195      10.88768761       6.01294066       66       0.00009654       0.00042906       0.00034217
I        7.87702109      14.19430339       0.36213937       67       0.00014527       0.00036509       0.00016962
I       11.55987372       0.24178007       1.75224238       68       0.00003531       0.00048549       0.00014418
I       11.32851179       8.81735387       6.22094695       69      -0.00018280       0.00045753      -0.00000002
Cs       9.11630821      11.64833127       7.74244437       70      -0.00003176      -0.00063508      -0.00037375
Cs       4.46783536      15.18524318      16.20431886       71      -0.00014820      -0.00054325      -0.00025124
K        4.47006318       9.40898585      12.37187369       72       0.00015723      -0.00083394      -0.00020986
In       4.46957971       8.96979732       7.97905466       73      -0.00058886      -0.00037004      -0.00027605
I        3.26474945      11.25433164       9.52655019       74       0.00008857       0.00036962       0.00003036
I       10.31921981      15.57792918      14.41848161       75      -0.00002834       0.00050800       0.00010728
I        5.70497531      11.76305704      14.79814496       76       0.00000228       0.00027996       0.00036922
I        7.87924605      15.06974413       9.14720813       77      -0.00017082      -0.00017042       0.00078787
I       11.56205754       1.11712588      10.53748300       78      -0.00000119       0.00045350       0.00007262
I       11.33069079       9.69270098      15.00618624       79      -0.00018437       0.00041716      -0.00008324
