40
Lattice="23.810651847115206 -0.12313178028641493 -0.5135006751645037 -14.738359561006105 14.641404579488162 -0.11918442190736088 -0.17264183572156877 3.9904421937017065 8.193096023973984" Properties=species:S:1:pos:R:3:spacegroup_kinds:I:1:forces:R:3 spacegroup="P 1" unit_cell=conventional occupancy="_JSON {\"0\": {\"Cs\": 1.0}, \"1\": {\"Cs\": 1.0}, \"2\": {\"K\": 1.0}, \"3\": {\"In\": 1.0}, \"4\": {\"I\": 1.0}, \"5\": {\"I\": 1.0}, \"6\": {\"I\": 1.0}, \"7\": {\"I\": 1.0}, \"8\": {\"I\": 1.0}, \"9\": {\"I\": 1.0}, \"10\": {\"Cs\": 1.0}, \"11\": {\"Cs\": 1.0}, \"12\": {\"K\": 1.0}, \"13\": {\"In\": 1.0}, \"14\": {\"I\": 1.0}, \"15\": {\"I\": 1.0}, \"16\": {\"I\": 1.0}, \"17\": {\"I\": 1.0}, \"18\": {\"I\": 1.0}, \"19\": {\"I\": 1.0}, \"20\": {\"Cs\": 1.0}, \"21\": {\"Cs\": 1.0}, \"22\": {\"K\": 1.0}, \"23\": {\"In\": 1.0}, \"24\": {\"I\": 1.0}, \"25\": {\"I\": 1.0}, \"26\": {\"I\": 1.0}, \"27\": {\"I\": 1.0}, \"28\": {\"I\": 1.0}, \"29\": {\"I\": 1.0}, \"30\": {\"Cs\": 1.0}, \"31\": {\"Cs\": 1.0}, \"32\": {\"K\": 1.0}, \"33\": {\"In\": 1.0}, \"34\": {\"I\": 1.0}, \"35\": {\"I\": 1.0}, \"36\": {\"I\": 1.0}, \"37\": {\"I\": 1.0}, \"38\": {\"I\": 1.0}, \"39\": {\"I\": 1.0}}" energy=-101.58229935104306 free_energy=-101.58229935104306 stress="7.79614830032664e-06 -3.7384266730207514e-07 -1.1807482945169487e-06 -3.7384266730207514e-07 -1.6424316762186208e-06 -7.108691291627748e-06 -1.1807482945169487e-06 -7.108691291627748e-06 -3.983499696736718e-06" pbc="T T T"
Cs       0.22928580       7.38102866       6.27198273        0      -0.00011970      -0.00013231      -0.00008296
Cs       7.33555071       7.59103407       7.88975024        1       0.00007355       0.00008740      -0.00002165
K        2.28897663       2.58912737       2.81899943        2       0.00006765      -0.00001849       0.00000186
In      -1.09682734      -0.36561198       1.11978862        3       0.00013382       0.00015670       0.00019635
I        2.93982419       6.15066643       3.49545225        4       0.00025063       0.00041596      -0.00042230
I        3.55619172       7.97457709       8.17026750        5      -0.00031491       0.00002032       0.00026990
I        4.26276453       0.79897786       4.86257044        6       0.00002810      -0.00003618      -0.00031363
I       10.73558596       2.53179836       1.54964331        7      -0.00008475      -0.00005420       0.00001859
I       -5.79250342       7.38536001       0.14373801        8      -0.00011102       0.00023389      -0.00012699
I       20.37208534       3.80293849       7.02982434        9      -0.00004782      -0.00008527       0.00000931
Cs      -7.14000590      14.70188183       6.21268293       10      -0.00001973      -0.00013071      -0.00006826
Cs      -0.03376059      14.91133386       7.83067070       11       0.00003591       0.00027101      -0.00020560
K       -5.08077518       9.91017754       2.75928315       12       0.00024545      -0.00003086       0.00020302
In      -8.46621115       6.95476893       1.06031819       13       0.00044597       0.00014316      -0.00013343
I       -4.42876522      13.47212965       3.43586295       14       0.00006062      -0.00010441      -0.00011952
I       -3.81324854      15.29549580       8.11086615       15       0.00000913       0.00010254       0.00005765
I       -3.10642316       8.11903469       4.80170548       16       0.00009743       0.00012633      -0.00004725
I        3.36652111       9.85227727       1.49003051       17      -0.00014359      -0.00025244       0.00009441
I      -13.16141645      14.70601326       0.08413982       18      -0.00018950       0.00005764      -0.00016371
I      -10.80772491      11.24640723       7.48368841       19      -0.00034109       0.00007937      -0.00019962
Cs      12.13435674       7.31880438       6.01474501       20       0.00005647       0.00017989      -0.00001134
Cs      19.24112299       7.52995772       7.63264171       21      -0.00020922      -0.00019501       0.00021665
K       14.19436910       2.52755640       2.56240545       22       0.00008798       0.00002559      -0.00020185
In      10.80856138      -0.42682686       0.86326934       23      -0.00052710      -0.00006761      -0.00036542
I       14.84621678       6.08925703       3.23860281       24      -0.00016545      -0.00011593       0.00040550
I       15.46116728       7.91285626       7.91335212       25       0.00010218      -0.00009308       0.00011361
I       16.16787649       0.73645828       4.60531349       26      -0.00005975       0.00003751      -0.00002727
I       22.64072453       2.46991108       1.29277976       27      -0.00004574       0.00011322      -0.00012501
I        6.11279183       7.32387675      -0.11361532       28       0.00012250       0.00012873       0.00014929
I        8.46699468       3.86467104       7.28636887       29       0.00026281      -0.00016001       0.00037281
Cs       4.76550998      14.63976580       5.95486442       30      -0.00012992      -0.00001380       0.00011810
Cs      11.87122610      14.85007270       7.57380662       31       0.00009499      -0.00013974      -0.00000957
K        6.82558697       9.84869004       2.50260392       32      -0.00025015      -0.00007684      -0.00005089
In       3.43929278       6.89359966       0.80383225       33       0.00007198      -0.00033746       0.00007763
I        7.47773444      13.41036502       3.17910845       34      -0.00020082      -0.00020879       0.00002936
I        8.09170010      15.23370377       7.85363192       35       0.00020876       0.00015837      -0.00007701
I        8.79866785       8.05695954       4.54510775       36       0.00011361       0.00001819       0.00008752
I       15.27106935       9.79044034       1.23326442       37       0.00022498      -0.00003925       0.00002211
I       -1.25649751      14.64497198      -0.17385141       38       0.00024480      -0.00035918       0.00031564
I        1.09762368      11.18485099       7.22715243       39      -0.00007905       0.00029575       0.00001398
