20
Lattice="21.51213168783447 3.42692151734209 1.843382483790438 -11.62264561681145 4.98612169358328 -0.9561224783769474 -4.613814949108621 -4.107448997892147 7.689637551448624" Properties=species:S:1:pos:R:3:spacegroup_kinds:I:1:forces:R:3 spacegroup="P 1" unit_cell=conventional occupancy="_JSON {\"0\": {\"Cs\": 1.0}, \"1\": {\"Cs\": 1.0}, \"2\": {\"K\": 1.0}, \"3\": {\"In\": 1.0}, \"4\": {\"I\": 1.0}, \"5\": {\"I\": 1.0}, \"6\": {\"I\": 1.0}, \"7\": {\"I\": 1.0}, \"8\": {\"I\": 1.0}, \"9\": {\"I\": 1.0}, \"10\": {\"Cs\": 1.0}, \"11\": {\"Cs\": 1.0}, \"12\": {\"K\": 1.0}, \"13\": {\"In\": 1.0}, \"14\": {\"I\": 1.0}, \"15\": {\"I\": 1.0}, \"16\": {\"I\": 1.0}, \"17\": {\"I\": 1.0}, \"18\": {\"I\": 1.0}, \"19\": {\"I\": 1.0}}" energy=-48.853069489495084 free_energy=-48.853069489495084 stress="5.299842965206929e-06 1.352910546946956e-06 -1.2357484845617783e-06 1.352910546946956e-06 -1.354874764018777e-06 3.617698837090758e-07 -1.2357484845617783e-06 3.617698837090758e-07 -2.7128952056808995e-06" pbc="T T T"
Cs      -6.86627060      -0.07866278       5.24129794        0       0.00005043       0.00046885       0.00018743
Cs      -2.04005576       0.69860640      10.17724795        1       0.00054448      -0.00029356      -0.00025083
K       -1.59877773      -2.97478501       4.19414386        2      -0.00002461      -0.00014914       0.00010266
In      -0.26729681       0.95186326       0.93677507        3       0.00009892       0.00008495      -0.00046596
I        0.81274734       1.28452164       3.98393198        4       0.00024528      -0.00026810      -0.00071096
I       -3.08212729       0.33230591       2.99538419        5      -0.00005938      -0.00005618       0.00067151
I       -1.49580914      -2.64389294       7.81279979        6       0.00005275       0.00005483      -0.00014784
I        5.41890799       1.76335747       2.04820689        7       0.00008500      -0.00024160      -0.00038335
I      -11.67246478       2.54097911       0.13965578        8      -0.00031838       0.00029065       0.00016151
I       -5.06020912      -3.25413112       4.86800345        9       0.00033060      -0.00041995      -0.00032861
Cs       3.89386380       1.63277833       6.16341498       10      -0.00018179      -0.00028256       0.00005626
Cs       8.72720642       2.40881753      11.08648421       11      -0.00004593       0.00017628       0.00051450
K        9.16225872      -1.26843886       5.11574768       12      -0.00048099       0.00028385       0.00008033
In      10.48548463       2.66393794       1.85572066       13       0.00010319      -0.00013264      -0.00009411
I       11.57357596       2.98702182       4.89874646       14      -0.00048513       0.00005932       0.00052471
I        7.67452305       2.05007025       3.92204950       15      -0.00019813      -0.00006905       0.00031503
I        9.25900993      -0.93467034       8.73066994       16      -0.00030247       0.00033542       0.00027584
I       16.17431788       3.47104858       2.96481887       17       0.00027212      -0.00027808      -0.00010005
I       -0.92153432       4.25289340       1.05910044       18       0.00029761       0.00015542      -0.00026490
I        5.69746239      -1.54261241       5.77647205       19       0.00001642       0.00028129      -0.00014317
