80
Lattice="19.861447723840993 0.0 0.0 2.8420211585625252 18.769209932012686 0.0 12.3117203081311 8.813824651994434 14.655157593644262" Properties=species:S:1:pos:R:3 pbc="T T T"
Cs       4.37677632       3.44784258       1.83191864
Cs      13.13081807      10.34367372       5.49565951
K        8.75379716       6.89575805       3.66378899
In       0.00000022       0.00000067       0.00000028
I        8.56878202       3.85894527       3.72882571
I        8.93881226       9.93257031       3.59875230
I       12.23154333       4.05667765       2.65182093
I        5.27604910       9.73483812       4.67575656
I        5.26725871       7.37499801       0.75385049
I       12.24033618       6.41652132       6.57372953
Cs      10.53263647       7.85475491       9.15949744
Cs      19.28667823      14.75058605      12.82323831
K       14.90965731      11.30267037      10.99136779
In       6.15586037       4.40691300       7.32757908
I       14.72464218       8.26585759      11.05640451
I       15.09467241      14.33948264      10.92633109
I       18.38740349       8.46358998       9.97939973
I       11.43190925      14.14175044      12.00333535
I       11.42311887      11.78191034       8.08142928
I       18.39619633      10.82343364      13.90130833
Cs       5.79778690      12.83244755       1.83191864
Cs      14.55182865      19.72827869       5.49565951
K       10.17480774      16.28036301       3.66378899
In       1.42101080       9.38460564       0.00000028
I        9.98979260      13.24355023       3.72882571
I       10.35982284      19.31717528       3.59875230
I       13.65255391      13.44128262       2.65182093
I        6.69705968      19.11944308       4.67575656
I        6.68826929      16.75960298       0.75385049
I       13.66134675      15.80112628       6.57372953
Cs      11.95364705      17.23935987       9.15949744
Cs      20.70768881      24.13519101      12.82323831
K       16.33066789      20.68727534      10.99136779
In       7.57687095      13.79151796       7.32757908
I       16.14565276      17.65046256      11.05640451
I       16.51568299      23.72408760      10.92633109
I       19.80841407      17.84819494       9.97939973
I       12.85291983      23.52635541      12.00333535
I       12.84412945      21.16651530       8.08142928
I       19.81720691      20.20803861      13.90130833
Cs      14.30750018       3.44784258       1.83191864
Cs      23.06154193      10.34367372       5.49565951
K       18.68452102       6.89575805       3.66378899
In       9.93072408       0.00000067       0.00000028
I       18.49950588       3.85894527       3.72882571
I       18.86953612       9.93257031       3.59875230
I       22.16226719       4.05667765       2.65182093
I       15.20677296       9.73483812       4.67575656
I       15.19798258       7.37499801       0.75385049
I       22.17106004       6.41652132       6.57372953
Cs      20.46336033       7.85475491       9.15949744
Cs      29.21740209      14.75058605      12.82323831
K       24.84038117      11.30267037      10.99136779
In      16.08658423       4.40691300       7.32757908
I       24.65536604       8.26585759      11.05640451
I       25.02539627      14.33948264      10.92633109
I       28.31812735       8.46358998       9.97939973
I       21.36263311      14.14175044      12.00333535
I       21.35384273      11.78191034       8.08142928
I       28.32692019      10.82343364      13.90130833
Cs      15.72851076      12.83244755       1.83191864
Cs      24.48255251      19.72827869       5.49565951
K       20.10553160      16.28036301       3.66378899
In      11.35173466       9.38460564       0.00000028
I       19.92051646      13.24355023       3.72882571
I       20.29054670      19.31717528       3.59875230
I       23.58327777      13.44128262       2.65182093
I       16.62778354      19.11944308       4.67575656
I       16.61899316      16.75960298       0.75385049
I       23.59207062      15.80112628       6.57372953
Cs      21.88437091      17.23935987       9.15949744
Cs      30.63841267      24.13519101      12.82323831
K       26.26139175      20.68727534      10.99136779
In      17.50759481      13.79151796       7.32757908
I       26.07637662      17.65046256      11.05640451
I       26.44640685      23.72408760      10.92633109
I       29.73913793      17.84819494       9.97939973
I       22.78364369      23.52635541      12.00333535
I       22.77485331      21.16651530       8.08142928
I       29.74793077      20.20803861      13.90130833
