20
Lattice="18.59737969164301 -0.005233610158720374 -0.015257442815526621 -4.648251522067354 8.010476660430967 -0.8543456049117408 0.003260727484969754 0.9405902695392858 8.778855034140532" Properties=species:S:1:pos:R:3:spacegroup_kinds:I:1:forces:R:3 spacegroup="P 1" unit_cell=conventional occupancy="_JSON {\"0\": {\"Cs\": 1.0}, \"1\": {\"Cs\": 1.0}, \"2\": {\"K\": 1.0}, \"3\": {\"In\": 1.0}, \"4\": {\"I\": 1.0}, \"5\": {\"I\": 1.0}, \"6\": {\"I\": 1.0}, \"7\": {\"I\": 1.0}, \"8\": {\"I\": 1.0}, \"9\": {\"I\": 1.0}, \"10\": {\"Cs\": 1.0}, \"11\": {\"Cs\": 1.0}, \"12\": {\"K\": 1.0}, \"13\": {\"In\": 1.0}, \"14\": {\"I\": 1.0}, \"15\": {\"I\": 1.0}, \"16\": {\"I\": 1.0}, \"17\": {\"I\": 1.0}, \"18\": {\"I\": 1.0}, \"19\": {\"I\": 1.0}}" energy=-51.58762834439642 free_energy=-51.58762834439642 stress="3.5145819430787178e-06 -3.5238608986600387e-06 -2.5066264149785947e-06 -3.5238608986600387e-06 1.349559563973309e-05 -4.405390122503766e-07 -2.5066264149785947e-06 -4.405390122503766e-07 6.800814487939576e-06" pbc="T T T"
Cs       0.79303831       6.27847093       8.19628026        0      -0.00040173      -0.00039496      -0.00059581
Cs       5.44143681       3.61040377       8.49787303        1       0.00026679       0.00001984       0.00036229
K       -3.85858908       8.47969575       3.53415257        2       0.00044186       0.00040718       0.00045495
In      -3.85952614       8.01062459      -0.85473498        3       0.00008930      -0.00034940      -0.00039007
I        2.00339772       2.29093656       1.52982324        4      -0.00013767      -0.00042162       0.00007681
I        4.22788584       6.65756994       6.38621079        5      -0.00050422      -0.00035085      -0.00008157
I       -1.41954298       8.76877904       6.16557090        6       0.00088592      -0.00003867      -0.00040052
I        7.65003741       0.17921818       1.75016978        7      -0.00003402       0.00033870       0.00006810
I       -2.63327521       6.10178365       1.12492554        8      -0.00085394       0.00038675       0.00031680
I       -0.43392449       2.84857159       6.79801766        9       0.00024778       0.00040301       0.00018896
Cs      10.09172815       6.27585413       8.18865153       10      -0.00040173      -0.00039496      -0.00059579
Cs      14.74012665       3.60778697       8.49024432       11       0.00026679       0.00001984       0.00036227
K        5.44010077       8.47707894       3.52652386       12       0.00044185       0.00040716       0.00045487
In       5.43916370       8.00800781      -0.86236378       13       0.00008928      -0.00034953      -0.00038963
I       11.30208757       2.28831976       1.52219452       14      -0.00013768      -0.00042164       0.00007678
I       13.52657569       6.65495314       6.37858207       15      -0.00050420      -0.00035083      -0.00008154
I        7.87914685       8.76616223       6.15794219       16       0.00088600      -0.00003866      -0.00040059
I       16.94872727       0.17660137       1.74254105       17      -0.00003410       0.00033869       0.00006817
I        6.66541464       6.09916683       1.11729684       18      -0.00085399       0.00038684       0.00031668
I        8.86476536       2.84595477       6.79038896       19       0.00024773       0.00040310       0.00018884
