20
Lattice="8.386001722279158 -2.1427182637815583 3.8607144981855544e-11 2.2662870439978904 8.872915472371707 -4.015184166425908e-11 7.643583780584237e-11 -1.281944066998577e-10 12.641356827409554" Properties=species:S:1:pos:R:3:spacegroup_kinds:I:1:forces:R:3 spacegroup="P 1" unit_cell=conventional occupancy="_JSON {\"0\": {\"Cs\": 1.0}, \"1\": {\"Cs\": 1.0}, \"2\": {\"Cs\": 1.0}, \"3\": {\"Cs\": 1.0}, \"4\": {\"Pb\": 1.0}, \"5\": {\"Pb\": 1.0}, \"6\": {\"Pb\": 1.0}, \"7\": {\"Pb\": 1.0}, \"8\": {\"I\": 1.0}, \"9\": {\"I\": 1.0}, \"10\": {\"I\": 1.0}, \"11\": {\"I\": 1.0}, \"12\": {\"I\": 1.0}, \"13\": {\"I\": 1.0}, \"14\": {\"I\": 1.0}, \"15\": {\"I\": 1.0}, \"16\": {\"I\": 1.0}, \"17\": {\"I\": 1.0}, \"18\": {\"I\": 1.0}, \"19\": {\"I\": 1.0}}" energy=-56.50801420450833 free_energy=-56.50801420450833 stress="-1.869204274812199e-05 5.01893582378423e-06 1.814081709977532e-11 5.01893582378423e-06 7.247579362640698e-07 -3.0443823678943957e-11 1.814081709977532e-11 -3.0443823678943957e-11 9.358826032750255e-06" pbc="T T T"
Cs       6.62001521       7.02141939       3.16033923        0       0.00001914       0.00042481       0.00000000
Cs       1.75800473       3.53742102       3.16033923        1      -0.00023458       0.00066885       0.00000000
Cs       5.17267029      -0.58276464       9.48101764        2      -0.00018608      -0.00000445      -0.00000000
Cs       1.64871911       5.04388780       9.48101764        3       0.00022570      -0.00029141      -0.00000000
Pb       0.57011626      -0.14562827       0.00015788        4       0.00009866      -0.00028824      -0.00070224
Pb       5.89636675       3.21936288      12.64150996        5      -0.00027444       0.00021063      -0.00077651
Pb       0.57011627      -0.14562827       6.32052058        6       0.00009866      -0.00028824       0.00070224
Pb       5.89636675       3.21936288       6.32052533        7      -0.00027444       0.00021063       0.00077651
I        3.77251037       5.63939568       0.52557552        8       0.00028034       0.00026836       0.00024683
I        3.59390364       0.95950263       0.52723923        9       0.00001677      -0.00000303      -0.00028887
I        8.26614462      -2.02490024       3.16033923       10       0.00051001       0.00021114      -0.00000001
I        8.02013045       0.79937678      12.11580422       11      -0.00034118      -0.00018209      -0.00015934
I        8.19854836       5.47944816      12.11410165       12       0.00017377      -0.00014707       0.00049326
I        6.62778041       3.12170929       3.16033923       13       0.00028276      -0.00043791       0.00000001
I        3.77251036       5.63939570       5.79510294       14       0.00028037       0.00026831      -0.00024684
I        3.59390364       0.95950263       5.79343923       15       0.00001678      -0.00000302       0.00028887
I        3.52655428       8.46378813       9.48101764       16      -0.00088606      -0.00021962       0.00000001
I        8.02013046       0.79937677       6.84623107       17      -0.00034121      -0.00018203       0.00015935
I        8.19854836       5.47944816       6.84793363       18       0.00017376      -0.00014707      -0.00049326
I        5.16450839       3.31743213       9.48101764       19       0.00036128      -0.00006855      -0.00000001
