40
Lattice="17.59424521239029 0.0 0.0 10.42719001666457 12.537568154652408 0.0 4.096783556096227 -0.1686199524090565 6.265987393890899" Properties=species:S:1:pos:R:3 pbc="T T T"
Cs       4.52682702       1.52502675       1.56650047
Cs      13.58067403       4.57513700       4.69948668
K        9.05375057       3.05008185       3.13299359
In       0.00000013       0.00000031       0.00000013
I        6.88016141       0.64948223       3.99607889
I       11.22733978       5.45068124       2.26990827
I        9.91226115       2.02280723       1.53709215
I        8.19523944       4.07735622       4.72889491
I        7.03599194       4.70007500       1.37527736
I       11.07150958       1.40008972       4.89071037
Cs       9.74042203       7.79381083       1.56650047
Cs      18.79426904      10.84392107       4.69948668
K       14.26734558       9.31886593       3.13299359
In       5.21359513       6.26878439       0.00000013
I       12.09375642       6.91826631       3.99607889
I       16.44093478      11.71946532       2.26990827
I       15.12585616       8.29159131       1.53709215
I       13.40883445      10.34614029       4.72889491
I       12.24958695      10.96885908       1.37527736
I       16.28510458       7.66887380       4.89071037
Cs      13.32394962       1.52502675       1.56650047
Cs      22.37779664       4.57513700       4.69948668
K       17.85087318       3.05008185       3.13299359
In       8.79712273       0.00000031       0.00000013
I       15.67728402       0.64948223       3.99607889
I       20.02446238       5.45068124       2.26990827
I       18.70938376       2.02280723       1.53709215
I       16.99236205       4.07735622       4.72889491
I       15.83311455       4.70007500       1.37527736
I       19.86863218       1.40008972       4.89071037
Cs      18.53754463       7.79381083       1.56650047
Cs      27.59139165      10.84392107       4.69948668
K       23.06446819       9.31886593       3.13299359
In      14.01071774       6.26878439       0.00000013
I       20.89087902       6.91826631       3.99607889
I       25.23805739      11.71946532       2.26990827
I       23.92297877       8.29159131       1.53709215
I       22.20595705      10.34614029       4.72889491
I       21.04670956      10.96885908       1.37527736
I       25.08222719       7.66887380       4.89071037
