20
Lattice="17.546478320595 -0.10939021585622496 -0.4344065910447671 4.066668640882499 7.788176301849947 0.06628180465054896 4.272232596373983 2.2253112147150493 7.344977584052479" Properties=species:S:1:pos:R:3:spacegroup_kinds:I:1:forces:R:3 spacegroup="P 1" unit_cell=conventional occupancy="_JSON {\"0\": {\"Cs\": 1.0}, \"1\": {\"Cs\": 1.0}, \"2\": {\"K\": 1.0}, \"3\": {\"In\": 1.0}, \"4\": {\"I\": 1.0}, \"5\": {\"I\": 1.0}, \"6\": {\"I\": 1.0}, \"7\": {\"I\": 1.0}, \"8\": {\"I\": 1.0}, \"9\": {\"I\": 1.0}, \"10\": {\"Cs\": 1.0}, \"11\": {\"Cs\": 1.0}, \"12\": {\"K\": 1.0}, \"13\": {\"In\": 1.0}, \"14\": {\"I\": 1.0}, \"15\": {\"I\": 1.0}, \"16\": {\"I\": 1.0}, \"17\": {\"I\": 1.0}, \"18\": {\"I\": 1.0}, \"19\": {\"I\": 1.0}}" energy=-51.330993121139684 free_energy=-51.330993121139684 stress="7.371681060398424e-06 -2.777629505161454e-06 -1.5293776687136558e-06 -2.777629505161454e-06 5.93323449887256e-06 -3.6194389517286817e-07 -1.5293776687136558e-06 -3.6194389517286817e-07 4.684507739917502e-06" pbc="T T T"
Cs       3.92191965       2.51848430       2.09289727        0      -0.00030652      -0.00024957       0.00007270
Cs      12.86315579       7.73983352       5.81474866        1      -0.00054607      -0.00013577      -0.00028873
K        8.78667276       4.82290477       3.67133383        2      -0.00022968       0.00017018      -0.00030239
In      17.54650639      -0.11010176      -0.43433172        3      -0.00037542       0.00039382       0.00004788
I        9.07948352       1.65225098       2.19903960        4      -0.00009439      -0.00065018       0.00018113
I        8.74681163       8.00821382       5.26288041        5      -0.00018629       0.00023761       0.00016681
I       11.33876734       5.71352202       1.45361705        6       0.00018037      -0.00006812      -0.00011095
I       23.72040574       3.92580174       5.55365966        7      -0.00027477       0.00018009       0.00016178
I        6.31495660       6.56879800       1.67605948        8      -0.00047307      -0.00026647      -0.00024531
I       10.50004699       3.56737471       6.50620241        9      -0.00005121      -0.00059884       0.00006361
Cs      13.02260012       2.16560606       1.16244186       10       0.00035441       0.00019122      -0.00005063
Cs      21.96198636       7.38409064       4.88333762       11       0.00060026       0.00031323       0.00065945
K       17.09914406       5.08093598       3.30600952       12       0.00000230       0.00009037      -0.00029199
In       8.77330448      -0.05407102      -0.21734122       13       0.00046124      -0.00044598      -0.00002653
I       17.13843350       1.89485309       1.71406790       14       0.00014474      -0.00005878      -0.00032441
I       16.80660591       8.25294818       4.77742931       15       0.00003767       0.00038527       0.00030688
I        2.16498463       5.97659552       1.42296327       16       0.00022135       0.00043672      -0.00020941
I       14.54641794       4.19201993       5.52287732       17      -0.00000766      -0.00030304       0.00028316
I       15.38557512       6.33804349       0.47081800       18       0.00006125       0.00043465      -0.00021929
I       19.57034973       3.33467766       5.30134967       19       0.00048148      -0.00005641       0.00012624
