40
Lattice="18.57737024098112 -0.8643580147898332 0.0005616168193038583 -8.540353511764634 16.52167702186033 0.011936882906125348 0.001723805710066554 -0.002032777420327528 8.828662528086644" Properties=species:S:1:pos:R:3:spacegroup_kinds:I:1:forces:R:3 spacegroup="P 1" unit_cell=conventional occupancy="_JSON {\"0\": {\"Cs\": 1.0}, \"1\": {\"Cs\": 1.0}, \"2\": {\"K\": 1.0}, \"3\": {\"In\": 1.0}, \"4\": {\"I\": 1.0}, \"5\": {\"I\": 1.0}, \"6\": {\"I\": 1.0}, \"7\": {\"I\": 1.0}, \"8\": {\"I\": 1.0}, \"9\": {\"I\": 1.0}, \"10\": {\"Cs\": 1.0}, \"11\": {\"Cs\": 1.0}, \"12\": {\"K\": 1.0}, \"13\": {\"In\": 1.0}, \"14\": {\"I\": 1.0}, \"15\": {\"I\": 1.0}, \"16\": {\"I\": 1.0}, \"17\": {\"I\": 1.0}, \"18\": {\"I\": 1.0}, \"19\": {\"I\": 1.0}, \"20\": {\"Cs\": 1.0}, \"21\": {\"Cs\": 1.0}, \"22\": {\"K\": 1.0}, \"23\": {\"In\": 1.0}, \"24\": {\"I\": 1.0}, \"25\": {\"I\": 1.0}, \"26\": {\"I\": 1.0}, \"27\": {\"I\": 1.0}, \"28\": {\"I\": 1.0}, \"29\": {\"I\": 1.0}, \"30\": {\"Cs\": 1.0}, \"31\": {\"Cs\": 1.0}, \"32\": {\"K\": 1.0}, \"33\": {\"In\": 1.0}, \"34\": {\"I\": 1.0}, \"35\": {\"I\": 1.0}, \"36\": {\"I\": 1.0}, \"37\": {\"I\": 1.0}, \"38\": {\"I\": 1.0}, \"39\": {\"I\": 1.0}}" energy=-103.17525832858439 free_energy=-103.17525832858439 stress="1.2048258395760581e-06 -1.8757199428241339e-06 4.512606139215445e-06 -1.8757199428241339e-06 1.3004047672763713e-06 8.185561303236074e-06 4.512606139215445e-06 8.185561303236074e-06 4.999294740912944e-07" pbc="T T T"
Cs       3.93318194       2.51729978      -0.01907466        0      -0.00046601      -0.00031260       0.00035047
Cs      -0.58487615       5.41205845       8.85441681        1       0.00033097       0.00045634      -0.00030774
K       17.74204967      -0.81397436       4.41465018        2       0.00012010       0.00004702       0.00029698
In      17.74138410      -0.81296040       0.00022309        3       0.00020402       0.00008272       0.00085572
I       16.60972160       1.34590070       1.76799485        4      -0.00011917      -0.00003998       0.00000459
I        5.31597732       5.71908905       7.06739431        5       0.00003874       0.00017854      -0.00024359
I        0.47029010       2.11003894       7.06342737        6       0.00000031       0.00015628      -0.00027538
I        2.87799192       5.81965201       1.77146724        7      -0.00007011      -0.00055077      -0.00009836
I       -2.67002270       8.21132983       1.77250535        8       0.00020135       0.00011552      -0.00085539
I        6.01813261      -0.28186491       7.06250377        9      -0.00023568      -0.00016082       0.00027166
Cs      -0.33699490      10.77813781      -0.01310617       10      -0.00046502      -0.00030958       0.00035007
Cs      -4.85505282      13.67289745       8.86038521       11       0.00032993       0.00045332      -0.00030737
K       13.47187315       7.44686288       4.42061874       12       0.00011888       0.00005466       0.00029600
In      13.47120884       7.44787007       0.00619112       13       0.00019623       0.00013106       0.00085883
I       12.33954380       9.60674183       1.77396432       14      -0.00011187      -0.00005529      -0.00000404
I        1.04580160      13.97992497       7.07336174       15       0.00003153       0.00019368      -0.00023504
I       -3.79988619      10.37087910       7.06939510       16      -0.00000473       0.00014586      -0.00026928
I       -1.39218531      14.08048890       1.77743638       17      -0.00006510      -0.00054046      -0.00010437
I       -6.94019922      16.47216773       1.77847398       18       0.00019963       0.00011911      -0.00085700
I        1.74795562       7.97897421       7.06847203       19      -0.00023402      -0.00016439       0.00027324
Cs      13.22186706       2.08512078      -0.01879385       20      -0.00046602      -0.00031262       0.00035047
Cs       8.70380898       4.97987944       8.85469762       21       0.00033094       0.00045635      -0.00030776
K        8.45336455      -0.38179535       4.41436937       22       0.00012008       0.00004703       0.00029698
In       8.45269899      -0.38078140      -0.00005772       23       0.00020393       0.00008277       0.00085573
I        7.32103648       1.77807971       1.76771405       24      -0.00011914      -0.00004001       0.00000458
I       14.60466243       5.28691007       7.06767513       25       0.00003881       0.00017839      -0.00024369
I        9.75897522       1.67785993       7.06370818       26       0.00000032       0.00015628      -0.00027538
I       12.16667704       5.38747302       1.77174804       27      -0.00007014      -0.00055085      -0.00009830
I        6.61866242       7.77915082       1.77278617       28       0.00020131       0.00011554      -0.00085542
I       15.30681774      -0.71404392       7.06278458       29      -0.00023572      -0.00016082       0.00027165
Cs       8.95169022      10.34595880      -0.01282536       30      -0.00046499      -0.00030959       0.00035009
Cs       4.43363230      13.24071844       8.86066602       31       0.00032994       0.00045334      -0.00030737
K        4.18318803       7.87904190       4.42033793       32       0.00011890       0.00005459       0.00029602
In       4.18252370       7.88004916       0.00591032       33       0.00019637       0.00013060       0.00085878
I        3.05085869      10.03892081       1.77368350       34      -0.00011194      -0.00005514      -0.00000395
I       10.33448673      13.54774596       7.07364254       35       0.00003150       0.00019372      -0.00023502
I        5.48879893       9.93870008       7.06967592       36      -0.00000471       0.00014594      -0.00026934
I        7.89649982      13.64830989       1.77771719       37      -0.00006512      -0.00054046      -0.00010437
I        2.34848589      16.03998872       1.77875479       38       0.00019967       0.00011911      -0.00085699
I       11.03664074       7.54679520       7.06875283       39      -0.00023398      -0.00016441       0.00027326
