20
Lattice="18.445432775119112 0.06021387962966449 0.07659088726292138 4.642967943268193 7.986472800114923 0.027181595308016844 4.64591252461055 2.684401208276331 6.9618691654398095" Properties=species:S:1:pos:R:3:spacegroup_kinds:I:1:forces:R:3 spacegroup="P 1" unit_cell=conventional occupancy="_JSON {\"0\": {\"Cs\": 1.0}, \"1\": {\"Cs\": 1.0}, \"2\": {\"K\": 1.0}, \"3\": {\"In\": 1.0}, \"4\": {\"I\": 1.0}, \"5\": {\"I\": 1.0}, \"6\": {\"I\": 1.0}, \"7\": {\"I\": 1.0}, \"8\": {\"I\": 1.0}, \"9\": {\"I\": 1.0}, \"10\": {\"Cs\": 1.0}, \"11\": {\"Cs\": 1.0}, \"12\": {\"K\": 1.0}, \"13\": {\"In\": 1.0}, \"14\": {\"I\": 1.0}, \"15\": {\"I\": 1.0}, \"16\": {\"I\": 1.0}, \"17\": {\"I\": 1.0}, \"18\": {\"I\": 1.0}, \"19\": {\"I\": 1.0}}" energy=-51.29789325043641 free_energy=-51.29789325043641 stress="5.443788438008497e-07 1.3408340653494703e-07 3.165111031302013e-08 1.3408340653494703e-07 8.515228879080737e-07 4.4408454297331323e-07 3.165111031302013e-08 4.4408454297331323e-07 3.8172235471943937e-07" pbc="T T T"
Cs       4.63064073       2.69354126       1.94589503        0       0.00012857      -0.00007568       0.00022037
Cs      13.88042313       8.00764937       5.08061446        1       0.00014609      -0.00006395       0.00017200
K        9.25623537       5.35058485       3.51362584        2      -0.00028186      -0.00024218       0.00006408
In      18.44561975       0.06009694       0.07659779        3      -0.00026869      -0.00009862       0.00030622
I        6.99442948       3.23705129       5.22550851        4       0.00029529      -0.00002810      -0.00014262
I       11.51682639       7.46396779       1.80192530        5       0.00024820       0.00019216      -0.00009759
I        9.95025944       2.36980456       1.73479175        6      -0.00006858       0.00036934       0.00026980
I        8.56137002       8.33074801       5.29263108        7       0.00012832       0.00048064       0.00038278
I        6.33462472       6.21498000       1.71876536        8      -0.00040304       0.00038024      -0.00064693
I       12.17719110       4.48577315       5.30932647        9      -0.00014765       0.00023354      -0.00032171
Cs      13.85327235       2.72364781       1.98420758       10       0.00033224      -0.00008322       0.00019122
Cs      23.10308853       8.03778110       5.11893009       11       0.00024862      -0.00007926       0.00009734
K       18.47892171       5.38053953       3.55196566       12      -0.00029666       0.00015481      -0.00002869
In       9.22283528       0.02996568       0.03841340       13       0.00001201       0.00017918      -0.00032263
I       16.21746374       3.26719093       5.26366173       14      -0.00047141      -0.00009319       0.00025278
I       20.73980924       7.49420918       1.84007987       15      -0.00007011      -0.00003820       0.00009260
I       19.17295708       2.40014114       1.77326158       16      -0.00005453      -0.00040932      -0.00035904
I       17.78415203       8.36110625       5.33112351       17      -0.00008118      -0.00032081      -0.00031130
I       15.55710943       6.24531255       1.75682473       18       0.00033734      -0.00034138       0.00016555
I       21.39973644       4.51601590       5.34750910       19       0.00026705      -0.00011602       0.00001577
