20
Lattice="11.175239657795949 0.07395292086851273 -0.4390148662405841 4.588402007251374 12.820531194396445 -0.16065527930885665 -6.623682568147299 9.996596735794622 9.44560195102729" Properties=species:S:1:pos:R:3:spacegroup_kinds:I:1:forces:R:3 spacegroup="P 1" unit_cell=conventional occupancy="_JSON {\"0\": {\"Cs\": 1.0}, \"1\": {\"Cs\": 1.0}, \"2\": {\"Cs\": 1.0}, \"3\": {\"Cs\": 1.0}, \"4\": {\"Pb\": 1.0}, \"5\": {\"Pb\": 1.0}, \"6\": {\"Pb\": 1.0}, \"7\": {\"Pb\": 1.0}, \"8\": {\"I\": 1.0}, \"9\": {\"I\": 1.0}, \"10\": {\"I\": 1.0}, \"11\": {\"I\": 1.0}, \"12\": {\"I\": 1.0}, \"13\": {\"I\": 1.0}, \"14\": {\"I\": 1.0}, \"15\": {\"I\": 1.0}, \"16\": {\"I\": 1.0}, \"17\": {\"I\": 1.0}, \"18\": {\"I\": 1.0}, \"19\": {\"I\": 1.0}}" energy=-55.08450099239669 free_energy=-55.08450099239669 stress="-6.817020168938561e-07 -5.912308399596587e-06 -5.482618845085434e-06 -5.912308399596587e-06 1.652894586237339e-06 2.2896466461520785e-06 -5.482618845085434e-06 2.2896466461520785e-06 1.0499286628840412e-05" pbc="T T T"
Cs       6.56882951       0.43973583       3.28629888        0       0.00034452       0.00016716       0.00024157
Cs       1.60390557       8.56833470       1.77081303        1      -0.00017952       0.00007356      -0.00010780
Cs       1.99815454      10.50826955       7.35085908        2      -0.00002226      -0.00024907      -0.00014116
Cs      -2.23639583      16.68093376       6.40492294        3      -0.00027106      -0.00012400       0.00038292
Pb      -2.66635063      12.95297508       9.89853852        4       0.00036182      -0.00017810      -0.00000896
Pb       8.04139682       9.57312374      -0.20175848        5      -0.00041160       0.00009860      -0.00003953
Pb       6.80858977       7.45507209       3.10439278        6      -0.00003026      -0.00004620      -0.00024289
Pb       5.27986572      12.02660738       3.78065822        7      -0.00009010      -0.00001104      -0.00017532
I        5.17077025       8.21707129       0.45578200        8       0.00023151       0.00011492       0.00021415
I        5.92088963       4.21474622       2.46502494        9       0.00010282       0.00005319      -0.00004896
I        9.27863289       6.97515025       0.83108868       10       0.00016914       0.00019743       0.00002372
I        6.63748795      15.24731109       8.84381903       11       0.00015444       0.00005390      -0.00023983
I        3.93149862      21.48797428       9.11099739       12      -0.00007557       0.00013597       0.00001594
I        8.23921317      10.25562367       3.18327878       13       0.00013763      -0.00020966       0.00018045
I        3.31645436      12.19548384       1.48578699       14      -0.00005872       0.00030968       0.00021590
I        4.29658413       8.84780306       4.68360593       15       0.00027014       0.00011098       0.00057742
I       -3.36140690       5.91311177       6.34365215       16      -0.00020921      -0.00036414      -0.00000908
I       10.37727747      13.29747770       6.94837859       17      -0.00011345       0.00002751      -0.00035196
I        7.18373470      14.51009816       3.10355774       18      -0.00024009       0.00000076      -0.00050305
I        3.39156884      13.50486818       5.64866757       19      -0.00007018      -0.00016146       0.00001645
