40
Lattice="19.599928445362227 2.2847539166681154 -1.2843967278652029 -8.787977774105059 14.244508587567811 2.238315327274403 -1.5512426436243634 -2.267099110597788 8.337603325827104" Properties=species:S:1:pos:R:3:spacegroup_kinds:I:1:forces:R:3 spacegroup="P 1" unit_cell=conventional occupancy="_JSON {\"0\": {\"Cs\": 1.0}, \"1\": {\"Cs\": 1.0}, \"2\": {\"K\": 1.0}, \"3\": {\"In\": 1.0}, \"4\": {\"I\": 1.0}, \"5\": {\"I\": 1.0}, \"6\": {\"I\": 1.0}, \"7\": {\"I\": 1.0}, \"8\": {\"I\": 1.0}, \"9\": {\"I\": 1.0}, \"10\": {\"Cs\": 1.0}, \"11\": {\"Cs\": 1.0}, \"12\": {\"K\": 1.0}, \"13\": {\"In\": 1.0}, \"14\": {\"I\": 1.0}, \"15\": {\"I\": 1.0}, \"16\": {\"I\": 1.0}, \"17\": {\"I\": 1.0}, \"18\": {\"I\": 1.0}, \"19\": {\"I\": 1.0}, \"20\": {\"Cs\": 1.0}, \"21\": {\"Cs\": 1.0}, \"22\": {\"K\": 1.0}, \"23\": {\"In\": 1.0}, \"24\": {\"I\": 1.0}, \"25\": {\"I\": 1.0}, \"26\": {\"I\": 1.0}, \"27\": {\"I\": 1.0}, \"28\": {\"I\": 1.0}, \"29\": {\"I\": 1.0}, \"30\": {\"Cs\": 1.0}, \"31\": {\"Cs\": 1.0}, \"32\": {\"K\": 1.0}, \"33\": {\"In\": 1.0}, \"34\": {\"I\": 1.0}, \"35\": {\"I\": 1.0}, \"36\": {\"I\": 1.0}, \"37\": {\"I\": 1.0}, \"38\": {\"I\": 1.0}, \"39\": {\"I\": 1.0}}" energy=-102.75048050553059 free_energy=-102.75048050553059 stress="1.3236968140769725e-07 -2.790701982725523e-07 -9.957230481176861e-08 -2.790701982725523e-07 -2.4336902789445874e-08 -2.9549964038090387e-07 -9.957230481176861e-08 -2.9549964038090387e-07 3.27048492551944e-07" pbc="T T T"
Cs      -0.32804388       3.82962439       8.23767828        0      -0.00003097       0.00003446      -0.00003619
Cs       5.35871077       2.22102352       8.95378194        1       0.00008898      -0.00004796       0.00003367
K        0.58798491       0.02649828       4.18849576        2      -0.00003834       0.00004672      -0.00005467
In       1.36366581       1.16017493       0.01970663        3      -0.00024204      -0.00016005      -0.00028806
I        0.93481639       3.02652391       2.29435814        4      -0.00002755       0.00003258       0.00009221
I        5.64717463       5.29118568       6.55955320        5      -0.00004369       0.00015072      -0.00004731
I        2.21847592       0.53316529       7.36631261        6       0.00009100       0.00001710      -0.00004347
I        8.75742789       0.66236469       0.36843169        7       0.00000911       0.00006201      -0.00001694
I       -1.27437596       6.60731243       2.85698803        8      -0.00010530      -0.00001491      -0.00001045
I       -1.94367386       0.56806336       6.63898355        9       0.00010560      -0.00004588       0.00015713
Cs      -4.72203752      10.95190825       9.35677064       10       0.00003916      -0.00001642       0.00009744
Cs       0.96476706       9.34327854      10.07297481       11      -0.00007009       0.00000365      -0.00001795
K       -3.80599907       7.14885554       5.30758550       12       0.00002567      -0.00006839       0.00003877
In      -3.03048120       8.28231434       1.13876378       13       0.00034254      -0.00001140       0.00029556
I       -3.45919545      10.14865603       3.41353428       14      -0.00002355       0.00015704      -0.00005316
I        1.25318280      12.41354686       7.67866089       15      -0.00001339      -0.00007121       0.00009238
I       -2.17546987       7.65542608       8.48537669       16      -0.00006710      -0.00005459       0.00007615
I        4.36336674       7.78457060       1.48760856       17       0.00006588       0.00001243      -0.00002004
I       -5.66844546      13.72947589       3.97618698       18       0.00017969       0.00006520       0.00002007
I       -6.33755777       7.69035427       7.75830491       19      -0.00024443       0.00004207      -0.00024833
Cs       9.47193804       4.97199878       7.59547905       20      -0.00008838       0.00005457      -0.00002673
Cs      15.15868474       3.36339795       8.31160279       21       0.00004626      -0.00002216      -0.00000591
K       10.38794666       1.16888055       3.54632048       22      -0.00004244       0.00008330      -0.00018183
In      11.16364154       2.30257362      -0.62252689       23      -0.00035959      -0.00022806      -0.00000476
I       10.73478831       4.16893662       1.65215961       24      -0.00004142      -0.00012977       0.00000817
I       15.44716436       6.43363629       5.91734116       25      -0.00010380      -0.00011067      -0.00012201
I       12.01839202       1.67546016       6.72409940       26       0.00032406       0.00020925      -0.00002503
I       18.55742948       1.80479677      -0.27377584       27      -0.00016488      -0.00005851       0.00002582
I        8.52560052       7.74962294       2.21483564       28      -0.00017890       0.00012984      -0.00013201
I        7.85628978       1.71048614       5.99677527       29       0.00010525      -0.00010546       0.00018699
Cs       5.07793073      12.09430106       8.71459408       30       0.00003948      -0.00005962       0.00007246
Cs      10.76474264      10.48567452       9.43078107       31      -0.00007731      -0.00004458       0.00000119
K        5.99396298       8.29121846       4.66538054       32       0.00003725      -0.00008706       0.00011807
In       6.76947930       9.42468213       0.49659055       33       0.00043397       0.00002451       0.00008736
I        6.34075888      11.29103327       2.77132067       34       0.00000115       0.00017300      -0.00005160
I       11.05311574      13.55586798       7.03645950       35       0.00005229       0.00009878       0.00011039
I        7.62452736       8.79788304       7.84320918       36      -0.00026290      -0.00023184       0.00006464
I       14.16327630       8.92689387       0.84543546       37       0.00024572       0.00011603      -0.00005150
I        4.13155467      14.87186731       3.33401432       38       0.00004251       0.00010348      -0.00005293
I        3.46235356       8.83273290       7.11603744       39      -0.00004947      -0.00004822      -0.00008758
