20
Lattice="17.0197021543075 -2.0742839910842044 -1.7880993240303737 -3.416185036687171 7.91120982632951 -0.1448733745607863 0.9822160671517444 0.5832412250465544 8.675264889350473" Properties=species:S:1:pos:R:3:spacegroup_kinds:I:1:forces:R:3 spacegroup="P 1" unit_cell=conventional occupancy="_JSON {\"0\": {\"Cs\": 1.0}, \"1\": {\"Cs\": 1.0}, \"2\": {\"K\": 1.0}, \"3\": {\"In\": 1.0}, \"4\": {\"I\": 1.0}, \"5\": {\"I\": 1.0}, \"6\": {\"I\": 1.0}, \"7\": {\"I\": 1.0}, \"8\": {\"I\": 1.0}, \"9\": {\"I\": 1.0}, \"10\": {\"Cs\": 1.0}, \"11\": {\"Cs\": 1.0}, \"12\": {\"K\": 1.0}, \"13\": {\"In\": 1.0}, \"14\": {\"I\": 1.0}, \"15\": {\"I\": 1.0}, \"16\": {\"I\": 1.0}, \"17\": {\"I\": 1.0}, \"18\": {\"I\": 1.0}, \"19\": {\"I\": 1.0}}" energy=-51.551561980833625 free_energy=-51.551561980833625 stress="7.430120877867003e-07 -8.641189867880519e-07 -1.1708580248705484e-06 -8.641189867880519e-07 -1.9031135885657117e-06 3.6670134007740326e-07 -1.1708580248705484e-06 3.6670134007740326e-07 -7.602652456344649e-07" pbc="T T T"
Cs       6.83381469       2.07004360       9.15799752        0      -0.00016525      -0.00040138      -0.00039798
Cs       1.59940221       4.30499471      -1.71561939        1      -0.00006513      -0.00009132       0.00006629
K        1.66964581      -0.24994193       4.24015964        2       0.00014453       0.00011375       0.00059503
In      -2.23760554       7.36972559      -0.24190638        3       0.00021571       0.00019614      -0.00006660
I        4.15341170       5.78386484       0.89974319        4       0.00005643       0.00013230       0.00038707
I        0.86320581       8.50185016       6.39722074        5       0.00037202       0.00017698      -0.00007901
I        1.94309134       1.92457357       1.40986383        6      -0.00004267      -0.00027974      -0.00014590
I        6.49007991       4.45000570       6.03251781        7      -0.00002451      -0.00013927      -0.00031755
I        8.21400402       4.76404696       0.50887209        8       0.00014522       0.00009383      -0.00026709
I        0.21908704       1.61026456       6.93377809        9      -0.00034141       0.00000131      -0.00044777
Cs      15.34351698       1.03192376       8.26322837       10       0.00017573       0.00037535       0.00021225
Cs      10.10937187       3.26764762      -2.60910374       11      -0.00008185      -0.00001520      -0.00007964
K       10.17962101      -1.28702379       3.34677355       12      -0.00015202      -0.00000378      -0.00037880
In       6.27228605       6.33265063      -1.13618707       13      -0.00021920      -0.00005835       0.00020029
I       12.66339936       4.74663900       0.00628601       14      -0.00004818      -0.00013437      -0.00026650
I        9.37341088       7.46470202       5.50309323       15      -0.00024635      -0.00019329       0.00003955
I       10.45316424       0.88688392       0.51576891       16      -0.00004030       0.00056243      -0.00000114
I       14.99977602       3.41287965       5.13821477       17      -0.00009056       0.00002832       0.00020033
I       -0.29557475       5.80138603       1.40234627       18      -0.00009006      -0.00019637       0.00036076
I        8.72860298       0.57321235       6.03926962       19       0.00049783      -0.00016734       0.00038640
