10
Lattice="12.774505058723811 1.2931875676844912e-09 -2.6906456480140423e-15 6.465937836571375e-10 6.387252529362093 1.922278915663907e-16 -1.3454322032434675e-15 1.9223245953814481e-16 6.3872525255639" Properties=species:S:1:pos:R:3:spacegroup_kinds:I:1:forces:R:3 spacegroup="P 1" unit_cell=conventional occupancy="_JSON {\"0\": {\"Cs\": 1.0}, \"1\": {\"Pb\": 1.0}, \"2\": {\"I\": 1.0}, \"3\": {\"I\": 1.0}, \"4\": {\"I\": 1.0}, \"5\": {\"Cs\": 1.0}, \"6\": {\"Pb\": 1.0}, \"7\": {\"I\": 1.0}, \"8\": {\"I\": 1.0}, \"9\": {\"I\": 1.0}}" energy=-27.96148466470521 free_energy=-27.96148466470521 stress="8.832980235700753e-06 -3.1966583004659404e-11 -1.0469690514857348e-17 -3.1966583004659404e-11 8.832980231228069e-06 -9.464639682253248e-19 -1.0469690514857348e-17 -9.464639682253248e-19 8.83312314662546e-06" pbc="T T T"
Cs       3.19398452       3.19326800       3.19362626        0       0.00001934      -0.00001934      -0.00000000
Pb       0.00000091      -0.00000091      -0.00000000        1       0.00003711      -0.00003711      -0.00000000
I       -0.00003163       0.00003163       3.19362626        2      -0.00001184       0.00001184       0.00000000
I        3.19364948       0.00003163       0.00000000        3      -0.00003277       0.00001184       0.00000000
I       -0.00003163       3.19360305       0.00000000        4      -0.00001184       0.00003277       0.00000000
Cs       9.58123705       3.19326800       3.19362626        5       0.00001934      -0.00001934      -0.00000000
Pb       6.38725344      -0.00000091      -0.00000000        6       0.00003711      -0.00003711      -0.00000000
I        6.38722090       0.00003163       3.19362626        7      -0.00001184       0.00001184       0.00000000
I        9.58090201       0.00003163       0.00000000        8      -0.00003277       0.00001184       0.00000000
I        6.38722090       3.19360305       0.00000000        9      -0.00001184       0.00003277       0.00000000
