10
Lattice="9.383106168546464 0.0 0.0 -5.906491027502539 6.353973969361705 0.0 3.565870194497995 0.8730979581043228 9.022984578878123" Properties=species:S:1:pos:R:3 pbc="T T T"
Cs       1.90220118       5.46663476      -0.00007223
Cs       6.99873358       3.34864343      -0.00007223
K        4.49510948       1.66719061       4.51151262
In       2.71219085       1.23066067       0.00006019
I        4.33717564       3.07134860       1.80525008
I        8.12969628       6.61703608       7.21783338
I        8.02486806       1.92903901       7.21782295
I        7.63626505       0.17467801       1.80520064
I       -3.64439437       4.86263776       1.80520064
I        4.01592757       3.59512315       7.21780374
