10
Lattice="9.795032023386632 0.523336525496985 -0.7032954933819032 -5.822416514636468 7.632795189060584 -0.03743539726089284 3.098245154869143 0.4230564293648526 8.434822131795492" Properties=species:S:1:pos:R:3:spacegroup_kinds:I:1:forces:R:3 spacegroup="P 1" unit_cell=conventional occupancy="_JSON {\"0\": {\"Cs\": 1.0}, \"1\": {\"Cs\": 1.0}, \"2\": {\"K\": 1.0}, \"3\": {\"In\": 1.0}, \"4\": {\"I\": 1.0}, \"5\": {\"I\": 1.0}, \"6\": {\"I\": 1.0}, \"7\": {\"I\": 1.0}, \"8\": {\"I\": 1.0}, \"9\": {\"I\": 1.0}}" energy=-25.409123181288404 free_energy=-25.409123181288404 stress="7.585874306836702e-06 -5.410437477104982e-06 -2.5704423254707243e-06 -5.410437477104982e-06 -6.800588525278363e-06 -7.724326425651411e-06 -2.5704423254707243e-06 -7.724326425651411e-06 4.918036530589727e-06" pbc="T T T"
Cs       5.22762431       7.11578114       7.66321846        0      -0.00007785       0.00008981      -0.00062767
Cs       0.27759959       4.19872429       8.48166363        1      -0.00027565       0.00029187       0.00033590
K        5.27914000       1.65991939       3.62751837        2       0.00002779      -0.00065230       0.00044385
In       2.63658747       1.33841020      -0.48455333        3      -0.00005754       0.00050233       0.00017764
I        3.54527492       3.65461208       1.16587801        4      -0.00008835       0.00002335      -0.00031267
I       -1.31067761       7.08649291       6.33429163        5       0.00028816       0.00024906       0.00076187
I        7.99115193       1.72454326       6.24144333        6       0.00016074      -0.00031243      -0.00012766
I        8.13108490       1.75666541       1.75807368        7       0.00006518      -0.00012848      -0.00003330
I       -3.02727989       7.30801121       1.75693149        8       0.00055914      -0.00010015      -0.00011520
I        3.79957737       3.45266956       6.66128557        9      -0.00060161       0.00003694      -0.00050276
