40
Lattice="21.40307603067721 0.0 0.0 -10.741436762938482 11.555221072453689 0.0 -1.076088446900786 1.6629317113489726 7.113186516263398" Properties=species:S:1:pos:R:3 pbc="T T T"
Cs       4.26876365       2.52321729       0.02260137
Cs      -2.15789061       6.10142892       7.09048811
K       -0.53804422       0.83146586       3.55659326
In      -1.07193563       0.59206402       0.00004241
I       -2.67742642       2.44605315       1.42294852
I        4.78828827       6.17867172       5.69026075
I       -0.51708776       3.43068079       5.69028145
I        2.62794590       5.19390899       1.42296922
I       -3.85200146       6.68939647       1.42294843
I        5.96288686       1.93525206       5.69026066
Cs      -1.10195473       8.30082782       0.02260137
Cs      -7.52860899      11.87903946       7.09048811
K       -5.90876260       6.60907639       3.55659326
In      -6.44265401       6.36967456       0.00004241
I       -8.04814480       8.22366368       1.42294852
I       -0.58243011      11.95628225       5.69026075
I       -5.88780614       9.20829133       5.69028145
I       -2.74277248      10.97151952       1.42296922
I       -9.22271984      12.46700701       1.42294843
I        0.59216848       7.71286260       5.69026066
Cs      14.97030167       2.52321729       0.02260137
Cs       8.54364741       6.10142892       7.09048811
K       10.16349379       0.83146586       3.55659326
In       9.62960239       0.59206402       0.00004241
I        8.02411160       2.44605315       1.42294852
I       15.48982629       6.17867172       5.69026075
I       10.18445026       3.43068079       5.69028145
I       13.32948392       5.19390899       1.42296922
I        6.84953656       6.68939647       1.42294843
I       16.66442488       1.93525206       5.69026066
Cs       9.59958328       8.30082782       0.02260137
Cs       3.17292902      11.87903946       7.09048811
K        4.79277541       6.60907639       3.55659326
In       4.25888401       6.36967456       0.00004241
I        2.65339322       8.22366368       1.42294852
I       10.11910791      11.95628225       5.69026075
I        4.81373187       9.20829133       5.69028145
I        7.95876554      10.97151952       1.42296922
I        1.47881817      12.46700701       1.42294843
I       11.29370650       7.71286260       5.69026066
