40
Lattice="17.199170440457895 0.16373581260981865 1.1352000059626128 -8.632199974156727 14.754498480107392 -2.2215566265604103 -0.5827865912314307 0.9657556093110974 8.677468452502668" Properties=species:S:1:pos:R:3:spacegroup_kinds:I:1:forces:R:3 spacegroup="P 1" unit_cell=conventional occupancy="_JSON {\"0\": {\"Cs\": 1.0}, \"1\": {\"Cs\": 1.0}, \"2\": {\"K\": 1.0}, \"3\": {\"In\": 1.0}, \"4\": {\"I\": 1.0}, \"5\": {\"I\": 1.0}, \"6\": {\"I\": 1.0}, \"7\": {\"I\": 1.0}, \"8\": {\"I\": 1.0}, \"9\": {\"I\": 1.0}, \"10\": {\"Cs\": 1.0}, \"11\": {\"Cs\": 1.0}, \"12\": {\"K\": 1.0}, \"13\": {\"In\": 1.0}, \"14\": {\"I\": 1.0}, \"15\": {\"I\": 1.0}, \"16\": {\"I\": 1.0}, \"17\": {\"I\": 1.0}, \"18\": {\"I\": 1.0}, \"19\": {\"I\": 1.0}, \"20\": {\"Cs\": 1.0}, \"21\": {\"Cs\": 1.0}, \"22\": {\"K\": 1.0}, \"23\": {\"In\": 1.0}, \"24\": {\"I\": 1.0}, \"25\": {\"I\": 1.0}, \"26\": {\"I\": 1.0}, \"27\": {\"I\": 1.0}, \"28\": {\"I\": 1.0}, \"29\": {\"I\": 1.0}, \"30\": {\"Cs\": 1.0}, \"31\": {\"Cs\": 1.0}, \"32\": {\"K\": 1.0}, \"33\": {\"In\": 1.0}, \"34\": {\"I\": 1.0}, \"35\": {\"I\": 1.0}, \"36\": {\"I\": 1.0}, \"37\": {\"I\": 1.0}, \"38\": {\"I\": 1.0}, \"39\": {\"I\": 1.0}}" energy=-103.10312272656384 free_energy=-103.10312272656384 stress="3.7257602577741324e-07 -4.6183652970482434e-07 -2.409920029904143e-06 -4.6183652970482434e-07 -1.1253162739328828e-06 -9.370541282792966e-07 -2.409920029904143e-06 -9.370541282792966e-07 1.9330537232618362e-06" pbc="T T T"
Cs       3.60132068       3.05429987      -1.34309194        0      -0.00016881      -0.00000328      -0.00017904
Cs      -1.45122175       6.72354601       9.22270449        1       0.00010784       0.00036769      -0.00006095
K       -1.06629450       1.15998925       4.21154171        2      -0.00041553      -0.00009016      -0.00035294
In      16.42385248       0.84030218       1.00806900        3      -0.00025244       0.00037877      -0.00006182
I       14.07321594       1.94860063       2.48542052        4       0.00075628       0.00023230       0.00033589
I        5.27610882       7.99385582       6.52946697        5      -0.00031986      -0.00033046      -0.00041392
I       -1.54837457       3.84104356       6.53401833        6      -0.00018644       0.00018029      -0.00023996
I        3.69808476       5.93719220       1.34520867        7       0.00059940      -0.00001470       0.00037888
I       -3.28005958       9.72175391       0.45666732        8       0.00076312       0.00042604      -0.00008812
I        5.43024413       0.05602785       7.42333179        9      -0.00023724       0.00019283      -0.00012079
Cs      -0.71484973      10.43111598      -2.45298262       10       0.00010012       0.00004809      -0.00044917
Cs      -5.76735082      14.10122727       8.11154961       11       0.00012135       0.00008847       0.00018969
K       -5.38266937       8.53778845       3.10085470       12      -0.00002683      -0.00069714      -0.00043638
In      12.10778677       8.21771587      -0.10299150       13      -0.00001736       0.00001149       0.00020034
I        9.75791445       9.32689981       1.37476017       14      -0.00051333      -0.00041774      -0.00040803
I        0.95958977      15.37024040       5.41838004       15      -0.00021885       0.00038987       0.00039724
I       -5.86422167      11.21837703       5.42268230       16      -0.00013496       0.00021443       0.00030680
I       -0.61751595      13.31467081       0.23545775       17       0.00003014      -0.00012250      -0.00018046
I        1.03648430       2.34438692       1.56725041       18      -0.00019567       0.00012056       0.00043394
I        1.11368139       7.43408581       6.31189006       19       0.00045980       0.00013997      -0.00008528
Cs      12.20044234       3.13623638      -0.77571905       20       0.00022099       0.00010752       0.00014374
Cs       7.14885456       6.80600934       9.79047930       21      -0.00012445       0.00010075      -0.00014872
K        7.53277329       1.24110953       4.77902659       22       0.00001760       0.00027547       0.00006926
In       7.82427330       0.75859854       0.44037211       23       0.00046069      -0.00016117      -0.00025918
I        5.47408633       1.86742298       1.91780084       24       0.00009987      -0.00035242       0.00025857
I       13.87510738       8.07468910       7.09674842       25       0.00002537       0.00014110       0.00035623
I        7.05087606       3.92275293       7.10122401       26       0.00026980       0.00018127       0.00000147
I       12.29817015       6.01946746       1.91381001       27      -0.00037186      -0.00025818      -0.00040109
I        5.31961853       9.80381141       1.02429489       28      -0.00001443      -0.00000138      -0.00011694
I       14.02976208       0.13844798       7.99068145       29      -0.00045789      -0.00027783      -0.00025565
Cs       7.88471907      10.51380747      -1.88669122       30       0.00003909      -0.00009004       0.00049429
Cs       2.83230725      14.18362824       8.67977415       31       0.00003208      -0.00024091      -0.00017472
K        3.21704335       8.61835011       3.66808451       32      -0.00019257       0.00034254       0.00017585
In       3.50822931       8.13614846      -0.67085398       33      -0.00047398       0.00011192       0.00033311
I        1.15770109       9.24382252       0.80726616       34       0.00030466       0.00029132      -0.00004527
I        9.55899601      15.45238815       5.98599778       35       0.00063714      -0.00037029       0.00001624
I        2.73513435      11.30070133       5.99052706       36      -0.00005737      -0.00059450       0.00010087
I        7.98217895      13.39644340       0.80298144       37      -0.00013855      -0.00012456      -0.00004634
I        9.63609455       2.42648778       2.13488286       38      -0.00037387      -0.00022246       0.00009702
I        9.71335826       7.51584230       6.87969516       39      -0.00015303       0.00002704       0.00023535
