40
Lattice="16.692914547626774 0.0 0.0 -5.830929230721117 15.804976995864566 0.0 0.49502732671933214 -2.294695569690075 8.645386273221673" Properties=species:S:1:pos:R:3 pbc="T T T"
Cs       1.78731842       6.16881396      -0.00002192
Cs       5.54129238       3.53465113      -0.00002192
K        1.19632783      -0.24686715       4.32270360
In       0.94881993       0.90049456       0.00002440
I        2.47186756       2.51343404       1.72967635
I        5.35179399       4.89534173       6.91575120
I        3.53324130      -0.93512545       6.91575122
I        7.20586033       0.44138482       1.72967637
I       -2.05199018       5.37136058       1.72965571
I       -0.36844711       0.23643235       6.91573056
Cs      -1.12814620      14.07130246      -0.00002192
Cs       2.62582776      11.43713963      -0.00002192
K       -1.71913679       7.65562134       4.32270360
In      -1.96664469       8.80298306       0.00002440
I       -0.44359705      10.41592254       1.72967635
I        2.43632937      12.79783022       6.91575120
I        0.61777668       6.96736305       6.91575122
I        4.29039572       8.34387332       1.72967637
I       -4.96745479      13.27384907       1.72965571
I       -3.28391173       8.13892085       6.91573056
Cs      10.13377569       6.16881396      -0.00002192
Cs      13.88774965       3.53465113      -0.00002192
K        9.54278510      -0.24686715       4.32270360
In       9.29527720       0.90049456       0.00002440
I       10.81832483       2.51343404       1.72967635
I       13.69825126       4.89534173       6.91575120
I       11.87969857      -0.93512545       6.91575122
I       15.55231761       0.44138482       1.72967637
I        6.29446710       5.37136058       1.72965571
I        7.97801016       0.23643235       6.91573056
Cs       7.21831107      14.07130246      -0.00002192
Cs      10.97228504      11.43713963      -0.00002192
K        6.62732049       7.65562134       4.32270360
In       6.37981258       8.80298306       0.00002440
I        7.90286022      10.41592254       1.72967635
I       10.78278665      12.79783022       6.91575120
I        8.96423395       6.96736305       6.91575122
I       12.63685299       8.34387332       1.72967637
I        3.37900248      13.27384907       1.72965571
I        5.06254555       8.13892085       6.91573056
