20
Lattice="18.294781070098885 0.7140983472756672 -1.381071295316178 4.280318937952869 8.169474875157535 0.09075668490959443 5.0046298996165275 2.4292618647258095 6.707580973170368" Properties=species:S:1:pos:R:3:spacegroup_kinds:I:1:forces:R:3 spacegroup="P 1" unit_cell=conventional occupancy="_JSON {\"0\": {\"Cs\": 1.0}, \"1\": {\"Cs\": 1.0}, \"2\": {\"K\": 1.0}, \"3\": {\"In\": 1.0}, \"4\": {\"I\": 1.0}, \"5\": {\"I\": 1.0}, \"6\": {\"I\": 1.0}, \"7\": {\"I\": 1.0}, \"8\": {\"I\": 1.0}, \"9\": {\"I\": 1.0}, \"10\": {\"Cs\": 1.0}, \"11\": {\"Cs\": 1.0}, \"12\": {\"K\": 1.0}, \"13\": {\"In\": 1.0}, \"14\": {\"I\": 1.0}, \"15\": {\"I\": 1.0}, \"16\": {\"I\": 1.0}, \"17\": {\"I\": 1.0}, \"18\": {\"I\": 1.0}, \"19\": {\"I\": 1.0}}" energy=-51.29789347808585 free_energy=-51.29789347808585 stress="-6.508619391933308e-07 -1.3069081797924546e-07 9.931557291307178e-07 -1.3069081797924546e-07 -3.475279363747827e-07 -3.412933737670032e-07 9.931557291307178e-07 -3.412933737670032e-07 -7.169022195931255e-07" pbc="T T T"
Cs       4.63722295       2.71796537       1.71407265        0      -0.00008634      -0.00025283      -0.00003629
Cs      13.79498694       8.23856492       4.39403335        1       0.00010883      -0.00027796      -0.00008300
K        9.21614154       5.47777148       3.05381640        2       0.00014958       0.00002104       0.00003836
In      18.29478150       0.71382850      -1.38114915        3      -0.00012162       0.00050612       0.00020248
I        7.22583390       3.19647108       4.88113458        4       0.00009698      -0.00007695       0.00001324
I       11.20624499       7.75932113       1.22652413        5       0.00009097       0.00010865      -0.00005707
I        9.89099822       2.59298631       1.12167690        6      -0.00018118       0.00017744      -0.00000076
I        8.54124160       8.36217253       4.98624961        7       0.00042725       0.00046075       0.00019561
I        6.13128549       6.34597918       1.55084000        8      -0.00020268       0.00003485      -0.00017789
I       12.30129820       4.60983531       4.55679310        9       0.00017206      -0.00004085       0.00023301
Cs      13.78443479       3.07500451       1.02357773       10       0.00021653      -0.00023658      -0.00007670
Cs      22.94254949       8.59561337       3.70344657       11      -0.00013924      -0.00027031      -0.00002862
K       18.36356976       5.83479864       2.36324945       12       0.00012848       0.00010127       0.00009493
In       9.14742617       0.35702759      -0.69051804       13      -0.00024265      -0.00019384      -0.00024710
I       16.37332964       3.55338451       4.19053480       14      -0.00008526       0.00027169       0.00010490
I       20.35373315       8.11648657       0.53595257       15      -0.00012216      -0.00017154       0.00011567
I       19.03821507       2.95013756       0.43121048       16       0.00010730      -0.00023921      -0.00026245
I       17.68897381       8.71945713       4.29582753       17      -0.00019105       0.00003470      -0.00018306
I       15.27849951       6.70292142       0.86017517       18       0.00013651       0.00009346       0.00027289
I       21.44897131       4.96693256       3.86634072       19      -0.00026230      -0.00004991      -0.00011814
