40
Lattice="16.793037593298397 -3.783980692288034 0.9091568980196986 -5.048384504250051 16.345663735889023 -2.106324963878605 -0.23290636282058721 1.0460495466475648 8.684458000459635" Properties=species:S:1:pos:R:3:spacegroup_kinds:I:1:forces:R:3 spacegroup="P 1" unit_cell=conventional occupancy="_JSON {\"0\": {\"Cs\": 1.0}, \"1\": {\"Cs\": 1.0}, \"2\": {\"K\": 1.0}, \"3\": {\"In\": 1.0}, \"4\": {\"I\": 1.0}, \"5\": {\"I\": 1.0}, \"6\": {\"I\": 1.0}, \"7\": {\"I\": 1.0}, \"8\": {\"I\": 1.0}, \"9\": {\"I\": 1.0}, \"10\": {\"Cs\": 1.0}, \"11\": {\"Cs\": 1.0}, \"12\": {\"K\": 1.0}, \"13\": {\"In\": 1.0}, \"14\": {\"I\": 1.0}, \"15\": {\"I\": 1.0}, \"16\": {\"I\": 1.0}, \"17\": {\"I\": 1.0}, \"18\": {\"I\": 1.0}, \"19\": {\"I\": 1.0}, \"20\": {\"Cs\": 1.0}, \"21\": {\"Cs\": 1.0}, \"22\": {\"K\": 1.0}, \"23\": {\"In\": 1.0}, \"24\": {\"I\": 1.0}, \"25\": {\"I\": 1.0}, \"26\": {\"I\": 1.0}, \"27\": {\"I\": 1.0}, \"28\": {\"I\": 1.0}, \"29\": {\"I\": 1.0}, \"30\": {\"Cs\": 1.0}, \"31\": {\"Cs\": 1.0}, \"32\": {\"K\": 1.0}, \"33\": {\"In\": 1.0}, \"34\": {\"I\": 1.0}, \"35\": {\"I\": 1.0}, \"36\": {\"I\": 1.0}, \"37\": {\"I\": 1.0}, \"38\": {\"I\": 1.0}, \"39\": {\"I\": 1.0}}" energy=-103.10312114904607 free_energy=-103.10312114904607 stress="8.246438059297082e-08 1.2950760637034445e-06 2.3663080365867516e-06 1.2950760637034445e-06 -5.273543553494225e-07 -8.884203767141658e-07 2.3663080365867516e-06 -8.884203767141658e-07 1.5671843362921793e-06" pbc="T T T"
Cs       1.94375949       6.17682830       6.88106380        0       0.00016474       0.00025187      -0.00027502
Cs       5.51838268       3.11814851       9.83238733        1      -0.00042951      -0.00031049       0.00066020
K        0.91185457       0.98373569       4.31404420        2      -0.00018504       0.00005154      -0.00019904
In       1.02789933       0.46122756      -0.02841818        3       0.00017615       0.00001334      -0.00011081
I        1.81591367       2.93583980       1.45206148        4       0.00002514      -0.00067371      -0.00024071
I        5.88003486       5.31363817       6.57709030        5      -0.00053745      -0.00034914       0.00006876
I        3.23242210       1.72016316       6.93822750        6      -0.00025575       0.00004974       0.00062195
I        6.98681007      -1.64478069       2.14436660        7      -0.00004163       0.00049267       0.00001394
I        0.01354096       6.99792912       0.91372689        8      -0.00008999       0.00008121       0.00001480
I       -0.71496856       3.14255410       6.66056045        9       0.00005245       0.00039974       0.00056723
Cs      -0.57981592      14.34968525       5.82756482       10      -0.00021839       0.00020184       0.00027838
Cs       2.99392091      11.29096658       8.78099109       11      -0.00017921      -0.00032185      -0.00041123
K       15.18048937       5.37262229       4.17029124       12      -0.00008484       0.00009443      -0.00005763
In      -1.49604769       8.63403040      -1.08124772       13      -0.00026581       0.00008937       0.00031436
I       -0.70820037      11.10843676       0.39934064       14      -0.00010913      -0.00000966       0.00014199
I        3.35512734      13.48606688       5.52461381       15       0.00001311       0.00025900      -0.00003676
I        0.70827164       9.89350726       5.88562190       16       0.00007987      -0.00037427       0.00034424
I        4.46247327       6.52794344       1.09090962       17       0.00027711       0.00039469       0.00029805
I       -2.51081744      15.17085911      -0.13979657       18      -0.00001036      -0.00001633      -0.00006718
I       -3.23869686      11.31578415       5.60814453       19      -0.00053709       0.00028233       0.00018806
Cs      10.34055606       4.28557882       7.33640954       20       0.00007707       0.00004062      -0.00008737
Cs      13.91419159       1.22540356      10.28779803       21       0.00028440       0.00031041      -0.00004377
K        9.30743615      -0.90795095       4.76930603       22       0.00022552       0.00008970      -0.00000905
In       9.42413440      -1.43114000       0.42715445       23       0.00033935      -0.00012618       0.00011121
I       10.21201514       1.04339102       1.90774836       24      -0.00003164      -0.00000778      -0.00011550
I       14.27583064       3.42161449       7.03216779       25       0.00007084      -0.00025547      -0.00006360
I       11.62864521      -0.17221199       7.39417560       26      -0.00008044       0.00025033      -0.00018188
I       15.38369112      -3.53485282       2.59856129       27      -0.00024936      -0.00073303       0.00001925
I        8.40960897       5.10590176       1.36918786       28       0.00005607       0.00030272      -0.00024784
I        7.68187814       1.25137050       7.11664776       29       0.00004644      -0.00056436      -0.00038764
Cs       7.81665252      12.45829927       6.28320234       30      -0.00000377      -0.00010445      -0.00011707
Cs      11.38998971       9.39799039       9.23533232       31       0.00041625       0.00040594      -0.00040520
K        6.78321402       7.26547022       3.71591100       32       0.00020347      -0.00010791       0.00017005
In       6.89990598       6.74181946      -0.62612451       33       0.00036363       0.00018764       0.00011291
I        7.68777353       9.21633264       0.85444636       34      -0.00008102       0.00025026       0.00039825
I       11.75145433      11.59420877       5.97896995       35       0.00018906       0.00008160       0.00010205
I        9.10447911       8.00151025       6.34123303       36       0.00004549      -0.00012361      -0.00052670
I       12.85949071       4.63720814       1.54576819       37       0.00023546      -0.00031806      -0.00032914
I        5.88559459      13.27867948       0.31599909       38       0.00003002       0.00012551      -0.00005996
I        5.15733754       9.42427289       6.06375163       39       0.00001878      -0.00031017      -0.00045258
