40
Lattice="12.61015869584417 -0.841386964132309 -1.8620053516552804 0.5746628181634474 12.629442543415804 -1.8279798606529778 1.9611159114222285 1.7219116447791636 12.504896471073877" Properties=species:S:1:pos:R:3:spacegroup_kinds:I:1:forces:R:3 spacegroup="P 1" unit_cell=conventional occupancy="_JSON {\"0\": {\"Cs\": 1.0}, \"1\": {\"Pb\": 1.0}, \"2\": {\"I\": 1.0}, \"3\": {\"I\": 1.0}, \"4\": {\"I\": 1.0}, \"5\": {\"Cs\": 1.0}, \"6\": {\"Pb\": 1.0}, \"7\": {\"I\": 1.0}, \"8\": {\"I\": 1.0}, \"9\": {\"I\": 1.0}, \"10\": {\"Cs\": 1.0}, \"11\": {\"Pb\": 1.0}, \"12\": {\"I\": 1.0}, \"13\": {\"I\": 1.0}, \"14\": {\"I\": 1.0}, \"15\": {\"Cs\": 1.0}, \"16\": {\"Pb\": 1.0}, \"17\": {\"I\": 1.0}, \"18\": {\"I\": 1.0}, \"19\": {\"I\": 1.0}, \"20\": {\"Cs\": 1.0}, \"21\": {\"Pb\": 1.0}, \"22\": {\"I\": 1.0}, \"23\": {\"I\": 1.0}, \"24\": {\"I\": 1.0}, \"25\": {\"Cs\": 1.0}, \"26\": {\"Pb\": 1.0}, \"27\": {\"I\": 1.0}, \"28\": {\"I\": 1.0}, \"29\": {\"I\": 1.0}, \"30\": {\"Cs\": 1.0}, \"31\": {\"Pb\": 1.0}, \"32\": {\"I\": 1.0}, \"33\": {\"I\": 1.0}, \"34\": {\"I\": 1.0}, \"35\": {\"Cs\": 1.0}, \"36\": {\"Pb\": 1.0}, \"37\": {\"I\": 1.0}, \"38\": {\"I\": 1.0}, \"39\": {\"I\": 1.0}}" energy=-111.84594297501278 free_energy=-111.84594297501278 stress="8.476152522106839e-06 2.888369177658762e-06 -1.3374831627822699e-06 2.888369177658762e-06 1.365704864109795e-07 2.1837284681014558e-06 -1.3374831627822699e-06 2.1837284681014558e-06 4.147251899706851e-06" pbc="T T T"
Cs       3.78322451       3.37663594       2.20617994        0      -0.00028451      -0.00011262       0.00007170
Pb       0.00011347      -0.00039876      -0.00081102        1      -0.00005190       0.00032486       0.00003383
I        0.49166231       0.43074249       3.12517919        2       0.00019984       0.00014046       0.00040602
I        3.15304528      -0.20958424      -0.46587481        3       0.00005347       0.00002462      -0.00027479
I       12.75512571       2.31616141      -2.31922444        4       0.00008306      -0.00037731      -0.00023669
Cs       4.76378246       4.23759176       8.45862817        5      -0.00028451      -0.00011261       0.00007170
Pb       0.98067142       0.86055706       6.25163723        6      -0.00005190       0.00032488       0.00003379
I        1.47222026       1.29169831       9.37762744        7       0.00019983       0.00014044       0.00040592
I        4.13360323       0.65137159       5.78657342        8       0.00005350       0.00002461      -0.00027480
I        1.12552497       4.01850419       5.79522915        9       0.00008306      -0.00037731      -0.00023669
Cs       4.07055592       9.69135721       1.29219001       10      -0.00028451      -0.00011262       0.00007170
Pb      12.89760358       5.47293554      -2.77680629       11      -0.00005191       0.00032489       0.00003380
I        0.77899372       6.74546377       2.21118926       12       0.00019984       0.00014046       0.00040602
I        3.44037669       6.10513704      -1.37986474       13       0.00005348       0.00002461      -0.00027479
I       13.04245712       8.63088268      -3.23321437       14       0.00008306      -0.00037733      -0.00023668
Cs       5.05111387      10.55231304       7.54463824       15      -0.00028451      -0.00011262       0.00007171
Pb       1.26800283       7.17527833       5.33764729       16      -0.00005188       0.00032486       0.00003382
I        1.75955167       7.60641959       8.46363751       17       0.00019983       0.00014044       0.00040592
I        4.42093465       6.96609286       4.87258349       18       0.00005346       0.00002462      -0.00027479
I        1.41285638      10.33322547       4.88123922       19       0.00008306      -0.00037733      -0.00023668
Cs      10.08830386       2.95594246       1.27517726       20      -0.00028452      -0.00011262       0.00007170
Pb       6.30519281      -0.42109224      -0.93181369       21      -0.00005187       0.00032487       0.00003382
I        6.79674166       0.01004901       2.19417651       22       0.00019984       0.00014046       0.00040604
I        9.45812462      -0.63027772      -1.39687748       23       0.00005355       0.00002461      -0.00027481
I        6.45004636       2.73685489      -1.38822176       24       0.00008306      -0.00037732      -0.00023668
Cs      11.06886181       3.81689828       7.52762549       25      -0.00028452      -0.00011261       0.00007171
Pb       7.28575077       0.43986357       5.32063456       26      -0.00005187       0.00032490       0.00003379
I        7.77729961       0.87100483       8.44662477       27       0.00019982       0.00014044       0.00040591
I       10.43868258       0.23067811       4.85557075       28       0.00005352       0.00002461      -0.00027480
I        7.43060432       3.59781072       4.86422647       29       0.00008306      -0.00037734      -0.00023668
Cs      10.37563526       9.27066373       0.36118733       30      -0.00028452      -0.00011261       0.00007169
Pb       6.59252422       5.89362903      -1.84580361       31      -0.00005186       0.00032487       0.00003376
I        7.08407306       6.32477028       1.28018659       32       0.00019984       0.00014045       0.00040600
I        9.74545603       5.68444356      -2.31086742       33       0.00005354       0.00002461      -0.00027480
I        6.73737777       9.05157616      -2.30221169       34       0.00008306      -0.00037732      -0.00023668
Cs      11.35619322      10.13161955       6.61363556       35      -0.00028452      -0.00011262       0.00007171
Pb       7.57308218       6.75458485       4.40664461       36      -0.00005189       0.00032485       0.00003385
I        8.06463102       7.18572610       7.53263483       37       0.00019983       0.00014045       0.00040594
I       10.72601398       6.54539938       3.94158082       38       0.00005356       0.00002461      -0.00027481
I        7.71793573       9.91253198       3.95023655       39       0.00008306      -0.00037730      -0.00023669
