40
Lattice="18.359614193074073 -0.013692263937111185 -0.022606418485434758 9.15817140294405 14.820745909822742 0.3466795086298437 4.584519184001115 2.637426876355644 7.554870870961477" Properties=species:S:1:pos:R:3:spacegroup_kinds:I:1:forces:R:3 spacegroup="P 1" unit_cell=conventional occupancy="_JSON {\"0\": {\"Cs\": 1.0}, \"1\": {\"Cs\": 1.0}, \"2\": {\"K\": 1.0}, \"3\": {\"In\": 1.0}, \"4\": {\"I\": 1.0}, \"5\": {\"I\": 1.0}, \"6\": {\"I\": 1.0}, \"7\": {\"I\": 1.0}, \"8\": {\"I\": 1.0}, \"9\": {\"I\": 1.0}, \"10\": {\"Cs\": 1.0}, \"11\": {\"Cs\": 1.0}, \"12\": {\"K\": 1.0}, \"13\": {\"In\": 1.0}, \"14\": {\"I\": 1.0}, \"15\": {\"I\": 1.0}, \"16\": {\"I\": 1.0}, \"17\": {\"I\": 1.0}, \"18\": {\"I\": 1.0}, \"19\": {\"I\": 1.0}, \"20\": {\"Cs\": 1.0}, \"21\": {\"Cs\": 1.0}, \"22\": {\"K\": 1.0}, \"23\": {\"In\": 1.0}, \"24\": {\"I\": 1.0}, \"25\": {\"I\": 1.0}, \"26\": {\"I\": 1.0}, \"27\": {\"I\": 1.0}, \"28\": {\"I\": 1.0}, \"29\": {\"I\": 1.0}, \"30\": {\"Cs\": 1.0}, \"31\": {\"Cs\": 1.0}, \"32\": {\"K\": 1.0}, \"33\": {\"In\": 1.0}, \"34\": {\"I\": 1.0}, \"35\": {\"I\": 1.0}, \"36\": {\"I\": 1.0}, \"37\": {\"I\": 1.0}, \"38\": {\"I\": 1.0}, \"39\": {\"I\": 1.0}}" energy=-102.595787285392 free_energy=-102.595787285392 stress="-5.885996357384978e-07 8.003617520099961e-07 1.7091981651000944e-07 8.003617520099961e-07 -3.1802647109700185e-07 8.092617215764855e-08 1.7091981651000944e-07 8.092617215764855e-08 -5.052817430413337e-07" pbc="T T T"
Cs       4.60030773       2.68505865       1.85439597        0      -0.00009445      -0.00011522      -0.00020857
Cs      13.74372993       7.35618203       5.86207193        1      -0.00018739      -0.00006863       0.00010907
K        9.17176148       5.02054427       3.85853919        2      -0.00029620       0.00003358      -0.00006887
In      18.35958239      -0.01363466      -0.02262435        3       0.00011246      -0.00004595       0.00012200
I        6.24460732       3.63805586       5.29079877        4      -0.00009871       0.00028171       0.00056873
I       12.09832290       6.40282203       2.42573113        5       0.00045096       0.00018620      -0.00026895
I        9.87280548       2.40188316       1.58660735        6       0.00008442       0.00006534       0.00003394
I        8.47022058       7.63924951       6.13021100        7      -0.00007839      -0.00032351      -0.00016239
I        6.96137102       6.01243534       1.28252325        8       0.00016983      -0.00005643       0.00000792
I       11.38206677       4.02827019       6.43386912        9       0.00018449       0.00000426       0.00000897
Cs       9.17910773      10.09546623       2.02739857       10       0.00004715       0.00001125       0.00015667
Cs      18.32289518      14.76631057       6.03557015       11      -0.00014497      -0.00002613      -0.00018613
K       13.75075484      12.43093601       4.03194926       12      -0.00022574       0.00002334      -0.00019816
In      22.93873202       7.39666801       0.15089618       13       0.00028592       0.00003063      -0.00011109
I       10.82357551      11.04855434       5.46461499       14       0.00046886       0.00018558      -0.00053439
I       16.67750048      13.81326066       2.59873124       15      -0.00021184      -0.00003480       0.00049271
I       14.45192424       9.81221940       1.76011484       16       0.00003861      -0.00007033      -0.00008955
I       13.04928586      15.04979387       6.30316985       17      -0.00037204      -0.00002727       0.00026345
I       11.54037652      13.42276624       1.45561202       18       0.00009065      -0.00019513       0.00013425
I       15.96123626      11.43833410       6.60728457       19      -0.00008723       0.00042472      -0.00009390
Cs      13.77937576       2.67817684       1.84311877       20      -0.00018768       0.00002531       0.00034859
Cs      22.92342360       7.34947231       5.85135667       21       0.00004723      -0.00019299      -0.00010352
K       18.35176631       5.01337097       3.84720732       22       0.00000422       0.00014589       0.00004364
In       9.17981310      -0.00684617      -0.01149106       23      -0.00002908      -0.00015845       0.00047795
I       15.42470099       3.63122223       5.28001251       24       0.00015728      -0.00008721      -0.00042661
I       21.27863929       6.39588935       2.41441909       25      -0.00023801      -0.00006039       0.00063091
I       19.05325086       2.39469285       1.57573519       26       0.00021630       0.00030715      -0.00016851
I       17.64998788       7.63215322       6.11891982       27       0.00032803      -0.00002351      -0.00004754
I       16.14104231       6.00564771       1.27156475       28      -0.00006939       0.00003486       0.00005873
I       20.56183167       4.02198656       6.42360133       29       0.00018411      -0.00007083      -0.00034455
Cs      18.35831655      10.08861303       2.01650891       30       0.00015561       0.00000692       0.00009655
Cs      27.50227348      14.75964390       6.02449054       31       0.00001536      -0.00001471       0.00027810
K       22.93080363      12.42373921       4.02070822       32       0.00006651       0.00010379      -0.00018533
In      13.75898881       7.40349691       0.16203078       33      -0.00027711      -0.00037023       0.00001764
I       20.00383623      11.04153067       5.45307287       34      -0.00022146      -0.00018675       0.00037060
I       25.85759220      13.80652661       2.58815110       35       0.00012707      -0.00021000      -0.00060684
I       23.63236408       9.80535344       1.74882686       36      -0.00008222       0.00000803       0.00011710
I       22.22916565      15.04241121       6.29235791       37       0.00020273       0.00012519      -0.00019978
I       20.72007317      13.41609904       1.44517991       38      -0.00011562       0.00005482      -0.00031985
I       25.14109185      11.43196250       6.59661545       39      -0.00042025       0.00027989      -0.00001300
