40
Lattice="16.006114048494567 0.0 0.0 17.50424571024568 10.824073737304216 0.0 4.353529330426859 -4.933488434393579 3.791620912374768" Properties=species:S:1:pos:R:3 pbc="T T T"
Cs       5.27711855       0.11962009       0.94792480
Cs      15.83159058       0.35892785       2.84369578
K       10.55435462       0.23927380       1.89581024
In       0.00000017       0.00000027       0.00000012
I        7.81327262      -3.34603809       2.08902948
I       13.29543659       3.82458556       1.70259103
I       10.75246347       0.13128353       1.76744679
I       10.35624461       0.34726416       2.02417329
I        9.99862391       2.21115988      -0.00519027
I       11.11008544      -1.73261025       3.79681206
Cs      14.02924141       5.53165696       0.94792480
Cs      24.58371343       5.77096472       2.84369578
K       19.30647748       5.65131067       1.89581024
In       8.75212303       5.41203714       0.00000012
I       16.56539547       2.06599877       2.08902948
I       22.04755945       9.23662243       1.70259103
I       19.50458632       5.54332040       1.76744679
I       19.10836746       5.75930103       2.02417329
I       18.75074677       7.62319675      -0.00519027
I       19.86220830       3.67942662       3.79681206
Cs      13.28017558       0.11962009       0.94792480
Cs      23.83464760       0.35892785       2.84369578
K       18.55741164       0.23927380       1.89581024
In       8.00305720       0.00000027       0.00000012
I       15.81632964      -3.34603809       2.08902948
I       21.29849362       3.82458556       1.70259103
I       18.75552049       0.13128353       1.76744679
I       18.35930163       0.34726416       2.02417329
I       18.00168093       2.21115988      -0.00519027
I       19.11314246      -1.73261025       3.79681206
Cs      22.03229843       5.53165696       0.94792480
Cs      32.58677046       5.77096472       2.84369578
K       27.30953450       5.65131067       1.89581024
In      16.75518005       5.41203714       0.00000012
I       24.56845250       2.06599877       2.08902948
I       30.05061647       9.23662243       1.70259103
I       27.50764334       5.54332040       1.76744679
I       27.11142449       5.75930103       2.02417329
I       26.75380379       7.62319675      -0.00519027
I       27.86526532       3.67942662       3.79681206
