40
Lattice="12.774139430066889 8.346050864945398e-11 3.063687817945169e-16 8.346050896098135e-11 12.774139430067414 -4.556263977695865e-16 3.061800414284936e-16 -4.55288026675761e-16 12.774139429151091" Properties=species:S:1:pos:R:3:spacegroup_kinds:I:1:forces:R:3 spacegroup="P 1" unit_cell=conventional occupancy="_JSON {\"0\": {\"Cs\": 1.0}, \"1\": {\"Pb\": 1.0}, \"2\": {\"I\": 1.0}, \"3\": {\"I\": 1.0}, \"4\": {\"I\": 1.0}, \"5\": {\"Cs\": 1.0}, \"6\": {\"Pb\": 1.0}, \"7\": {\"I\": 1.0}, \"8\": {\"I\": 1.0}, \"9\": {\"I\": 1.0}, \"10\": {\"Cs\": 1.0}, \"11\": {\"Pb\": 1.0}, \"12\": {\"I\": 1.0}, \"13\": {\"I\": 1.0}, \"14\": {\"I\": 1.0}, \"15\": {\"Cs\": 1.0}, \"16\": {\"Pb\": 1.0}, \"17\": {\"I\": 1.0}, \"18\": {\"I\": 1.0}, \"19\": {\"I\": 1.0}, \"20\": {\"Cs\": 1.0}, \"21\": {\"Pb\": 1.0}, \"22\": {\"I\": 1.0}, \"23\": {\"I\": 1.0}, \"24\": {\"I\": 1.0}, \"25\": {\"Cs\": 1.0}, \"26\": {\"Pb\": 1.0}, \"27\": {\"I\": 1.0}, \"28\": {\"I\": 1.0}, \"29\": {\"I\": 1.0}, \"30\": {\"Cs\": 1.0}, \"31\": {\"Pb\": 1.0}, \"32\": {\"I\": 1.0}, \"33\": {\"I\": 1.0}, \"34\": {\"I\": 1.0}, \"35\": {\"Cs\": 1.0}, \"36\": {\"Pb\": 1.0}, \"37\": {\"I\": 1.0}, \"38\": {\"I\": 1.0}, \"39\": {\"I\": 1.0}}" energy=-111.84593941976817 free_energy=-111.84593941976817 stress="2.630634282010636e-07 -2.232553196832486e-11 2.5223574055677892e-18 -2.232553196832486e-11 2.6306343108309195e-07 9.090817953365969e-19 2.5223574055677892e-18 9.090817953365969e-19 2.6315610849195006e-07" pbc="T T T"
Cs       3.19368590       3.19338382       3.19353486        0       0.00001224      -0.00001224      -0.00000000
Pb       0.00000139      -0.00000139      -0.00000000        1       0.00003177      -0.00003177      -0.00000000
I       -0.00003893       0.00003893       3.19353486        2       0.00000333      -0.00000333       0.00000000
I        3.19356119       0.00003893       0.00000000        3      -0.00005066      -0.00000333      -0.00000000
I       -0.00003893       3.19350852       0.00000000        4       0.00000333       0.00005066      -0.00000000
Cs       3.19368590       3.19338382       9.58060457        5       0.00001224      -0.00001224      -0.00000000
Pb       0.00000139      -0.00000139       6.38706971        6       0.00003177      -0.00003177       0.00000000
I       -0.00003893       0.00003893       9.58060457        7       0.00000333      -0.00000333      -0.00000000
I        3.19356119       0.00003893       6.38706971        8      -0.00005066      -0.00000333       0.00000000
I       -0.00003893       3.19350852       6.38706971        9       0.00000333       0.00005066       0.00000000
Cs       3.19368590       9.58045353       3.19353486       10       0.00001224      -0.00001224      -0.00000000
Pb       0.00000139       6.38706832      -0.00000000       11       0.00003177      -0.00003177      -0.00000000
I       -0.00003893       6.38710864       3.19353486       12       0.00000333      -0.00000333       0.00000000
I        3.19356119       6.38710864       0.00000000       13      -0.00005066      -0.00000333      -0.00000000
I       -0.00003893       9.58057824       0.00000000       14       0.00000333       0.00005066      -0.00000000
Cs       3.19368590       9.58045353       9.58060457       15       0.00001224      -0.00001224      -0.00000000
Pb       0.00000139       6.38706832       6.38706971       16       0.00003177      -0.00003177       0.00000000
I       -0.00003893       6.38710864       9.58060457       17       0.00000333      -0.00000333      -0.00000000
I        3.19356119       6.38710864       6.38706971       18      -0.00005066      -0.00000333       0.00000000
I       -0.00003893       9.58057824       6.38706971       19       0.00000333       0.00005066       0.00000000
Cs       9.58075561       3.19338382       3.19353486       20       0.00001224      -0.00001224      -0.00000000
Pb       6.38707111      -0.00000139      -0.00000000       21       0.00003177      -0.00003177      -0.00000000
I        6.38703079       0.00003893       3.19353486       22       0.00000333      -0.00000333       0.00000000
I        9.58063091       0.00003893       0.00000000       23      -0.00005066      -0.00000333      -0.00000000
I        6.38703079       3.19350852       0.00000000       24       0.00000333       0.00005066      -0.00000000
Cs       9.58075561       3.19338382       9.58060457       25       0.00001224      -0.00001224      -0.00000000
Pb       6.38707111      -0.00000139       6.38706971       26       0.00003177      -0.00003177       0.00000000
I        6.38703079       0.00003893       9.58060457       27       0.00000333      -0.00000333      -0.00000000
I        9.58063091       0.00003893       6.38706971       28      -0.00005066      -0.00000333       0.00000000
I        6.38703079       3.19350852       6.38706971       29       0.00000333       0.00005066       0.00000000
Cs       9.58075561       9.58045353       3.19353486       30       0.00001224      -0.00001224      -0.00000000
Pb       6.38707111       6.38706832      -0.00000000       31       0.00003177      -0.00003177      -0.00000000
I        6.38703079       6.38710864       3.19353486       32       0.00000333      -0.00000333       0.00000000
I        9.58063091       6.38710864       0.00000000       33      -0.00005066      -0.00000333      -0.00000000
I        6.38703079       9.58057824       0.00000000       34       0.00000333       0.00005066      -0.00000000
Cs       9.58075561       9.58045353       9.58060457       35       0.00001224      -0.00001224      -0.00000000
Pb       6.38707111       6.38706832       6.38706971       36       0.00003177      -0.00003177       0.00000000
I        6.38703079       6.38710864       9.58060457       37       0.00000333      -0.00000333      -0.00000000
I        9.58063091       6.38710864       6.38706971       38      -0.00005066      -0.00000333      -0.00000000
I        6.38703079       9.58057824       6.38706971       39       0.00000333       0.00005066       0.00000000
