80
Lattice="21.236834312270776 0.0 0.0 -9.298442373303025 16.10537462181218 0.0 0.0 0.0 17.657584432557385" Properties=species:S:1:pos:R:3 pbc="T T T"
Cs       6.79188669       2.68551024       8.82045158
Cs       1.70267391       5.36973934       0.00825513
K        1.26268619       0.00127568       4.41439801
In       1.26269554       0.00127946       0.00002396
I        9.09715006       0.00686035       1.76605094
I       -0.60259714       8.04835371       7.06275925
I        2.83326954       2.11010100       1.76605955
I        5.66132040       5.94516882       7.06276786
I        8.44525116       5.93956735       1.76604756
I        0.04930915       2.11569349       7.06275587
Cs       6.79188669       2.68551024      17.64924380
Cs       1.70267391       5.36973934       8.83704735
K        1.26268619       0.00127568      13.24319023
In       1.26269554       0.00127946       8.82881618
I        9.09715006       0.00686035      10.59484316
I       -0.60259714       8.04835371      15.89155146
I        2.83326954       2.11010100      10.59485177
I        5.66132040       5.94516882      15.89156008
I        8.44525116       5.93956735      10.59483978
I        0.04930915       2.11569349      15.89154808
Cs       2.14266550      10.73819755       8.82045158
Cs      -2.94654728      13.42242665       0.00825513
K       -3.38653500       8.05396299       4.41439801
In      -3.38652565       8.05396677       0.00002396
I        4.44792888       8.05954766       1.76605094
I       -5.25181832      16.10104102       7.06275925
I       -1.81595165      10.16278831       1.76605955
I        1.01209921      13.99785613       7.06276786
I        3.79602997      13.99225466       1.76604756
I       -4.59991204      10.16838080       7.06275587
Cs       2.14266550      10.73819755      17.64924380
Cs      -2.94654728      13.42242665       8.83704735
K       -3.38653500       8.05396299      13.24319023
In      -3.38652565       8.05396677       8.82881618
I        4.44792888       8.05954766      10.59484316
I       -5.25181832      16.10104102      15.89155146
I       -1.81595165      10.16278831      10.59485177
I        1.01209921      13.99785613      15.89156008
I        3.79602997      13.99225466      10.59483978
I       -4.59991204      10.16838080      15.89154808
Cs      17.41030385       2.68551024       8.82045158
Cs      12.32109107       5.36973934       0.00825513
K       11.88110334       0.00127568       4.41439801
In      11.88111269       0.00127946       0.00002396
I       19.71556722       0.00686035       1.76605094
I       10.01582002       8.04835371       7.06275925
I       13.45168670       2.11010100       1.76605955
I       16.27973756       5.94516882       7.06276786
I       19.06366831       5.93956735       1.76604756
I       10.66772631       2.11569349       7.06275587
Cs      17.41030385       2.68551024      17.64924380
Cs      12.32109107       5.36973934       8.83704735
K       11.88110334       0.00127568      13.24319023
In      11.88111269       0.00127946       8.82881618
I       19.71556722       0.00686035      10.59484316
I       10.01582002       8.04835371      15.89155146
I       13.45168670       2.11010100      10.59485177
I       16.27973756       5.94516882      15.89156008
I       19.06366831       5.93956735      10.59483978
I       10.66772631       2.11569349      15.89154808
Cs      12.76108266      10.73819755       8.82045158
Cs       7.67186988      13.42242665       0.00825513
K        7.23188216       8.05396299       4.41439801
In       7.23189151       8.05396677       0.00002396
I       15.06634603       8.05954766       1.76605094
I        5.36659883      16.10104102       7.06275925
I        8.80246551      10.16278831       1.76605955
I       11.63051637      13.99785613       7.06276786
I       14.41444713      13.99225466       1.76604756
I        6.01850512      10.16838080       7.06275587
Cs      12.76108266      10.73819755      17.64924380
Cs       7.67186988      13.42242665       8.83704735
K        7.23188216       8.05396299      13.24319023
In       7.23189151       8.05396677       8.82881618
I       15.06634603       8.05954766      10.59484316
I        5.36659883      16.10104102      15.89155146
I        8.80246551      10.16278831      10.59485177
I       11.63051637      13.99785613      15.89156008
I       14.41444713      13.99225466      10.59483978
I        6.01850512      10.16838080      15.89154808
