80
Lattice="18.583267043707366 -0.7112132545386193 0.00237670659332433 -8.673603093329046 16.450303014481463 -0.0017529402290412837 -0.003274771676016308 -0.0006326498546651202 17.656754845996485" Properties=species:S:1:pos:R:3:spacegroup_kinds:I:1:forces:R:3 spacegroup="P 1" unit_cell=conventional occupancy="_JSON {\"0\": {\"Cs\": 1.0}, \"1\": {\"Cs\": 1.0}, \"2\": {\"K\": 1.0}, \"3\": {\"In\": 1.0}, \"4\": {\"I\": 1.0}, \"5\": {\"I\": 1.0}, \"6\": {\"I\": 1.0}, \"7\": {\"I\": 1.0}, \"8\": {\"I\": 1.0}, \"9\": {\"I\": 1.0}, \"10\": {\"Cs\": 1.0}, \"11\": {\"Cs\": 1.0}, \"12\": {\"K\": 1.0}, \"13\": {\"In\": 1.0}, \"14\": {\"I\": 1.0}, \"15\": {\"I\": 1.0}, \"16\": {\"I\": 1.0}, \"17\": {\"I\": 1.0}, \"18\": {\"I\": 1.0}, \"19\": {\"I\": 1.0}, \"20\": {\"Cs\": 1.0}, \"21\": {\"Cs\": 1.0}, \"22\": {\"K\": 1.0}, \"23\": {\"In\": 1.0}, \"24\": {\"I\": 1.0}, \"25\": {\"I\": 1.0}, \"26\": {\"I\": 1.0}, \"27\": {\"I\": 1.0}, \"28\": {\"I\": 1.0}, \"29\": {\"I\": 1.0}, \"30\": {\"Cs\": 1.0}, \"31\": {\"Cs\": 1.0}, \"32\": {\"K\": 1.0}, \"33\": {\"In\": 1.0}, \"34\": {\"I\": 1.0}, \"35\": {\"I\": 1.0}, \"36\": {\"I\": 1.0}, \"37\": {\"I\": 1.0}, \"38\": {\"I\": 1.0}, \"39\": {\"I\": 1.0}, \"40\": {\"Cs\": 1.0}, \"41\": {\"Cs\": 1.0}, \"42\": {\"K\": 1.0}, \"43\": {\"In\": 1.0}, \"44\": {\"I\": 1.0}, \"45\": {\"I\": 1.0}, \"46\": {\"I\": 1.0}, \"47\": {\"I\": 1.0}, \"48\": {\"I\": 1.0}, \"49\": {\"I\": 1.0}, \"50\": {\"Cs\": 1.0}, \"51\": {\"Cs\": 1.0}, \"52\": {\"K\": 1.0}, \"53\": {\"In\": 1.0}, \"54\": {\"I\": 1.0}, \"55\": {\"I\": 1.0}, \"56\": {\"I\": 1.0}, \"57\": {\"I\": 1.0}, \"58\": {\"I\": 1.0}, \"59\": {\"I\": 1.0}, \"60\": {\"Cs\": 1.0}, \"61\": {\"Cs\": 1.0}, \"62\": {\"K\": 1.0}, \"63\": {\"In\": 1.0}, \"64\": {\"I\": 1.0}, \"65\": {\"I\": 1.0}, \"66\": {\"I\": 1.0}, \"67\": {\"I\": 1.0}, \"68\": {\"I\": 1.0}, \"69\": {\"I\": 1.0}, \"70\": {\"Cs\": 1.0}, \"71\": {\"Cs\": 1.0}, \"72\": {\"K\": 1.0}, \"73\": {\"In\": 1.0}, \"74\": {\"I\": 1.0}, \"75\": {\"I\": 1.0}, \"76\": {\"I\": 1.0}, \"77\": {\"I\": 1.0}, \"78\": {\"I\": 1.0}, \"79\": {\"I\": 1.0}}" energy=-206.35051872658644 free_energy=-206.35051872658644 stress="-1.181630664921588e-06 1.4714157267646339e-06 -2.477200806297986e-06 1.4714157267646339e-06 1.0980560196140654e-07 5.955254951893477e-08 -2.477200806297986e-06 5.955254951893477e-08 -3.0655289945421973e-06" pbc="T T T"
Cs       5.85167140       2.46347084       8.85176443        0       0.00028665       0.00008423       0.00039471
Cs       1.31113778       5.32412049      -0.02421844        1      -0.00003433      -0.00020370       0.00039052
K        1.10324277      -0.04223765       4.41423141        2       0.00037672       0.00070836       0.00034764
In       1.10515271      -0.04097561       0.00060067        3      -0.00009165       0.00027091      -0.00028367
I        7.95898144      -0.31768622       1.76712684        4       0.00020007      -0.00071102       0.00008651
I       -0.79624013       8.10578481       7.06172325        5      -0.00026922      -0.00041860      -0.00005424
I        2.39065033       2.03047725       1.76691088        6       0.00045068      -0.00007733       0.00020308
I        4.77225272       5.75673387       7.06263603        7      -0.00006224       0.00028776      -0.00002857
I        7.21027778       5.67875087       1.76738328        8      -0.00032025       0.00001940      -0.00065941
I       -0.04647392       2.10827558       7.06220462        9      -0.00053246       0.00004026      -0.00039488
Cs       5.85003413       2.46315459      17.68014172       10       0.00028566       0.00008370       0.00039549
Cs       1.30950048       5.32380422       8.80415886       11      -0.00003507      -0.00020411       0.00039126
K        1.10160539      -0.04255397      13.24260883       12       0.00037672       0.00070836       0.00034763
In       1.10351547      -0.04129268       8.82898006       13      -0.00009250       0.00027550      -0.00029601
I        7.95734437      -0.31800254      10.59550361       14       0.00019739      -0.00071118       0.00009064
I       -0.79787720       8.10546848      15.89010007       15      -0.00027185      -0.00041876      -0.00005048
I        2.38901292       2.03016080      10.59528800       16       0.00045093      -0.00007658       0.00020495
I        4.77061531       5.75641746      15.89101316       17      -0.00006196       0.00028837      -0.00002664
I        7.20864070       5.67843383      10.59576137       18      -0.00032234       0.00002367      -0.00066353
I       -0.04811108       2.10795872      15.89058257       19      -0.00053401       0.00004352      -0.00039820
Cs       1.51487006      10.68862254       8.85088787       20       0.00028490       0.00008298       0.00039528
Cs      -3.02566367      13.54927194      -0.02509499       21      -0.00003509      -0.00020340       0.00039106
K       -3.23355879       8.18291406       4.41335494       22       0.00037679       0.00070711       0.00034761
In      -3.23164881       8.18417651      -0.00027317       23      -0.00009218       0.00026705      -0.00030009
I        3.62218009       7.90746518       1.76624992       24       0.00019839      -0.00071044       0.00008940
I       -5.13304145      16.33093643       7.06084634       25      -0.00027121      -0.00041945      -0.00005148
I       -1.94615140      10.25562822       1.76603376       26       0.00045247      -0.00007393       0.00020714
I        0.43545116      13.98188543       7.06175924       27      -0.00006216       0.00028745      -0.00002651
I        2.87347618      13.90390249       1.76650700       28      -0.00031990       0.00001878      -0.00066065
I       -4.38327505      10.33342607       7.06132905       29      -0.00053543       0.00004648      -0.00040055
Cs       1.51323253      10.68830619      17.67926536       30       0.00028608       0.00008319       0.00039486
Cs      -3.02730117      13.54895562       8.80328251       31      -0.00003414      -0.00020335       0.00039057
K       -3.23519618       8.18259774      13.24173237       32       0.00037679       0.00070711       0.00034758
In      -3.23328639       8.18386092       8.82810098       33      -0.00009096       0.00026253      -0.00027957
I        3.62054251       7.90714884      10.59462774       34       0.00019994      -0.00071026       0.00008696
I       -5.13467902      16.33062009      15.88922412       35      -0.00026965      -0.00041928      -0.00005371
I       -1.94778868      10.25531221      10.59441175       36       0.00045148      -0.00007591       0.00020356
I        0.43381389      13.98156940      15.89013727       37      -0.00006322       0.00028553      -0.00003033
I        2.87183839      13.90358712      10.59488344       38      -0.00031708       0.00001309      -0.00065448
I       -4.38491274      10.33311047      15.88970567       39      -0.00053328       0.00004208      -0.00039554
Cs      15.14330496       2.10786428       8.85295277       40       0.00028631       0.00008385       0.00039475
Cs      10.60277131       4.96851391      -0.02303011       41      -0.00003438      -0.00020400       0.00039068
K       10.39487632      -0.39784434       4.41541967       42       0.00037654       0.00070873       0.00034822
In      10.39678628      -0.39658243       0.00178856       43      -0.00009203       0.00027214      -0.00028061
I       17.25061501      -0.67329286       1.76831508       44       0.00019958      -0.00071098       0.00008731
I        8.49539340       7.75017817       7.06291156       45      -0.00026937      -0.00041856      -0.00005399
I       11.68228388       1.67487071       1.76809937       46       0.00045043      -0.00007791       0.00020217
I       14.06388623       5.40112726       7.06382444       47      -0.00006213       0.00028760      -0.00002889
I       -2.08135589       6.03435784       1.76619462       48      -0.00031921       0.00001742      -0.00065752
I        9.24515941       1.75266938       7.06339260       49      -0.00053115       0.00003775      -0.00039254
Cs      15.14166769       2.10754795      17.68133012       50       0.00028537       0.00008380       0.00039525
Cs      10.60113406       4.96819761       8.80534725       51      -0.00003555      -0.00020421       0.00039109
K       10.39323894      -0.39816066      13.24379709       52       0.00037654       0.00070872       0.00034822
In      10.39514927      -0.39689993       8.83016972       53      -0.00009443       0.00027915      -0.00030413
I       17.24897782      -0.67360917      10.59669214       54       0.00019803      -0.00071115       0.00008953
I        8.49375619       7.74986186      15.89128861       55      -0.00027083      -0.00041874      -0.00005160
I       11.68064638       1.67455409      10.59647618       56       0.00045149      -0.00007599       0.00020600
I       14.06224875       5.40081065      15.89220130       57      -0.00006118       0.00028949      -0.00002535
I       -2.08299296       6.03404077      10.59457284       58      -0.00032140       0.00002189      -0.00066255
I        9.24352243       1.75235210      15.89177101       59      -0.00053398       0.00004346      -0.00039872
Cs      10.80650352      10.33301590       8.85207619       60       0.00028538       0.00008308       0.00039545
Cs       6.26596982      13.19366533      -0.02390668       61      -0.00003479      -0.00020351       0.00039131
K        6.05807470       7.82730750       4.41454350       62       0.00037703       0.00070673       0.00034641
In       6.05998453       7.82857014       0.00091379       63      -0.00009087       0.00026552      -0.00029168
I       12.91381374       7.55185855       1.76743809       64       0.00019737      -0.00071046       0.00009053
I        4.15859215      15.97532980       7.06203452       65      -0.00027183      -0.00041948      -0.00005040
I        7.34548221       9.90002178       1.76722233       66       0.00045168      -0.00007507       0.00020583
I        9.72708475      13.62627888       7.06294775       67      -0.00006270       0.00028689      -0.00002753
I       -6.41815733      14.25950910       1.76531857       68      -0.00031995       0.00001887      -0.00066017
I        4.90835861       9.97781914       7.06251756       69      -0.00053636       0.00004823      -0.00040152
Cs      10.80486605      10.33269951      17.68045373       70       0.00028612       0.00008349       0.00039471
Cs       6.26433231      13.19334893       8.80447087       71      -0.00003380      -0.00020297       0.00039052
K        6.05643731       7.82699117      13.24292093       72       0.00037703       0.00070673       0.00034638
In       6.05834686       7.82825491       8.82928896       73      -0.00008910       0.00025892      -0.00027747
I       12.91217602       7.55154222      10.59581612       74       0.00020007      -0.00071031       0.00008674
I        4.15695444      15.97501348      15.89041260       75      -0.00026913      -0.00041932      -0.00005453
I        7.34384486       9.89970557      10.59560007       76       0.00045135      -0.00007578       0.00020385
I        9.72544738      13.62596268      15.89132547       77      -0.00006295       0.00028614      -0.00002939
I       -6.41979494      14.25919331      10.59369547       78      -0.00031840       0.00001563      -0.00065685
I        4.90672094       9.97750350      15.89089434       79      -0.00053432       0.00004407      -0.00039743
