80
Lattice="16.990220952072818 0.6700839684099609 -0.8149607660779072 -9.188292188581677 14.296138457767736 0.9865542559592715 -2.8832267432265506 1.3113974224719966 16.727233247706515" Properties=species:S:1:pos:R:3:spacegroup_kinds:I:1:forces:R:3 spacegroup="P 1" unit_cell=conventional occupancy="_JSON {\"0\": {\"Cs\": 1.0}, \"1\": {\"Cs\": 1.0}, \"2\": {\"K\": 1.0}, \"3\": {\"In\": 1.0}, \"4\": {\"I\": 1.0}, \"5\": {\"I\": 1.0}, \"6\": {\"I\": 1.0}, \"7\": {\"I\": 1.0}, \"8\": {\"I\": 1.0}, \"9\": {\"I\": 1.0}, \"10\": {\"Cs\": 1.0}, \"11\": {\"Cs\": 1.0}, \"12\": {\"K\": 1.0}, \"13\": {\"In\": 1.0}, \"14\": {\"I\": 1.0}, \"15\": {\"I\": 1.0}, \"16\": {\"I\": 1.0}, \"17\": {\"I\": 1.0}, \"18\": {\"I\": 1.0}, \"19\": {\"I\": 1.0}, \"20\": {\"Cs\": 1.0}, \"21\": {\"Cs\": 1.0}, \"22\": {\"K\": 1.0}, \"23\": {\"In\": 1.0}, \"24\": {\"I\": 1.0}, \"25\": {\"I\": 1.0}, \"26\": {\"I\": 1.0}, \"27\": {\"I\": 1.0}, \"28\": {\"I\": 1.0}, \"29\": {\"I\": 1.0}, \"30\": {\"Cs\": 1.0}, \"31\": {\"Cs\": 1.0}, \"32\": {\"K\": 1.0}, \"33\": {\"In\": 1.0}, \"34\": {\"I\": 1.0}, \"35\": {\"I\": 1.0}, \"36\": {\"I\": 1.0}, \"37\": {\"I\": 1.0}, \"38\": {\"I\": 1.0}, \"39\": {\"I\": 1.0}, \"40\": {\"Cs\": 1.0}, \"41\": {\"Cs\": 1.0}, \"42\": {\"K\": 1.0}, \"43\": {\"In\": 1.0}, \"44\": {\"I\": 1.0}, \"45\": {\"I\": 1.0}, \"46\": {\"I\": 1.0}, \"47\": {\"I\": 1.0}, \"48\": {\"I\": 1.0}, \"49\": {\"I\": 1.0}, \"50\": {\"Cs\": 1.0}, \"51\": {\"Cs\": 1.0}, \"52\": {\"K\": 1.0}, \"53\": {\"In\": 1.0}, \"54\": {\"I\": 1.0}, \"55\": {\"I\": 1.0}, \"56\": {\"I\": 1.0}, \"57\": {\"I\": 1.0}, \"58\": {\"I\": 1.0}, \"59\": {\"I\": 1.0}, \"60\": {\"Cs\": 1.0}, \"61\": {\"Cs\": 1.0}, \"62\": {\"K\": 1.0}, \"63\": {\"In\": 1.0}, \"64\": {\"I\": 1.0}, \"65\": {\"I\": 1.0}, \"66\": {\"I\": 1.0}, \"67\": {\"I\": 1.0}, \"68\": {\"I\": 1.0}, \"69\": {\"I\": 1.0}, \"70\": {\"Cs\": 1.0}, \"71\": {\"Cs\": 1.0}, \"72\": {\"K\": 1.0}, \"73\": {\"In\": 1.0}, \"74\": {\"I\": 1.0}, \"75\": {\"I\": 1.0}, \"76\": {\"I\": 1.0}, \"77\": {\"I\": 1.0}, \"78\": {\"I\": 1.0}, \"79\": {\"I\": 1.0}}" energy=-205.760571351874 free_energy=-205.760571351874 stress="1.745762118596207e-06 -3.6303202965269303e-07 -1.908489922219961e-07 -3.6303202965269303e-07 3.864439600763516e-08 1.807090209718443e-07 -1.908489922219961e-07 1.807090209718443e-07 -1.304802464616624e-06" pbc="T T T"
Cs       3.36129029       2.77114311       1.78514725        0      -0.00003001       0.00011603       0.00006117
Cs      -2.11745295       5.57543182       6.73164120        1      -0.00037991       0.00001872      -0.00036234
K       15.66026046       1.10256114       3.40022060        2       0.00011807      -0.00020316       0.00046943
In      16.38094500       0.77494709      -0.78136733        3      -0.00004456      -0.00007313      -0.00009679
I       16.01906803       3.30582075       0.70296580        4      -0.00029872       0.00046837      -0.00049484
I        2.21714783       5.71223159       6.99977856        5       0.00015083      -0.00022212      -0.00021373
I        0.24823401       1.93402466       6.95602216        6      -0.00028585      -0.00019891       0.00025082
I        0.99421649       6.41496948       1.56022777        7       0.00005721      -0.00019418       0.00036076
I       -3.32575666       6.25194441       2.75156498        8      -0.00059073       0.00016726      -0.00020041
I        4.56896436       2.09524118       5.76625368        9       0.00002114       0.00050196       0.00001188
Cs       1.91901811       3.42794107      10.14898341       10       0.00037225       0.00006029       0.00033544
Cs      -3.55858936       6.23020034      15.09425087       11      -0.00018982       0.00017209       0.00024291
K       14.21783024       1.75799837      11.76387381       12       0.00013820       0.00007720       0.00029987
In      14.93914051       1.43074265       7.58210760       13       0.00023366       0.00040800       0.00016977
I       14.57462158       3.96164155       9.06624179       14       0.00008921      -0.00058765      -0.00038807
I        0.77492662       6.36755358      15.36331586       15      -0.00008195       0.00033213      -0.00010431
I       -1.19229594       2.58753893      15.31937603       16      -0.00050884       0.00014020       0.00040382
I       -0.44685535       7.06992600       9.92422506       17      -0.00016711      -0.00006636       0.00020507
I       -4.76742197       6.90713323      11.11470736       18      -0.00050698       0.00018241       0.00003922
I        3.12740566       2.75104298      14.12976737       19      -0.00014082       0.00008703       0.00005396
Cs      -1.22912092       9.92273317       2.27873423       20      -0.00030241      -0.00011264       0.00011851
Cs      -6.71519517      12.72217632       7.22501948       21       0.00017264      -0.00005201       0.00017250
K       11.06848759       8.25124128       3.89421747       22      -0.00016070      -0.00046442       0.00032771
In      11.78943804       7.92231141      -0.28733358       23      -0.00034691       0.00040490       0.00039532
I       11.41952899      10.45284324       1.19539052       24       0.00024760      -0.00018910      -0.00008531
I       -2.37575337      12.86044964       7.49391964       25       0.00022535       0.00027056      -0.00023248
I       -4.34512087       9.08458129       7.45016964       26      -0.00025582      -0.00000171      -0.00006698
I       -3.59955202      13.55732568       2.05361506       27      -0.00010447       0.00010879       0.00009540
I        1.26365738      -0.90087406       2.25677597       28      -0.00011810       0.00004010       0.00029088
I       -0.02085912       9.24699635       6.25970061       29      -0.00020334       0.00009330       0.00009958
Cs      -2.67280960      10.57781716      10.64375960       30       0.00016410       0.00005382      -0.00008173
Cs      -8.15713221      13.37676777      15.58740978       31       0.00016769      -0.00010271       0.00030263
K        9.62723296       8.90632734      12.25812021       32      -0.00019772      -0.00021164       0.00023248
In      10.34760567       8.57804818       8.07622451       33       0.00009417      -0.00014893       0.00003473
I        9.97846534      11.10857603       9.55950641       34       0.00029258       0.00002604      -0.00004513
I       -3.81510270      13.51706782      15.85673808       35      -0.00021279       0.00014045      -0.00029912
I       -5.78665237       9.74049678      15.81366069       36      -0.00008547       0.00005959      -0.00002016
I       -5.04169670      14.21531870      10.41820682       37      -0.00001681      -0.00010793      -0.00001629
I       -0.17759174      -0.24343544      10.62088207       38      -0.00019712       0.00007347      -0.00017129
I       -1.46250251       9.90291085      14.62346645       39      -0.00004017       0.00021132      -0.00008253
Cs      11.85728705       3.11033094       1.37916947       40       0.00002659      -0.00010366      -0.00004366
Cs       6.37644497       5.90979042       6.32445870       41      -0.00022084      -0.00036933      -0.00012434
K        7.16427329       0.76610049       3.80814742       42       0.00022782      -0.00004043       0.00014606
In       7.88552423       0.43965835      -0.37372741       43      -0.00000043      -0.00006985       0.00031638
I        7.51461458       2.96937815       1.11019435       44       0.00091865       0.00016546      -0.00016075
I       10.71583102       6.04785531       6.59253544       45      -0.00015975       0.00024443      -0.00010172
I        8.74148772       2.27160405       6.54823950       46      -0.00005978       0.00002320       0.00011791
I        9.49186798       6.74532192       1.15418162       47       0.00017327       0.00004941       0.00013492
I        5.16697120       6.58309808       2.34346686       48       0.00009642       0.00011466       0.00018306
I       13.06592665       2.43451881       5.35840617       49       0.00025117      -0.00025189       0.00020473
Cs      10.41592148       3.76487133       9.74122695       50      -0.00016257      -0.00012055       0.00012935
Cs       4.93374539       6.56442325      14.68905617       51      -0.00009852      -0.00002864      -0.00037030
K        5.72375977       1.42393174      12.17188289       52       0.00016964      -0.00010547      -0.00007734
In       6.44399858       1.09533286       7.98985228       53       0.00005824      -0.00015053       0.00024599
I        6.07578821       3.62583586       9.47309021       54       0.00020765       0.00008726      -0.00039249
I        9.27489249       6.70366777      14.95683694       55       0.00002533      -0.00026839      -0.00038155
I        7.29921481       2.92962691      14.91300384       56       0.00027996      -0.00018271      -0.00017835
I        8.05033809       7.40126636       9.51790457       57      -0.00008927      -0.00003298      -0.00004540
I        3.72559954       7.23931292      10.70715046       58       0.00021055       0.00004209       0.00000405
I       11.62460083       3.09154758      13.72279852       59       0.00042887      -0.00014991      -0.00050428
Cs       7.26343785      10.25542800       1.87225537       60      -0.00007092       0.00008710      -0.00044970
Cs       1.78075385      13.05854768       6.81735300       61      -0.00006332      -0.00018055      -0.00016709
K        2.57302853       7.91513379       4.30154791       62      -0.00002616       0.00008953      -0.00006651
In       3.29404944       7.58730749       0.11999546       63      -0.00004208      -0.00007432      -0.00045235
I        2.92983272      10.11862330       1.60355555       64      -0.00012992      -0.00006897       0.00002438
I        6.11602294      13.19576368       7.08540236       65       0.00016521       0.00019879      -0.00031630
I        4.15161798       9.41629880       7.04245385       66       0.00003747       0.00003512      -0.00001371
I        4.89213807      13.90013753       1.64599587       67       0.00041360      -0.00045271       0.00012327
I        9.76084959      -0.56091929       1.85003231       68      -0.00000391       0.00015877       0.00001249
I        8.47232199       9.57926721       5.85292100       69       0.00017805       0.00015637      -0.00026840
Cs       5.82303457      10.91078725      10.23519936       70      -0.00028258       0.00007368      -0.00009908
Cs       0.33911774      13.71523360      15.18086488       71       0.00016380      -0.00025430       0.00018739
K        1.13134492       8.57109612      12.66516259       72       0.00007728      -0.00018479       0.00031080
In       1.85256818       8.24307178       8.48354483       73      -0.00015708       0.00001698      -0.00006841
I        1.48760736      10.77393066       9.96712079       74      -0.00030140       0.00045247       0.00001000
I        4.67184198      13.85124828      15.44865179       75       0.00048537      -0.00015118       0.00000531
I        2.71026812      10.07125482      15.40643489       76      -0.00024167       0.00000723      -0.00013496
I        3.45149218      14.55380823      10.00936519       77       0.00015151      -0.00006182       0.00026409
I        8.31909973       0.09434124      10.21349557       78       0.00012716      -0.00000684       0.00024471
I        7.03090608      10.23462449      14.21625794       79       0.00015905       0.00002985      -0.00026048
