80
Lattice="21.30930522458266 0.0 0.0 -12.260836490064076 9.771373016738677 0.0 -2.4479951110563674 0.9913498835547458 16.588518378029985" Properties=species:S:1:pos:R:3 pbc="T T T"
Cs       4.28650782       1.71577428       0.02637372
Cs      -2.52471842       3.83685472       8.26781156
K       -1.38121006       0.33348425       4.14712746
In      -0.76922776       0.08563992       0.00002680
I       -2.60444875       1.47126956       1.65920399
I        4.36623130       4.08141433       6.63506025
I       -0.54338415       1.75765526       6.63507661
I        2.30516328       3.79493077       1.65922035
I       -4.34912715       5.05954810       1.65920951
I        6.11092505       0.49308186       6.63506578
Cs       3.06251026       2.21144922       8.32063291
Cs      -3.74871598       4.33252966      16.56207075
K       -2.60520762       0.82915919      12.44138665
In      -1.99322531       0.58131486       8.29428599
I       -3.82844630       1.96694450       9.95346318
I        3.14223375       4.57708927      14.92931944
I       -1.76738170       2.25333020      14.92933580
I        1.08116572       4.29060571       9.95347954
I       -5.57312471       5.55522305       9.95346870
I        4.88692750       0.98875681      14.92932497
Cs      -1.84391043       6.60146079       0.02637372
Cs      -8.65513667       8.72254123       8.26781156
K       -7.51162831       5.21917075       4.14712746
In      -6.89964600       4.97132642       0.00002680
I       -8.73486699       6.35695607       1.65920399
I       -1.76418694       8.96710084       6.63506025
I       -6.67380239       6.64334177       6.63507661
I       -3.82525497       8.68061728       1.65922035
I      -10.47954540       9.94523461       1.65920951
I       -0.01949319       5.37876837       6.63506578
Cs      -3.06790798       7.09713573       8.32063291
Cs      -9.87913422       9.21821617      16.56207075
K       -8.73562586       5.71484570      12.44138665
In      -8.12364356       5.46700137       8.29428599
I       -9.95886455       6.85263101       9.95346318
I       -2.98818450       9.46277578      14.92931944
I       -7.89779995       7.13901671      14.92933580
I       -5.04925252       9.17629222       9.95347954
I      -11.70354295      10.44090955       9.95346870
I       -1.24349075       5.87444331      14.92932497
Cs      14.94116043       1.71577428       0.02637372
Cs       8.12993419       3.83685472       8.26781156
K        9.27344255       0.33348425       4.14712746
In       9.88542486       0.08563992       0.00002680
I        8.05020386       1.47126956       1.65920399
I       15.02088391       4.08141433       6.63506025
I       10.11126846       1.75765526       6.63507661
I       12.95981589       3.79493077       1.65922035
I        6.30552546       5.05954810       1.65920951
I       16.76557766       0.49308186       6.63506578
Cs      13.71716288       2.21144922       8.32063291
Cs       6.90593664       4.33252966      16.56207075
K        8.04944500       0.82915919      12.44138665
In       8.66142730       0.58131486       8.29428599
I        6.82620631       1.96694450       9.95346318
I       13.79688636       4.57708927      14.92931944
I        8.88727091       2.25333020      14.92933580
I       11.73581834       4.29060571       9.95347954
I        5.08152790       5.55522305       9.95346870
I       15.54158011       0.98875681      14.92932497
Cs       8.81074219       6.60146079       0.02637372
Cs       1.99951595       8.72254123       8.26781156
K        3.14302431       5.21917075       4.14712746
In       3.75500661       4.97132642       0.00002680
I        1.91978562       6.35695607       1.65920399
I        8.89046567       8.96710084       6.63506025
I        3.98085022       6.64334177       6.63507661
I        6.82939765       8.68061728       1.65922035
I        0.17510721       9.94523461       1.65920951
I       10.63515942       5.37876837       6.63506578
Cs       7.58674463       7.09713573       8.32063291
Cs       0.77551839       9.21821617      16.56207075
K        1.91902675       5.71484570      12.44138665
In       2.53100906       5.46700137       8.29428599
I        0.69578806       6.85263101       9.95346318
I        7.66646811       9.46277578      14.92931944
I        2.75685266       7.13901671      14.92933580
I        5.60540009       9.17629222       9.95347954
I       -1.04889034      10.44090955       9.95346870
I        9.41116186       5.87444331      14.92932497
