10
Lattice="12.774122842372718 -2.9115641454568452e-09 -2.2721097322382056e-17 -1.4557820729810918e-09 6.3870614211864 -3.3722007010167826e-17 -1.1138045875140211e-17 -3.34952505765985e-17 6.387061420856804" Properties=species:S:1:pos:R:3:spacegroup_kinds:I:1:forces:R:3 spacegroup="P 1" unit_cell=conventional occupancy="_JSON {\"0\": {\"Cs\": 1.0}, \"1\": {\"Pb\": 1.0}, \"2\": {\"I\": 1.0}, \"3\": {\"I\": 1.0}, \"4\": {\"I\": 1.0}, \"5\": {\"Cs\": 1.0}, \"6\": {\"Pb\": 1.0}, \"7\": {\"I\": 1.0}, \"8\": {\"I\": 1.0}, \"9\": {\"I\": 1.0}}" energy=-27.961484855179997 free_energy=-27.961484855179997 stress="-1.2565716196326003e-07 -1.0237940801540212e-11 6.159874977313576e-18 -1.0237940801540212e-11 -1.2565716129175253e-07 1.389298305067869e-17 6.159874977313576e-18 1.389298305067869e-17 -1.2565537529587012e-07" pbc="T T T"
Cs       3.19362728       3.19343413       3.19353071        0       0.00000379      -0.00000379      -0.00000000
Pb       0.00000645      -0.00000645      -0.00000000        1       0.00000053      -0.00000053      -0.00000000
I        0.00000312      -0.00000312       3.19353071        2      -0.00000638       0.00000638       0.00000000
I        3.19353298      -0.00000312      -0.00000000        3       0.00000845       0.00000638       0.00000000
I        0.00000312       3.19352844      -0.00000000        4      -0.00000638      -0.00000845       0.00000000
Cs       9.58068871       3.19343413       3.19353071        5       0.00000379      -0.00000379      -0.00000000
Pb       6.38706787      -0.00000645      -0.00000000        6       0.00000053      -0.00000053      -0.00000000
I        6.38706454      -0.00000312       3.19353071        7      -0.00000638       0.00000638       0.00000000
I        9.58059440      -0.00000312      -0.00000000        8       0.00000845       0.00000638       0.00000000
I        6.38706454       3.19352844      -0.00000000        9      -0.00000638      -0.00000845       0.00000000
