10
Lattice="9.420360135191276 0.0 0.0 4.710180067635303 8.158271189851066 0.0 4.710180067711437 2.71942373000954 7.691692052618411" Properties=species:S:1:pos:R:3 pbc="T T T"
Cs       4.71007747       2.71939297       1.92292800
Cs      14.13064255       8.15830117       5.76876354
K        9.42035999       5.43884704       3.84584575
In       0.00000018       0.00000065       0.00000027
I        7.91859885       2.54208942       4.13959263
I       10.92212121       8.33560411       3.55209884
I       11.45822674       3.96907783       1.78746246
I        7.38249216       6.90861561       5.90422890
I        6.89986486       6.89444825       1.78748394
I       11.94085599       3.98324779       5.90420864
