40
Lattice="20.685976227123046 0.0 0.0 13.8094037406794 15.42179839524171 0.0 0.5318055362412922 6.268381645113494 4.583883039060758" Properties=species:S:1:pos:R:3 pbc="T T T"
Cs       4.44486154       3.49481601       1.14597279
Cs      13.33463394      10.48446471       3.43791018
K        8.88974781       6.98964045       2.29194152
In       0.00000010       0.00000011       0.00000003
I        4.54319275       6.42459766       3.31818172
I       13.23630292       7.55468318       1.26570131
I        9.96358529       3.34407694       1.15844620
I        7.81591018      10.63520388       3.42543676
I        7.87035119       7.29194598       0.97213760
I        9.90914453       6.68733525       3.61174562
Cs      11.34956341      11.20571521       1.14597279
Cs      20.23933581      18.19536391       3.43791018
K       15.79444968      14.70053965       2.29194152
In       6.90470197       7.71089931       0.00000003
I       11.44789462      14.13549685       3.31818172
I       20.14100479      15.26558238       1.26570131
I       16.86828716      11.05497614       1.15844620
I       14.72061205      18.34610308       3.42543676
I       14.77505306      15.00284518       0.97213760
I       16.81384640      14.39823444       3.61174562
Cs      14.78784966       3.49481601       1.14597279
Cs      23.67762205      10.48446471       3.43791018
K       19.23273592       6.98964045       2.29194152
In      10.34298821       0.00000011       0.00000003
I       14.88618086       6.42459766       3.31818172
I       23.57929103       7.55468318       1.26570131
I       20.30657340       3.34407694       1.15844620
I       18.15889830      10.63520388       3.42543676
I       18.21333930       7.29194598       0.97213760
I       20.25213264       6.68733525       3.61174562
Cs      21.69255153      11.20571521       1.14597279
Cs      30.58232392      18.19536391       3.43791018
K       26.13743779      14.70053965       2.29194152
In      17.24769008       7.71089931       0.00000003
I       21.79088274      14.13549685       3.31818172
I       30.48399290      15.26558238       1.26570131
I       27.21127527      11.05497614       1.15844620
I       25.06360017      18.34610308       3.42543676
I       25.11804117      15.00284518       0.97213760
I       27.15683451      14.39823444       3.61174562
