80
Lattice="17.16957827305508 1.5840233141734015 -0.0336079194146368 -9.951281033002052 14.069446762800343 0.006246826087945862 0.02750093138535247 0.01866150865257033 17.500255798520943" Properties=species:S:1:pos:R:3:spacegroup_kinds:I:1:forces:R:3 spacegroup="P 1" unit_cell=conventional occupancy="_JSON {\"0\": {\"Cs\": 1.0}, \"1\": {\"Cs\": 1.0}, \"2\": {\"K\": 1.0}, \"3\": {\"In\": 1.0}, \"4\": {\"I\": 1.0}, \"5\": {\"I\": 1.0}, \"6\": {\"I\": 1.0}, \"7\": {\"I\": 1.0}, \"8\": {\"I\": 1.0}, \"9\": {\"I\": 1.0}, \"10\": {\"Cs\": 1.0}, \"11\": {\"Cs\": 1.0}, \"12\": {\"K\": 1.0}, \"13\": {\"In\": 1.0}, \"14\": {\"I\": 1.0}, \"15\": {\"I\": 1.0}, \"16\": {\"I\": 1.0}, \"17\": {\"I\": 1.0}, \"18\": {\"I\": 1.0}, \"19\": {\"I\": 1.0}, \"20\": {\"Cs\": 1.0}, \"21\": {\"Cs\": 1.0}, \"22\": {\"K\": 1.0}, \"23\": {\"In\": 1.0}, \"24\": {\"I\": 1.0}, \"25\": {\"I\": 1.0}, \"26\": {\"I\": 1.0}, \"27\": {\"I\": 1.0}, \"28\": {\"I\": 1.0}, \"29\": {\"I\": 1.0}, \"30\": {\"Cs\": 1.0}, \"31\": {\"Cs\": 1.0}, \"32\": {\"K\": 1.0}, \"33\": {\"In\": 1.0}, \"34\": {\"I\": 1.0}, \"35\": {\"I\": 1.0}, \"36\": {\"I\": 1.0}, \"37\": {\"I\": 1.0}, \"38\": {\"I\": 1.0}, \"39\": {\"I\": 1.0}, \"40\": {\"Cs\": 1.0}, \"41\": {\"Cs\": 1.0}, \"42\": {\"K\": 1.0}, \"43\": {\"In\": 1.0}, \"44\": {\"I\": 1.0}, \"45\": {\"I\": 1.0}, \"46\": {\"I\": 1.0}, \"47\": {\"I\": 1.0}, \"48\": {\"I\": 1.0}, \"49\": {\"I\": 1.0}, \"50\": {\"Cs\": 1.0}, \"51\": {\"Cs\": 1.0}, \"52\": {\"K\": 1.0}, \"53\": {\"In\": 1.0}, \"54\": {\"I\": 1.0}, \"55\": {\"I\": 1.0}, \"56\": {\"I\": 1.0}, \"57\": {\"I\": 1.0}, \"58\": {\"I\": 1.0}, \"59\": {\"I\": 1.0}, \"60\": {\"Cs\": 1.0}, \"61\": {\"Cs\": 1.0}, \"62\": {\"K\": 1.0}, \"63\": {\"In\": 1.0}, \"64\": {\"I\": 1.0}, \"65\": {\"I\": 1.0}, \"66\": {\"I\": 1.0}, \"67\": {\"I\": 1.0}, \"68\": {\"I\": 1.0}, \"69\": {\"I\": 1.0}, \"70\": {\"Cs\": 1.0}, \"71\": {\"Cs\": 1.0}, \"72\": {\"K\": 1.0}, \"73\": {\"In\": 1.0}, \"74\": {\"I\": 1.0}, \"75\": {\"I\": 1.0}, \"76\": {\"I\": 1.0}, \"77\": {\"I\": 1.0}, \"78\": {\"I\": 1.0}, \"79\": {\"I\": 1.0}}" energy=-206.20622253228197 free_energy=-206.20622253228197 stress="5.420609456383244e-06 5.031239530145132e-06 -3.0018371855366347e-06 5.031239530145132e-06 -3.837782123600173e-06 2.151633357711785e-06 -3.0018371855366347e-06 2.151633357711785e-06 1.962053933478384e-07" pbc="T T T"
Cs       3.77002134       2.85048473       1.22425890        0      -0.00058117      -0.00040575       0.00027630
Cs      -0.74171424       4.94062735       7.51267979        1      -0.00046758      -0.00045185       0.00033968
K       16.87892107       1.56592082       4.34179323        2      -0.00029119      -0.00013058       0.00040214
In      16.87099631       1.56054462      -0.03277262        3       0.00046302       0.00001519      -0.00021253
I       16.35167952       3.93318367       1.70938835        4       0.00036776       0.00025769       0.00002777
I        3.84286788       5.44015907       6.99442601        5       0.00047660       0.00022168       0.00001832
I        1.50585176       1.62097498       7.00261440        6      -0.00000232       0.00037687      -0.00018049
I        1.52091269       6.16740456       1.73593111        7       0.00004309       0.00063436      -0.00027551
I       -2.95688619       6.27977389       1.74501419        8       0.00001358      -0.00032656      -0.00025338
I        5.98360651       1.51063136       6.99248901        9      -0.00010845      -0.00032615      -0.00009992
Cs       3.78377263       2.85981569       9.97438778       10      -0.00058907      -0.00040588       0.00026853
Cs      -0.72796296       4.94995821      16.26280793       11      -0.00047536      -0.00045149       0.00033756
K       16.89267153       1.57525160      13.09192098       12      -0.00029106      -0.00013058       0.00040291
In      16.88473805       1.56986103       8.71735692       13       0.00052526       0.00010938      -0.00022535
I       16.36543048       3.94251754      10.45951754       14       0.00036771       0.00023390       0.00001628
I        3.85661885       5.44949365      15.74455604       15       0.00047762       0.00019121      -0.00000084
I        1.51959854       1.63030121      15.75274495       16       0.00002753       0.00040494      -0.00020257
I        1.53466080       6.17673240      10.48606035       17       0.00006365       0.00065411      -0.00028740
I       -2.94313493       6.28910464      10.49514251       18       0.00000469      -0.00032481      -0.00025770
I        5.99735902       1.51996174      15.74261897       19      -0.00012861      -0.00032061      -0.00011621
Cs      -1.20561906       9.88520762       1.22738250       20      -0.00058308      -0.00040188       0.00027483
Cs      -5.71735465      11.97535070       7.51580319       21      -0.00046840      -0.00045153       0.00033971
K       11.90328045       8.60064368       4.34491686       22      -0.00029085      -0.00012680       0.00040090
In      11.89535342       8.59526143      -0.02964914       23       0.00047495       0.00006184      -0.00021587
I       11.37603909      10.96790892       1.71251249       24       0.00036977       0.00024326       0.00002120
I       -1.13277270      12.47488195       6.99754908       25       0.00047657       0.00022385       0.00002046
I       -3.46978939       8.65569767       7.00573827       26       0.00000158       0.00037992      -0.00018346
I       -3.45473009      13.20212494       1.73905631       27       0.00005944       0.00065144      -0.00028899
I       -7.93252672      13.31449684       1.74813775       28       0.00001220      -0.00032312      -0.00025500
I        1.00796636       8.54535476       6.99561282       29      -0.00011092      -0.00032594      -0.00010238
Cs      -1.19186785       9.89453902       9.97751111       30      -0.00058945      -0.00040553       0.00026911
Cs      -5.70360349      11.98468215      16.26593109       31      -0.00047433      -0.00045539       0.00033960
K       11.91703093       8.60997445      13.09504473       32      -0.00029089      -0.00012680       0.00040121
In      11.90909865       8.60458380       8.72047831       33       0.00051674       0.00011442      -0.00021156
I       11.38979001      10.97724205      10.46264147       34       0.00036861       0.00022741       0.00001254
I       -1.11902173      12.48421560      15.74767905       35       0.00047609       0.00020173       0.00000305
I       -3.45604096       8.66502596      15.75586752       36       0.00001831       0.00039497      -0.00019483
I       -3.44098007      13.21145533      10.48918384       37       0.00006554       0.00065599      -0.00028768
I       -7.91877536      13.32382790      10.49826601       38       0.00000435      -0.00032412      -0.00025789
I        1.02171747       8.55468582      15.74574141       39      -0.00011976      -0.00032638      -0.00010963
Cs      12.35481252       3.64249732       1.20745602       40      -0.00060028      -0.00040978       0.00026733
Cs       7.84307441       5.73263885       7.49587559       41      -0.00046302      -0.00045115       0.00034171
K        8.29413053       0.77390661       4.35859845       42      -0.00028038      -0.00011329       0.00039323
In       8.28618979       0.76850416      -0.01597688       43       0.00059317       0.00020504      -0.00015047
I        7.76689188       3.14118178       1.72619703       44       0.00036710       0.00018779      -0.00001164
I       12.42765647       6.23216757       6.97762083       45       0.00047774       0.00024085       0.00002729
I       10.09064145       2.41298734       6.98580975       46      -0.00001034       0.00036902      -0.00017294
I       10.10569511       6.95940796       1.71913145       47       0.00009754       0.00068563      -0.00031134
I        5.62790542       7.07178604       1.72821175       48      -0.00001389      -0.00032536      -0.00026893
I       14.56839478       2.30264281       6.97568478       49      -0.00010053      -0.00032550      -0.00009743
Cs      12.36856230       3.65182740       9.95758395       50      -0.00059439      -0.00040595       0.00026723
Cs       7.85682418       5.74196896      16.24600285       51      -0.00045689      -0.00044744       0.00034707
K        8.30788094       0.78323734      13.10872604       52      -0.00028008      -0.00011328       0.00039470
In       8.29994631       0.77784210       8.73415915       53       0.00054658       0.00015980      -0.00021222
I        7.78064175       3.15050826      10.47632242       54       0.00036707       0.00021538       0.00000777
I       12.44140650       6.24149599      15.72774766       55       0.00047875       0.00025713       0.00003609
I       10.10439327       2.42231969      15.73593760       56      -0.00002047       0.00036020      -0.00017234
I       10.11944764       6.96874116      10.46925796       57       0.00008039       0.00067019      -0.00029964
I        5.64165456       7.08111661      10.47833857       58      -0.00000122      -0.00032600      -0.00025980
I       14.58214413       2.31197332      15.72581213       59      -0.00009107      -0.00032491      -0.00009375
Cs       7.37917202      10.67722015       1.21057969       60      -0.00060133      -0.00040587       0.00026529
Cs       2.86743390      12.76736226       7.49899907       61      -0.00046285      -0.00045142       0.00034117
K        3.31848988       7.80862947       4.36172138       62      -0.00027956      -0.00010948       0.00039660
In       3.31054791       7.80322023      -0.01284864       63       0.00060019       0.00025605      -0.00018365
I        2.79125136      10.17590602       1.72932071       64       0.00036853       0.00017937      -0.00001474
I        7.45201592      13.26688988       6.98074368       65       0.00047678       0.00024705       0.00003107
I        5.11500071       9.44771042       6.98893343       66      -0.00000992       0.00036955      -0.00017405
I        5.13005319      13.99412948       1.72225587       67       0.00010827       0.00069714      -0.00031985
I        0.65226626      14.10650870       1.73133644       68      -0.00002436      -0.00031919      -0.00027669
I        9.59275428       9.33736626       6.97880819       69      -0.00010066      -0.00032600      -0.00009762
Cs       7.39292165      10.68655082       9.96070737       70      -0.00059345      -0.00040629       0.00026718
Cs       2.88118358      12.77669283      16.24912607       71      -0.00045512      -0.00045127       0.00034858
K        3.33224028       7.81796017      13.11184897       72      -0.00027923      -0.00010950       0.00039811
In       3.32430532       7.81256522       8.73728187       73       0.00055063       0.00016145      -0.00020793
I        2.80500121      10.18523138      10.47944593       74       0.00036695       0.00021597       0.00000678
I        7.46576586      13.27621709      15.73087019       75       0.00047658       0.00027303       0.00004322
I        5.12875445       9.45704532      15.73905957       76      -0.00003461       0.00034545      -0.00016021
I        5.14380775      14.00346524      10.47238092       77       0.00007642       0.00066706      -0.00029670
I        0.66601397      14.11583996      10.48146183       78      -0.00000021      -0.00032590      -0.00025839
I        9.60650389       9.34669708      15.72893561       79      -0.00009103      -0.00032799      -0.00009295
