40
Lattice="16.643035182581034 -0.599992365180742 2.865428754143834 -5.517365689719229 9.374998743486364 0.7414906937857888 -2.143266732783341 -2.2093667240919674 11.982462618067236" Properties=species:S:1:pos:R:3:spacegroup_kinds:I:1:forces:R:3 spacegroup="P 1" unit_cell=conventional occupancy="_JSON {\"0\": {\"Cs\": 1.0}, \"1\": {\"Cs\": 1.0}, \"2\": {\"Cs\": 1.0}, \"3\": {\"Cs\": 1.0}, \"4\": {\"Pb\": 1.0}, \"5\": {\"Pb\": 1.0}, \"6\": {\"Pb\": 1.0}, \"7\": {\"Pb\": 1.0}, \"8\": {\"I\": 1.0}, \"9\": {\"I\": 1.0}, \"10\": {\"I\": 1.0}, \"11\": {\"I\": 1.0}, \"12\": {\"I\": 1.0}, \"13\": {\"I\": 1.0}, \"14\": {\"I\": 1.0}, \"15\": {\"I\": 1.0}, \"16\": {\"I\": 1.0}, \"17\": {\"I\": 1.0}, \"18\": {\"I\": 1.0}, \"19\": {\"I\": 1.0}, \"20\": {\"Cs\": 1.0}, \"21\": {\"Cs\": 1.0}, \"22\": {\"Cs\": 1.0}, \"23\": {\"Cs\": 1.0}, \"24\": {\"Pb\": 1.0}, \"25\": {\"Pb\": 1.0}, \"26\": {\"Pb\": 1.0}, \"27\": {\"Pb\": 1.0}, \"28\": {\"I\": 1.0}, \"29\": {\"I\": 1.0}, \"30\": {\"I\": 1.0}, \"31\": {\"I\": 1.0}, \"32\": {\"I\": 1.0}, \"33\": {\"I\": 1.0}, \"34\": {\"I\": 1.0}, \"35\": {\"I\": 1.0}, \"36\": {\"I\": 1.0}, \"37\": {\"I\": 1.0}, \"38\": {\"I\": 1.0}, \"39\": {\"I\": 1.0}}" energy=-113.2399362416661 free_energy=-113.2399362416661 stress="-2.435908644183943e-06 -3.3503319183081513e-06 -2.1818708484199504e-06 -3.3503319183081513e-06 4.888501302513489e-06 -2.0161746447304183e-06 -2.1818708484199504e-06 -2.0161746447304183e-06 1.6439994529998993e-06" pbc="T T T"
Cs       4.45949413      -1.10033997       3.78847459        0       0.00045304       0.00014591      -0.00044337
Cs      -2.45898273       3.73662348       3.44246618        1       0.00018811       0.00033047      -0.00007710
Cs       4.03978551       0.08041927      10.31688021        2       0.00011310      -0.00024504       0.00001755
Cs       5.44314374       4.61718288      11.40422738        3      -0.00011545      -0.00000569      -0.00006634
Pb      -0.98198774      -1.46508001      12.32747914        4       0.00047700      -0.00004423      -0.00000784
Pb       2.56372545       5.28226410       1.43179635        5      -0.00034721      -0.00033411      -0.00018830
Pb       0.08939649      -0.36046616       6.33628328        6       0.00025273       0.00042999       0.00026652
Pb       1.49187128       4.17760030       7.42268106        7      -0.00034906      -0.00017660       0.00026201
I       -3.11512177       7.06690935       1.30829568        8      -0.00033991      -0.00000498      -0.00040608
I        3.80432201       2.23023733       1.65351110        9      -0.00013331      -0.00001584       0.00014782
I        8.03098191       0.20083268       4.66669017       10       0.00019901      -0.00007617      -0.00046615
I        6.09937273       1.28696256      13.53805254       11      -0.00023391      -0.00022430       0.00022672
I       -0.82049161       6.12521537      13.19282682       12       0.00031302      -0.00007707       0.00041712
I        1.11151470       5.03917764       4.32035817       13       0.00002938      -0.00009086       0.00023036
I       -3.99835015       6.15695019       6.24435572       14      -0.00001294      -0.00009856      -0.00015270
I        2.92088771       1.31975044       6.58970696       15       0.00006850       0.00019283       0.00010616
I        0.46962816      -1.22263720       9.43882082       16       0.00008513       0.00035128      -0.00074265
I        6.98186024       2.19716364       8.60232752       17      -0.00022633       0.00025102       0.00002543
I        0.06231911       7.03520231       8.25674122       18      -0.00007684      -0.00010984      -0.00010039
I        1.87177618       3.31658583      10.52529511       19       0.00010253       0.00001881       0.00023574
Cs      12.78099528      -1.40031992       5.22117414       20       0.00047190       0.00007310      -0.00036464
Cs       5.86256410       3.43666501       4.87520957       21       0.00000521       0.00016439      -0.00012566
Cs      12.36124489      -0.21961233      11.74953407       22       0.00034322      -0.00015041       0.00010026
Cs      -2.87839311       4.91715207       9.97145972       23      -0.00009787      -0.00002408       0.00007940
Pb       7.33971348      -1.76516993      13.76030366       24      -0.00037147       0.00010827      -0.00026048
Pb      10.88510036       4.98211657       2.86431490       25       0.00028846       0.00038554       0.00039657
Pb       8.41088113      -0.66011654       7.76919410       26       0.00019659      -0.00059657      -0.00027195
Pb       9.81328894       3.87751370       8.85535292       27       0.00003451       0.00011941       0.00023736
I        5.20627920       6.76676859       2.74083812       28       0.00024591       0.00053740      -0.00001537
I       12.12581919       1.93039482       3.08631853       29      -0.00017667      -0.00053634      -0.00006357
I       -0.29059996       0.50078838       3.23374055       30      -0.00005197      -0.00020449       0.00046632
I       -2.22203322       1.58682027      12.10536721       31      -0.00049279       0.00021844       0.00013814
I        7.50119732       5.82520086      14.62567214       32      -0.00046366      -0.00023210      -0.00004704
I        9.43308716       4.73918593       5.75312429       33      -0.00002647      -0.00007198       0.00002330
I        4.32322858       5.85686517       7.67704397       34      -0.00003464       0.00021664      -0.00006448
I       11.24240083       1.01992198       8.02250887       35       0.00020033      -0.00015831      -0.00001455
I        8.79108504      -1.52269500      10.87128450       36      -0.00000109       0.00021813       0.00035780
I       -1.33976843       2.49729218       7.16967685       37       0.00022081      -0.00010016      -0.00015984
I        8.38403739       6.73514920       9.68945617       38      -0.00072358      -0.00011442      -0.00007257
I       10.19328110       3.01661137      11.95794969       39      -0.00001328      -0.00006950       0.00037649
