80
Lattice="15.879648784413842 0.0 0.0 -6.511014866673751 16.654511360746618 0.0 -1.838954055053066 -4.0130892971680945 14.693606965899264" Properties=species:S:1:pos:R:3 pbc="T T T"
Cs       2.85469356       7.03240837      -0.00006048
Cs       6.58647083       4.25665648      -0.00006048
K       -0.45973851      -1.00327232       3.67340174
In       2.37845093       1.48091489       0.00005564
I        3.42272571       3.26287591       1.46989848
I        5.09902038       6.01965456       5.87699743
I        1.34630466      -1.60510146       5.87695122
I        5.67404271      -0.40144319       1.46985227
I       -2.58586916       5.74240312       1.46985227
I       -1.58911530       0.57830791       5.87695122
Cs       1.93521653       5.02586372       7.34674301
Cs       5.66699380       2.25011183       7.34674301
K       -1.37921554      -3.00981697      11.02020522
In       1.45897390      -0.52562976       7.34685913
I        2.50324868       1.25633126       8.81670197
I        4.17954335       4.01310991      13.22380092
I        0.42682763      -3.61164611      13.22375470
I        4.75456568      -2.40798783       8.81665575
I       -3.50534619       3.73585847       8.81665575
I       -2.50859233      -1.42823673      13.22375470
Cs      -0.40081388      15.35966405      -0.00006048
Cs       3.33096340      12.58391216      -0.00006048
K       -3.71524595       7.32398336       3.67340174
In      -0.87705650       9.80817057       0.00005564
I        0.16721828      11.59013159       1.46989848
I        1.84351294      14.34691024       5.87699743
I       -1.90920278       6.72215422       5.87695122
I        2.41853528       7.92581249       1.46985227
I       -5.84137660      14.06965880       1.46985227
I       -4.84462273       8.90556360       5.87695122
Cs      -1.32029091      13.35311940       7.34674301
Cs       2.41148637      10.57736751       7.34674301
K       -4.63472297       5.31743871      11.02020522
In      -1.79653353       7.80162592       7.34685913
I       -0.75225875       9.58358694       8.81670197
I        0.92403592      12.34036559      13.22380092
I       -2.82867980       4.71560957      13.22375470
I        1.49905825       5.91926785       8.81665575
I       -6.76085362      12.06311415       8.81665575
I       -5.76409976       6.89901895      13.22375470
Cs      10.79451795       7.03240837      -0.00006048
Cs      14.52629522       4.25665648      -0.00006048
K        7.48008588      -1.00327232       3.67340174
In      10.31827532       1.48091489       0.00005564
I       11.36255010       3.26287591       1.46989848
I       13.03884477       6.01965456       5.87699743
I        9.28612905      -1.60510146       5.87695122
I       13.61386710      -0.40144319       1.46985227
I        5.35395523       5.74240312       1.46985227
I        6.35070909       0.57830791       5.87695122
Cs       9.87504092       5.02586372       7.34674301
Cs      13.60681820       2.25011183       7.34674301
K        6.56060885      -3.00981697      11.02020522
In       9.39879830      -0.52562976       7.34685913
I       10.44307307       1.25633126       8.81670197
I       12.11936774       4.01310991      13.22380092
I        8.36665202      -3.61164611      13.22375470
I       12.69439007      -2.40798783       8.81665575
I        4.43447820       3.73585847       8.81665575
I        5.43123207      -1.42823673      13.22375470
Cs       7.53901051      15.35966405      -0.00006048
Cs      11.27078779      12.58391216      -0.00006048
K        4.22457845       7.32398336       3.67340174
In       7.06276789       9.80817057       0.00005564
I        8.10704267      11.59013159       1.46989848
I        9.78333734      14.34691024       5.87699743
I        6.03062162       6.72215422       5.87695122
I       10.35835967       7.92581249       1.46985227
I        2.09844780      14.06965880       1.46985227
I        3.09520166       8.90556360       5.87695122
Cs       6.61953349      13.35311940       7.34674301
Cs      10.35131076      10.57736751       7.34674301
K        3.30510142       5.31743871      11.02020522
In       6.14329086       7.80162592       7.34685913
I        7.18756564       9.58358694       8.81670197
I        8.86386031      12.34036559      13.22380092
I        5.11114459       4.71560957      13.22375470
I        9.43888264       5.91926785       8.81665575
I        1.17897077      12.06311415       8.81665575
I        2.17572463       6.89901895      13.22375470
