80
Lattice="14.753701271004509 -0.34895438355560143 0.5052321133295138 -6.637742362408209 21.00626814777861 -0.18943499862231294 -1.0719188813170113 -5.237267703630097 13.7666302281242" Properties=species:S:1:pos:R:3:spacegroup_kinds:I:1:forces:R:3 spacegroup="P 1" unit_cell=conventional occupancy="_JSON {\"0\": {\"Cs\": 1.0}, \"1\": {\"Cs\": 1.0}, \"2\": {\"K\": 1.0}, \"3\": {\"In\": 1.0}, \"4\": {\"I\": 1.0}, \"5\": {\"I\": 1.0}, \"6\": {\"I\": 1.0}, \"7\": {\"I\": 1.0}, \"8\": {\"I\": 1.0}, \"9\": {\"I\": 1.0}, \"10\": {\"Cs\": 1.0}, \"11\": {\"Cs\": 1.0}, \"12\": {\"K\": 1.0}, \"13\": {\"In\": 1.0}, \"14\": {\"I\": 1.0}, \"15\": {\"I\": 1.0}, \"16\": {\"I\": 1.0}, \"17\": {\"I\": 1.0}, \"18\": {\"I\": 1.0}, \"19\": {\"I\": 1.0}, \"20\": {\"Cs\": 1.0}, \"21\": {\"Cs\": 1.0}, \"22\": {\"K\": 1.0}, \"23\": {\"In\": 1.0}, \"24\": {\"I\": 1.0}, \"25\": {\"I\": 1.0}, \"26\": {\"I\": 1.0}, \"27\": {\"I\": 1.0}, \"28\": {\"I\": 1.0}, \"29\": {\"I\": 1.0}, \"30\": {\"Cs\": 1.0}, \"31\": {\"Cs\": 1.0}, \"32\": {\"K\": 1.0}, \"33\": {\"In\": 1.0}, \"34\": {\"I\": 1.0}, \"35\": {\"I\": 1.0}, \"36\": {\"I\": 1.0}, \"37\": {\"I\": 1.0}, \"38\": {\"I\": 1.0}, \"39\": {\"I\": 1.0}, \"40\": {\"Cs\": 1.0}, \"41\": {\"Cs\": 1.0}, \"42\": {\"K\": 1.0}, \"43\": {\"In\": 1.0}, \"44\": {\"I\": 1.0}, \"45\": {\"I\": 1.0}, \"46\": {\"I\": 1.0}, \"47\": {\"I\": 1.0}, \"48\": {\"I\": 1.0}, \"49\": {\"I\": 1.0}, \"50\": {\"Cs\": 1.0}, \"51\": {\"Cs\": 1.0}, \"52\": {\"K\": 1.0}, \"53\": {\"In\": 1.0}, \"54\": {\"I\": 1.0}, \"55\": {\"I\": 1.0}, \"56\": {\"I\": 1.0}, \"57\": {\"I\": 1.0}, \"58\": {\"I\": 1.0}, \"59\": {\"I\": 1.0}, \"60\": {\"Cs\": 1.0}, \"61\": {\"Cs\": 1.0}, \"62\": {\"K\": 1.0}, \"63\": {\"In\": 1.0}, \"64\": {\"I\": 1.0}, \"65\": {\"I\": 1.0}, \"66\": {\"I\": 1.0}, \"67\": {\"I\": 1.0}, \"68\": {\"I\": 1.0}, \"69\": {\"I\": 1.0}, \"70\": {\"Cs\": 1.0}, \"71\": {\"Cs\": 1.0}, \"72\": {\"K\": 1.0}, \"73\": {\"In\": 1.0}, \"74\": {\"I\": 1.0}, \"75\": {\"I\": 1.0}, \"76\": {\"I\": 1.0}, \"77\": {\"I\": 1.0}, \"78\": {\"I\": 1.0}, \"79\": {\"I\": 1.0}}" energy=-206.51640661643933 free_energy=-206.51640661643933 stress="-1.930493346901091e-06 5.8659758607062064e-06 4.9437642193432465e-06 5.8659758607062064e-06 -3.710587881819902e-06 2.391723002420967e-06 4.9437642193432465e-06 2.391723002420967e-06 2.4221029049573887e-06" pbc="T T T"
Cs       3.11845630       1.68974791      11.78169638        0       0.00018585       0.00003582      -0.00022840
Cs       6.53767057       0.17222228      15.30395953        1       0.00029482       0.00020127      -0.00010622
K       -0.07296382      -0.08321607       2.97123325        2       0.00005109       0.00015624      -0.00004012
In       3.57155391       0.93254853      -0.79345138        3       0.00013301       0.00004378       0.00001668
I       -0.03868539       3.23806133       4.23377860        4       0.00034304       0.00025346      -0.00011986
I        4.39629413       9.54686907       6.87476741        5       0.00024214       0.00034930      -0.00003304
I        3.61667292       0.22991283       3.97440943        6      -0.00017115      -0.00017596      -0.00032767
I        5.04943746      -1.15969943       0.20068614        7       0.00021107       0.00015703      -0.00007594
I       -3.43290695       6.89037387       1.52448130        8      -0.00042938      -0.00018935       0.00029234
I       -3.97965655       0.88719721       7.14914832        9      -0.00002423       0.00005084       0.00002575
Cs       3.75296234       4.21653290       4.76760503       10       0.00004760       0.00008420       0.00026056
Cs       7.17580244       2.93822155       8.38137817       11      -0.00033764      -0.00027618      -0.00024283
K       -0.60903254      -2.91290049       9.77070622       12      -0.00037229      -0.00020429       0.00001465
In       3.04157991      -1.23246176       6.26410275       13      -0.00013044       0.00015084      -0.00015643
I       -0.47634381       0.35296721      11.13324462       14      -0.00007225      -0.00022687       0.00009333
I        3.84417478       5.43689374      13.18922344       15       0.00006449      -0.00001533       0.00026771
I        3.06191606      -3.88355354      10.28645177       16       0.00005385      -0.00006317       0.00016795
I        3.34412580      -3.90200243       5.64251241       17       0.00003689       0.00017787       0.00038571
I       -3.86848114       4.45707419       8.59905730       18       0.00020018       0.00013201      -0.00020628
I       -3.36139191      -2.80511114      15.01949555       19      -0.00048394       0.00000224      -0.00030187
Cs      -0.10270438      12.10182760      11.55532225       20       0.00009939      -0.00012259       0.00019598
Cs       3.32006995      10.82356157      15.16912339       21      -0.00023575       0.00003861      -0.00004108
K       -3.39182441      10.20870568       2.79292482       22      -0.00031915      -0.00020852       0.00003833
In       0.25864094      11.88867160      -0.71520735       23      -0.00030140       0.00005406       0.00016358
I       -3.25953430      13.47469836       4.15465831       24      -0.00037749       0.00012844       0.00011716
I        1.06226016      18.55871718       6.21265006       25       0.00004983       0.00009285       0.00013827
I        0.27974206       9.23816925       3.30887784       26      -0.00013172       0.00014673      -0.00011459
I        0.56274560       9.21922163      -1.33610949       27      -0.00017010       0.00009026      -0.00000324
I       -6.65200066      17.57831801       1.62018200       28       0.00051966       0.00013797      -0.00013709
I       -6.14586381      10.31627713       8.04073220       29      -0.00006636       0.00039903      -0.00059785
Cs       0.33498510      14.81241000       4.80280439       30       0.00022376      -0.00005129       0.00002048
Cs       3.75438790      13.29330878       8.32403149       31       0.00003722       0.00012125       0.00015148
K       -3.93007485       7.80170400       9.75976161       32       0.00050680       0.00013284      -0.00002755
In      -0.28287918       8.81749042       5.99553788       33       0.00014482      -0.00008338      -0.00001218
I       -3.89478363      11.12341379      11.02156833       34       0.00044292      -0.00012142       0.00004895
I        0.54233970      17.43248904      13.66531091       35       0.00001881      -0.00023050      -0.00018047
I       -0.23968434       8.11470872      10.76201599       36      -0.00027731      -0.00026612      -0.00008270
I        1.19497108       6.72511684       6.98953215       37       0.00005740      -0.00020006      -0.00016867
I       -7.28848879      14.77414022       8.31225670       38      -0.00001530       0.00005174       0.00030876
I       -7.83532139       8.77208861      13.93476106       39      -0.00001020      -0.00021726       0.00049386
Cs      10.59447867       1.42295461      11.90300667       40      -0.00038483      -0.00002510       0.00011443
Cs      -0.73735019       0.49489016      15.01124025       41      -0.00020328      -0.00017871       0.00038388
K        7.30302123      -0.46913162       3.14104246       42      -0.00007372       0.00004475       0.00017777
In      10.95428175       1.21198573      -0.36585601       43       0.00034932      -0.00017662       0.00023790
I        7.43648025       2.79736776       4.50316678       44      -0.00010916      -0.00027032       0.00000708
I       -2.99644661       8.23015671       6.05475087       45       0.00001088       0.00025174      -0.00009991
I       10.97493279      -1.43909278       3.65573767       46       0.00025454      -0.00003160      -0.00031688
I       11.25754155      -1.45778119      -0.98623048       47      -0.00041666      -0.00007939      -0.00032502
I        4.04388187       6.90112030       1.96824641       48       0.00046857      -0.00003231      -0.00044289
I        4.55102050      -0.36140472       8.38844045       49       0.00014600      -0.00051703       0.00005995
Cs      11.03163849       4.13470741       5.15103943       50      -0.00039578      -0.00000339      -0.00015975
Cs      -0.30296783       2.96534773       8.16751491       51       0.00022545       0.00003941      -0.00019189
K        6.76776159      -2.87608811      10.10777080       52       0.00008969       0.00012166      -0.00027262
In      10.41368402      -1.86044145       6.34261640       53      -0.00027405       0.00010933      -0.00034610
I        6.80251329       0.44435653      11.37039615       54      -0.00002441       0.00032918      -0.00030222
I       -3.51571348       7.10184042      13.50577559       55      -0.00011613       0.00027604      -0.00011618
I       10.45714091      -2.56452313      11.10998251       56      -0.00016063       0.00010019      -0.00004714
I       11.89197801      -3.95273124       7.33586880       57      -0.00002150      -0.00003677       0.00026128
I        3.40800481       4.09656437       8.66107291       58      -0.00041638       0.00003905       0.00007950
I        2.86013690      -1.90611575      14.28504121       59       0.00019279       0.00009137       0.00001112
Cs       7.17511895      12.01984274      11.93916051       60       0.00008400       0.00000541      -0.00029492
Cs      -4.15832185      10.84842631      14.95439983       61       0.00003622       0.00003012       0.00006323
K        3.98519933      10.24574521       3.12789864       62      -0.00005857       0.00020500       0.00008244
In       7.62970666      11.26129227      -0.63762223       63      -0.00004637       0.00014355      -0.00003483
I        4.01916321      13.56669808       4.39075098       64      -0.00022019      -0.00005568       0.00002004
I       -6.29829212      20.22659987       6.52830241       65      -0.00005963      -0.00053298       0.00027203
I        7.67393798      10.55592639       4.13063431       66      -0.00013813       0.00003380       0.00032863
I        9.10773244       9.16943062       0.35702645       67       0.00029217       0.00015792       0.00009946
I        0.62444888      17.21815996       1.68222574       68      -0.00046045       0.00024381       0.00011974
I        0.07728970      11.21639501       7.30695595       69      -0.00001495      -0.00017970      -0.00009005
Cs       7.81045042      14.54329120       4.92343853       70       0.00011791       0.00007734       0.00021745
Cs      -3.52100308      13.61697407       8.03284400       71      -0.00003788      -0.00011760       0.00001324
K        3.44660554       7.41594266       9.92906315       72       0.00020766      -0.00008785       0.00012340
In       7.09873268       9.09549825       6.42163938       73       0.00010271      -0.00018957       0.00030407
I        3.58033836      10.68222465      11.29088796       74       0.00001203      -0.00006969      -0.00003467
I       -6.85186298      16.11494224      12.84315048       75       0.00035317      -0.00014587      -0.00029777
I        7.11894790       6.44471847      10.44204939       76       0.00030076      -0.00008760       0.00038771
I        7.40245570       6.42570509       5.80192799       77      -0.00006525      -0.00007921      -0.00019984
I        0.18897562      14.78629592       8.75582740       78       0.00018526      -0.00025664      -0.00004129
I        0.69580017       7.52264385      15.17588104       79       0.00023028       0.00031756       0.00025216
