20
Lattice="18.765172667516296 0.0 0.0 -3.0025538037444695 8.138547377149035 0.0 0.5382788595448914 -1.7075395770539614 9.575196645948752" Properties=species:S:1:pos:R:3 pbc="T T T"
Cs       2.55963801       3.97247509       0.03036599
Cs      -1.03389116       4.98865897       9.54458374
K       -2.42709705       0.41133023       4.78760038
In      -2.69629832       1.26509176       0.00010427
I       -3.35823393       3.06654645       1.91546784
I        4.88395343       5.89478442       7.65977858
I       -0.57905478       2.02379175       7.65983165
I        2.10476444       6.93719871       1.91552090
I       -3.13488005       9.04382860       1.91547130
I        4.66065776      -0.08268916       7.65978205
Cs      11.94222435       3.97247509       0.03036599
Cs       8.34869517       4.98865897       9.54458374
K        6.95548928       0.41133023       4.78760038
In       6.68628802       1.26509176       0.00010427
I        6.02435240       3.06654645       1.91546784
I       14.26653976       5.89478442       7.65977858
I        8.80353155       2.02379175       7.65983165
I       11.48735078       6.93719871       1.91552090
I        6.24770628       9.04382860       1.91547130
I       14.04324409      -0.08268916       7.65978205
