40
Lattice="12.774061714420666 -3.75511756426358e-10 1.0860033045870582e-16 -3.7551175768216e-10 12.774061714421038 -2.209232559369773e-17 1.0726486244558646e-16 -2.0880910674561754e-17 12.774061714357916" Properties=species:S:1:pos:R:3:spacegroup_kinds:I:1:forces:R:3 spacegroup="P 1" unit_cell=conventional occupancy="_JSON {\"0\": {\"Cs\": 1.0}, \"1\": {\"Pb\": 1.0}, \"2\": {\"I\": 1.0}, \"3\": {\"I\": 1.0}, \"4\": {\"I\": 1.0}, \"5\": {\"Cs\": 1.0}, \"6\": {\"Pb\": 1.0}, \"7\": {\"I\": 1.0}, \"8\": {\"I\": 1.0}, \"9\": {\"I\": 1.0}, \"10\": {\"Cs\": 1.0}, \"11\": {\"Pb\": 1.0}, \"12\": {\"I\": 1.0}, \"13\": {\"I\": 1.0}, \"14\": {\"I\": 1.0}, \"15\": {\"Cs\": 1.0}, \"16\": {\"Pb\": 1.0}, \"17\": {\"I\": 1.0}, \"18\": {\"I\": 1.0}, \"19\": {\"I\": 1.0}, \"20\": {\"Cs\": 1.0}, \"21\": {\"Pb\": 1.0}, \"22\": {\"I\": 1.0}, \"23\": {\"I\": 1.0}, \"24\": {\"I\": 1.0}, \"25\": {\"Cs\": 1.0}, \"26\": {\"Pb\": 1.0}, \"27\": {\"I\": 1.0}, \"28\": {\"I\": 1.0}, \"29\": {\"I\": 1.0}, \"30\": {\"Cs\": 1.0}, \"31\": {\"Pb\": 1.0}, \"32\": {\"I\": 1.0}, \"33\": {\"I\": 1.0}, \"34\": {\"I\": 1.0}, \"35\": {\"Cs\": 1.0}, \"36\": {\"Pb\": 1.0}, \"37\": {\"I\": 1.0}, \"38\": {\"I\": 1.0}, \"39\": {\"I\": 1.0}}" energy=-111.84593939296853 free_energy=-111.84593939296853 stress="-1.558771272878861e-06 1.0083681934467172e-13 -8.010571572269528e-18 1.0083681934467172e-13 -1.5587712681814027e-06 -3.409044448594609e-18 -8.010571572269528e-18 -3.409044448594609e-18 -1.5587671443000591e-06" pbc="T T T"
Cs       3.19350241       3.19352844       3.19351543        0      -0.00000273       0.00000273       0.00000000
Pb       0.00000293      -0.00000293      -0.00000000        1       0.00000007      -0.00000007      -0.00000000
I        0.00002058      -0.00002058       3.19351543        2      -0.00000077       0.00000077      -0.00000000
I        3.19352159      -0.00002058      -0.00000000        3       0.00000420       0.00000077      -0.00000000
I        0.00002058       3.19350926      -0.00000000        4      -0.00000077      -0.00000420      -0.00000000
Cs       3.19350241       3.19352844       9.58054629        5      -0.00000273       0.00000273      -0.00000000
Pb       0.00000293      -0.00000293       6.38703086        6       0.00000007      -0.00000007       0.00000000
I        0.00002058      -0.00002058       9.58054629        7      -0.00000077       0.00000077       0.00000000
I        3.19352159      -0.00002058       6.38703086        8       0.00000420       0.00000077      -0.00000000
I        0.00002058       3.19350926       6.38703086        9      -0.00000077      -0.00000420      -0.00000000
Cs       3.19350241       9.58055930       3.19351543       10      -0.00000273       0.00000273       0.00000000
Pb       0.00000293       6.38702793      -0.00000000       11       0.00000007      -0.00000007      -0.00000000
I        0.00002058       6.38701028       3.19351543       12      -0.00000077       0.00000077      -0.00000000
I        3.19352159       6.38701028      -0.00000000       13       0.00000420       0.00000077      -0.00000000
I        0.00002058       9.58054012      -0.00000000       14      -0.00000077      -0.00000420      -0.00000000
Cs       3.19350241       9.58055930       9.58054629       15      -0.00000273       0.00000273      -0.00000000
Pb       0.00000293       6.38702793       6.38703086       16       0.00000007      -0.00000007       0.00000000
I        0.00002058       6.38701028       9.58054629       17      -0.00000077       0.00000077       0.00000000
I        3.19352159       6.38701028       6.38703086       18       0.00000420       0.00000077      -0.00000000
I        0.00002058       9.58054012       6.38703086       19      -0.00000077      -0.00000420      -0.00000000
Cs       9.58053327       3.19352844       3.19351543       20      -0.00000273       0.00000273       0.00000000
Pb       6.38703378      -0.00000293      -0.00000000       21       0.00000007      -0.00000007      -0.00000000
I        6.38705143      -0.00002058       3.19351543       22      -0.00000077       0.00000077      -0.00000000
I        9.58055245      -0.00002058      -0.00000000       23       0.00000420       0.00000077      -0.00000000
I        6.38705143       3.19350926      -0.00000000       24      -0.00000077      -0.00000420      -0.00000000
Cs       9.58053327       3.19352844       9.58054629       25      -0.00000273       0.00000273      -0.00000000
Pb       6.38703378      -0.00000293       6.38703086       26       0.00000007      -0.00000007      -0.00000000
I        6.38705143      -0.00002058       9.58054629       27      -0.00000077       0.00000077       0.00000000
I        9.58055245      -0.00002058       6.38703086       28       0.00000420       0.00000077      -0.00000000
I        6.38705143       3.19350926       6.38703086       29      -0.00000077      -0.00000420      -0.00000000
Cs       9.58053327       9.58055930       3.19351543       30      -0.00000273       0.00000273       0.00000000
Pb       6.38703378       6.38702793      -0.00000000       31       0.00000007      -0.00000007      -0.00000000
I        6.38705143       6.38701028       3.19351543       32      -0.00000077       0.00000077      -0.00000000
I        9.58055245       6.38701028      -0.00000000       33       0.00000420       0.00000077      -0.00000000
I        6.38705143       9.58054012      -0.00000000       34      -0.00000077      -0.00000420      -0.00000000
Cs       9.58053327       9.58055930       9.58054629       35      -0.00000273       0.00000273      -0.00000000
Pb       6.38703378       6.38702793       6.38703086       36       0.00000007      -0.00000007      -0.00000000
I        6.38705143       6.38701028       9.58054629       37      -0.00000077       0.00000077       0.00000000
I        9.58055245       6.38701028       6.38703086       38       0.00000420       0.00000077      -0.00000000
I        6.38705143       9.58054012       6.38703086       39      -0.00000077      -0.00000420      -0.00000000
