40
Lattice="19.743149418427887 -1.3549907707557691 -0.048051878871597904 -5.225464097999937 8.017382911392502 1.6692828307468652 -4.17500476193618 -1.0208719040285243 13.870742749969192" Properties=species:S:1:pos:R:3:spacegroup_kinds:I:1:forces:R:3 spacegroup="P 1" unit_cell=conventional occupancy="_JSON {\"0\": {\"Cs\": 1.0}, \"1\": {\"Cs\": 1.0}, \"2\": {\"Cs\": 1.0}, \"3\": {\"Cs\": 1.0}, \"4\": {\"Pb\": 1.0}, \"5\": {\"Pb\": 1.0}, \"6\": {\"Pb\": 1.0}, \"7\": {\"Pb\": 1.0}, \"8\": {\"I\": 1.0}, \"9\": {\"I\": 1.0}, \"10\": {\"I\": 1.0}, \"11\": {\"I\": 1.0}, \"12\": {\"I\": 1.0}, \"13\": {\"I\": 1.0}, \"14\": {\"I\": 1.0}, \"15\": {\"I\": 1.0}, \"16\": {\"I\": 1.0}, \"17\": {\"I\": 1.0}, \"18\": {\"I\": 1.0}, \"19\": {\"I\": 1.0}, \"20\": {\"Cs\": 1.0}, \"21\": {\"Cs\": 1.0}, \"22\": {\"Cs\": 1.0}, \"23\": {\"Cs\": 1.0}, \"24\": {\"Pb\": 1.0}, \"25\": {\"Pb\": 1.0}, \"26\": {\"Pb\": 1.0}, \"27\": {\"Pb\": 1.0}, \"28\": {\"I\": 1.0}, \"29\": {\"I\": 1.0}, \"30\": {\"I\": 1.0}, \"31\": {\"I\": 1.0}, \"32\": {\"I\": 1.0}, \"33\": {\"I\": 1.0}, \"34\": {\"I\": 1.0}, \"35\": {\"I\": 1.0}, \"36\": {\"I\": 1.0}, \"37\": {\"I\": 1.0}, \"38\": {\"I\": 1.0}, \"39\": {\"I\": 1.0}}" energy=-112.78568988159388 free_energy=-112.78568988159388 stress="-4.929345111113337e-07 -9.608399967934996e-06 8.258778327716133e-07 -9.608399967934996e-06 1.885446614739096e-06 -4.6418410790205835e-06 8.258778327716133e-07 -4.6418410790205835e-06 7.993224462400804e-06" pbc="T T T"
Cs       0.62222509       7.24539599       3.57067235        0       0.00010021       0.00005154      -0.00005802
Cs      -3.34349651       3.77651092       5.85073707        1      -0.00041794       0.00005598      -0.00022003
Cs       1.87512387      -0.40948539      10.71158075        2       0.00030288      -0.00027908       0.00054722
Cs       6.32350686       1.71662411      10.88562072        3       0.00028652      -0.00039311       0.00047204
Pb       0.29856027      -1.39459302      -1.45052164        4       0.00068206       0.00066942      -0.00029275
Pb       1.91921187       2.16793316       1.66819545        5       0.00027129      -0.00009952      -0.00001089
Pb       0.58442740       0.83610652       6.08455291        6       0.00033220      -0.00014622       0.00007729
Pb       2.20341060       4.39822139       9.20368379        7       0.00063384      -0.00039171       0.00025586
I       -2.92540619       4.76977634      -1.84890499        8      -0.00007298       0.00088783      -0.00043815
I        4.92277812       3.11548349       2.25636414        9       0.00028971       0.00037374       0.00046696
I       12.10126294      -1.10517932       3.53344430       10       0.00008153      -0.00021135       0.00028235
I        4.80447580      -0.49879907      13.88906875       11      -0.00024569      -0.00049029      -0.00000284
I       -2.42471589       4.12002195      14.09303973       12      -0.00012630       0.00010191      -0.00033580
I        0.27388166       3.43212385       4.19511749       13      -0.00016657      -0.00016712      -0.00002124
I       -4.47238728       5.87990732       9.19957985       14       0.00014615       0.00024630       0.00010379
I        3.39630768       1.80524679       7.70993774       15      -0.00018388       0.00005780      -0.00018524
I       -6.35117618       7.31202845      14.72979663       16      -0.00025582      -0.00013500       0.00015303
I        7.45201201      -0.78956264       5.46986279       17      -0.00019290      -0.00028736       0.00036656
I        0.20381314       6.25067239      11.27088595       18      -0.00044154       0.00033722       0.00002422
I       -0.54650085       2.68951527       8.56215943       19      -0.00049782      -0.00054815       0.00015788
Cs      10.49337327       6.56709488       3.54946773       20      -0.00020673       0.00041779      -0.00045979
Cs       6.52692616       3.09850680       5.82549365       21       0.00003810       0.00014141      -0.00021551
Cs      11.74667417      -1.08744301      10.68803738       22      -0.00010920      -0.00010722       0.00002587
Cs      -3.54714903       2.39081406      10.91202067       23       0.00019162       0.00079639      -0.00031943
Pb      10.17158741      -2.07114622      -1.47540179       24      -0.00002100       0.00042742       0.00012102
Pb      11.79092964       1.49075220       1.64363999       25      -0.00017609      -0.00035072       0.00026623
Pb      10.45503030       0.15856075       6.05989874       26       0.00006584       0.00015728      -0.00018883
Pb      12.07528142       3.71963597       9.18027625       27      -0.00009846      -0.00034127       0.00013885
I        6.94672210       4.09363533      -1.87330085       28      -0.00059216       0.00027489      -0.00032530
I       14.79420399       2.43903595       2.23398121       29      -0.00015325      -0.00015468       0.00008260
I        2.23121593      -0.42743805       3.55834891       30      -0.00015675      -0.00018517       0.00015229
I       14.67495111      -1.17850540      13.86769008       31       0.00035239       0.00032335      -0.00050503
I        7.44595705       3.44260327      14.06850993       32       0.00003996      -0.00056411       0.00030010
I       10.14399670       2.75415681       4.16989186       33      -0.00016977       0.00025853      -0.00022222
I        5.39908913       5.20372629       9.17512419       34       0.00011237      -0.00027588      -0.00004511
I       13.26686903       1.12790318       7.68474381       35       0.00060987      -0.00028350       0.00011164
I        3.52172321       6.63342573      14.70712697       36      -0.00012477      -0.00004344       0.00001077
I       17.32448275      -1.46625148       5.44773913       37      -0.00062318      -0.00056648       0.00002390
I       10.07372656       5.57174955      11.24726847       38       0.00005439       0.00021612      -0.00008596
I        9.32439404       2.01120546       8.53782075       39       0.00044189       0.00022646      -0.00020833
