20
Lattice="19.765449901385416 -1.48464786536423 -1.530109962738129 -3.4294394862292066 8.537118377308344 0.3385980970334914 -3.1048341967868454 -1.9980272910030572 7.774293860836101" Properties=species:S:1:pos:R:3:spacegroup_kinds:I:1:forces:R:3 spacegroup="P 1" unit_cell=conventional occupancy="_JSON {\"0\": {\"Cs\": 1.0}, \"1\": {\"Cs\": 1.0}, \"2\": {\"K\": 1.0}, \"3\": {\"In\": 1.0}, \"4\": {\"I\": 1.0}, \"5\": {\"I\": 1.0}, \"6\": {\"I\": 1.0}, \"7\": {\"I\": 1.0}, \"8\": {\"I\": 1.0}, \"9\": {\"I\": 1.0}, \"10\": {\"Cs\": 1.0}, \"11\": {\"Cs\": 1.0}, \"12\": {\"K\": 1.0}, \"13\": {\"In\": 1.0}, \"14\": {\"I\": 1.0}, \"15\": {\"I\": 1.0}, \"16\": {\"I\": 1.0}, \"17\": {\"I\": 1.0}, \"18\": {\"I\": 1.0}, \"19\": {\"I\": 1.0}}" energy=-51.30704477605963 free_energy=-51.30704477605963 stress="1.8927763551687428e-07 2.0649096434266447e-07 -2.112195190762125e-08 2.0649096434266447e-07 -9.108853293483927e-08 -1.524624280222178e-07 -2.112195190762125e-08 -1.524624280222178e-07 -1.0421319666456895e-06" pbc="T T T"
Cs       5.05275361       2.76140992      -1.71000085        0       0.00003891      -0.00007222      -0.00004467
Cs      -3.21745316       3.30766088       9.17646026        1       0.00015427      -0.00012653      -0.00005804
K       -2.30895041      -0.86299200       3.94646682        2      -0.00001757      -0.00005595      -0.00023974
In      19.00887234      -1.34848940      -1.47085785        3       0.00003827      -0.00030112       0.00005261
I       17.43675299       0.58031235       0.20816532        4      -0.00011179       0.00016814       0.00014409
I        4.16416809       4.00395578       5.72801917        5      -0.00003585       0.00003362       0.00014553
I       -1.84343363       0.28390915       7.22317906        6      -0.00007262       0.00029122       0.00024621
I        3.67888676       5.78514963       0.24295638        7      -0.00017332      -0.00033729       0.00002560
I        0.86244371      -0.62055865       2.47891463        8       0.00001642       0.00001108       0.00017040
I        4.40234080      -1.84755577       4.64873756        9       0.00001246      -0.00000751       0.00007630
Cs      14.93553773       2.01907351      -2.47507621       10      -0.00011432       0.00001929       0.00000947
Cs       6.66544137       2.56519764       8.41134467       11      -0.00016528       0.00011292       0.00007648
K        7.57376180      -1.60535751       3.18130919       12       0.00001278       0.00013490       0.00015125
In       9.12621025      -0.60629601      -0.70576776       13       0.00003210       0.00049942       0.00002992
I        7.55386871       1.32268782       0.97328936       14       0.00021598      -0.00011001      -0.00012774
I       14.04693640       3.26170596       4.96313175       15      -0.00008799      -0.00018942      -0.00018030
I        8.03911513      -0.45828317       6.45833682       16       0.00008294      -0.00026884      -0.00012560
I       13.56150167       5.04258518      -0.52210944       17       0.00019510       0.00023953       0.00013411
I       10.74522857      -1.36290250       1.71405793       18      -0.00001202      -0.00003189      -0.00025784
I       14.28501211      -2.58988898       3.88382182       19      -0.00000849      -0.00000934      -0.00022801
