20
Lattice="18.444464182300045 0.0873285852885485 0.045064986093179334 4.653273176928809 7.457326908319665 0.2251733994592366 4.642664263965424 2.6757510380630505 7.528295921169674" Properties=species:S:1:pos:R:3:spacegroup_kinds:I:1:forces:R:3 spacegroup="P 1" unit_cell=conventional occupancy="_JSON {\"0\": {\"Cs\": 1.0}, \"1\": {\"Cs\": 1.0}, \"2\": {\"K\": 1.0}, \"3\": {\"In\": 1.0}, \"4\": {\"I\": 1.0}, \"5\": {\"I\": 1.0}, \"6\": {\"I\": 1.0}, \"7\": {\"I\": 1.0}, \"8\": {\"I\": 1.0}, \"9\": {\"I\": 1.0}, \"10\": {\"Cs\": 1.0}, \"11\": {\"Cs\": 1.0}, \"12\": {\"K\": 1.0}, \"13\": {\"In\": 1.0}, \"14\": {\"I\": 1.0}, \"15\": {\"I\": 1.0}, \"16\": {\"I\": 1.0}, \"17\": {\"I\": 1.0}, \"18\": {\"I\": 1.0}, \"19\": {\"I\": 1.0}}" energy=-51.297891702916196 free_energy=-51.297891702916196 stress="6.657444517510766e-07 1.2652617363626469e-06 -1.698445734631273e-06 1.2652617363626469e-06 -1.0866737328366734e-06 3.8005520416527537e-06 -1.698445734631273e-06 3.8005520416527537e-06 -3.996648263614923e-06" pbc="T T T"
Cs       4.63390155       2.72995680       1.89935203        0      -0.00028190      -0.00023233      -0.00007760
Cs      13.88507704       7.44686419       5.87694975        1      -0.00019572       0.00016752      -0.00014975
K        9.25827537       5.08841394       3.88801248        2       0.00063433      -0.00009559      -0.00006537
In      18.44415885       0.08732394       0.04525722        3       0.00040435       0.00014256      -0.00026328
I        6.33777938       3.67953759       5.29729370        4      -0.00015405       0.00033650      -0.00010624
I       12.18051855       6.49654864       2.47899755        5       0.00008102       0.00018228      -0.00027093
I        9.95198194       2.42042730       1.66638519        6      -0.00002294      -0.00002420       0.00031357
I        8.56626722       7.75655313       6.10922370        7      -0.00010652      -0.00010457       0.00013833
I        6.99878282       6.00024448       1.32501784        8      -0.00009828      -0.00016162       0.00003809
I       11.51946154       4.17677081       6.45061114        9      -0.00012461      -0.00006482       0.00028591
Cs      13.85614894       2.77361895       1.92189908       10      -0.00034379      -0.00020218      -0.00010793
Cs      23.10729413       7.49053134       5.89946821       11      -0.00014057       0.00013495      -0.00011696
K       18.48051418       5.13207747       3.91054503       12       0.00060472      -0.00009147      -0.00006260
In       9.22199760       0.04370234       0.02264360       13       0.00001584      -0.00008465       0.00015258
I       15.55998508       3.72320702       5.31985198       14       0.00003778       0.00038909      -0.00033191
I       21.40275199       6.54019910       2.50153205       15      -0.00002031       0.00017915      -0.00015195
I       19.17424878       2.46411160       1.68892307       16      -0.00012327      -0.00010506       0.00027438
I       17.78847062       7.80020585       6.13175691       17      -0.00002882      -0.00008795       0.00013060
I       16.22100664       6.04390847       1.34757754       18      -0.00005436      -0.00018746      -0.00000147
I       20.74168642       4.22044469       6.47310576       19      -0.00008290      -0.00009016       0.00037254
