20
Lattice="12.773808799171755 -3.957647249665665e-08 4.983965829123463e-17 -3.9576472495031116e-08 12.773808799172043 4.768646715379584e-16 2.487683003999074e-17 2.3842283755881423e-16 6.38690439693505" Properties=species:S:1:pos:R:3:spacegroup_kinds:I:1:forces:R:3 spacegroup="P 1" unit_cell=conventional occupancy="_JSON {\"0\": {\"Cs\": 1.0}, \"1\": {\"Pb\": 1.0}, \"2\": {\"I\": 1.0}, \"3\": {\"I\": 1.0}, \"4\": {\"I\": 1.0}, \"5\": {\"Cs\": 1.0}, \"6\": {\"Pb\": 1.0}, \"7\": {\"I\": 1.0}, \"8\": {\"I\": 1.0}, \"9\": {\"I\": 1.0}, \"10\": {\"Cs\": 1.0}, \"11\": {\"Pb\": 1.0}, \"12\": {\"I\": 1.0}, \"13\": {\"I\": 1.0}, \"14\": {\"I\": 1.0}, \"15\": {\"Cs\": 1.0}, \"16\": {\"Pb\": 1.0}, \"17\": {\"I\": 1.0}, \"18\": {\"I\": 1.0}, \"19\": {\"I\": 1.0}}" energy=-55.92296940389511 free_energy=-55.92296940389511 stress="-7.489134499259653e-06 -1.6934405927146548e-10 -5.7316821268250225e-18 -1.6934405927146548e-10 -7.489134496821641e-06 -1.7006460623851152e-18 -5.7316821268250225e-18 -1.7006460623851152e-18 -7.4891680680553706e-06" pbc="T T T"
Cs       3.19356425       3.19334013       3.19345220        0      -0.00000671       0.00000671       0.00000000
Pb       0.00002231      -0.00002231      -0.00000000        1      -0.00000085       0.00000085       0.00000000
I        0.00010489      -0.00010489       3.19345220        2      -0.00001660       0.00001660      -0.00000000
I        3.19348036      -0.00010490      -0.00000000        3       0.00004077       0.00001660       0.00000000
I        0.00010488       3.19342404      -0.00000000        4      -0.00001660      -0.00004077       0.00000000
Cs       3.19356423       9.58024453       3.19345220        5      -0.00000671       0.00000671       0.00000000
Pb       0.00002229       6.38688209      -0.00000000        6      -0.00000085       0.00000085       0.00000000
I        0.00010487       6.38679951       3.19345220        7      -0.00001660       0.00001660      -0.00000000
I        3.19348034       6.38679950      -0.00000000        8       0.00004077       0.00001660       0.00000000
I        0.00010486       9.58032844      -0.00000000        9      -0.00001660      -0.00004077       0.00000000
Cs       9.58046865       3.19334011       3.19345220       10      -0.00000671       0.00000671       0.00000000
Pb       6.38692671      -0.00002233      -0.00000000       11      -0.00000085       0.00000085       0.00000000
I        6.38700929      -0.00010491       3.19345220       12      -0.00001660       0.00001660      -0.00000000
I        9.58038476      -0.00010492      -0.00000000       13       0.00004077       0.00001660       0.00000000
I        6.38700928       3.19342402      -0.00000000       14      -0.00001660      -0.00004077       0.00000000
Cs       9.58046863       9.58024451       3.19345220       15      -0.00000671       0.00000671       0.00000000
Pb       6.38692669       6.38688207      -0.00000000       16      -0.00000085       0.00000085       0.00000000
I        6.38700927       6.38679949       3.19345220       17      -0.00001660       0.00001660      -0.00000000
I        9.58038474       6.38679948      -0.00000000       18       0.00004077       0.00001660       0.00000000
I        6.38700926       9.58032842      -0.00000000       19      -0.00001660      -0.00004077       0.00000000
