40
Lattice="16.634928455680242 4.504729546601683 0.3480564551193263 -12.227768118239812 12.143925559896925 0.3812581491281791 -0.08535295160301809 -0.36035351971216656 8.742392330907258" Properties=species:S:1:pos:R:3:spacegroup_kinds:I:1:forces:R:3 spacegroup="P 1" unit_cell=conventional occupancy="_JSON {\"0\": {\"Cs\": 1.0}, \"1\": {\"Cs\": 1.0}, \"2\": {\"K\": 1.0}, \"3\": {\"In\": 1.0}, \"4\": {\"I\": 1.0}, \"5\": {\"I\": 1.0}, \"6\": {\"I\": 1.0}, \"7\": {\"I\": 1.0}, \"8\": {\"I\": 1.0}, \"9\": {\"I\": 1.0}, \"10\": {\"Cs\": 1.0}, \"11\": {\"Cs\": 1.0}, \"12\": {\"K\": 1.0}, \"13\": {\"In\": 1.0}, \"14\": {\"I\": 1.0}, \"15\": {\"I\": 1.0}, \"16\": {\"I\": 1.0}, \"17\": {\"I\": 1.0}, \"18\": {\"I\": 1.0}, \"19\": {\"I\": 1.0}, \"20\": {\"Cs\": 1.0}, \"21\": {\"Cs\": 1.0}, \"22\": {\"K\": 1.0}, \"23\": {\"In\": 1.0}, \"24\": {\"I\": 1.0}, \"25\": {\"I\": 1.0}, \"26\": {\"I\": 1.0}, \"27\": {\"I\": 1.0}, \"28\": {\"I\": 1.0}, \"29\": {\"I\": 1.0}, \"30\": {\"Cs\": 1.0}, \"31\": {\"Cs\": 1.0}, \"32\": {\"K\": 1.0}, \"33\": {\"In\": 1.0}, \"34\": {\"I\": 1.0}, \"35\": {\"I\": 1.0}, \"36\": {\"I\": 1.0}, \"37\": {\"I\": 1.0}, \"38\": {\"I\": 1.0}, \"39\": {\"I\": 1.0}}" energy=-103.10312609605121 free_energy=-103.10312609605121 stress="2.8959253445286368e-08 -1.265868543217283e-07 -8.590402685637683e-08 -1.265868543217283e-07 -2.6635773887855205e-08 9.08882896055003e-08 -8.590402685637683e-08 9.08882896055003e-08 8.909474584230577e-08" pbc="T T T"
Cs       6.30495923       3.92357079      10.21663450        0       0.00003872      -0.00005880       0.00004859
Cs       1.60396200       5.65878659      -0.98626794        1      -0.00000649      -0.00011772      -0.00005740
K        2.85274599       0.62909620       4.43280766        2      -0.00000710      -0.00010307       0.00002564
In       2.89532275       0.80909187       0.06162030        3       0.00022723      -0.00001035      -0.00005924
I       10.85625635       5.39162771       2.07396364        4      -0.00006645       0.00002342      -0.00008072
I       -2.94736178       4.19040958       7.15653037        5       0.00016187       0.00010924      -0.00018134
I        3.17006328       7.56744529       2.08859877        6       0.00015535       0.00010276       0.00004976
I        4.73882873       2.01467473       7.14171467        7       0.00008057      -0.00001887       0.00003568
I        7.33351366       8.15394411       2.15343438        8       0.00003819      -0.00017871       0.00007177
I        0.57551690       1.42845198       7.07685649        9      -0.00002818       0.00002759       0.00005124
Cs       0.19126725       9.99540058      10.40724071       10      -0.00018714       0.00006365      -0.00006551
Cs      -4.50992824      11.73061121      -0.79574367       11       0.00002069       0.00002442       0.00003508
K       -3.26129206       6.70043862       4.62337856       12       0.00000506       0.00025221       0.00007365
In      -3.21845500       6.88105434       0.25225676       13      -0.00045953       0.00004977      -0.00002418
I        4.74214340      11.46342064       2.26444252       14      -0.00001462       0.00026992       0.00019223
I        3.16677455      -1.88137198       6.96565344       15      -0.00011352       0.00019363       0.00021591
I       -2.94379328      13.63964114       2.27931174       16       0.00004936       0.00000662      -0.00018514
I       -1.37513292       8.08640748       7.33220923       17       0.00023868       0.00023445      -0.00003861
I        1.21953094      14.22556892       2.34400945       18      -0.00010290       0.00014320      -0.00007127
I       -5.53836014       7.50033303       7.26744883       19       0.00003279      -0.00001866       0.00008335
Cs      -2.01263484       1.67114655      10.04255359       20       0.00020554      -0.00003876       0.00006281
Cs       9.92148144       7.91106804      -0.81220145       21      -0.00011674       0.00003606      -0.00009324
K       11.17030048       2.88169790       4.60693228       22      -0.00008383      -0.00023211      -0.00022879
In      11.21275945       3.06152084       0.23558221       23       0.00028075      -0.00013976       0.00035731
I        2.53874358       3.13929521       1.89992028       24       0.00002445      -0.00013284      -0.00012547
I        5.37021675       6.44294539       7.33052173       25       0.00010814       0.00001565      -0.00016756
I       11.48755911       9.81979508       2.26254694       26       0.00001586       0.00006303       0.00018100
I       -3.57852266      -0.23766510       6.96771158       27      -0.00002553       0.00007271      -0.00000443
I       -0.98400355       5.90146764       1.97937994       28       0.00010743      -0.00011332       0.00008321
I        8.89297726       3.68092033       7.25092752       29      -0.00011075       0.00006216      -0.00005300
Cs      -8.12624079       7.74296639      10.23329089       30      -0.00006187       0.00006868      -0.00010949
Cs       3.80744293      13.98301350      -0.62180065       31       0.00011319       0.00004218       0.00008745
K        5.05622623       8.95311955       4.79742882       32       0.00004527       0.00009142       0.00013966
In       5.09898338       9.13342601       0.42629399       33      -0.00003488       0.00011771      -0.00027533
I       -3.57531904       9.21114004       2.09055996       34       0.00010831      -0.00018476      -0.00006987
I       11.48428951       0.37127210       7.13953891       35      -0.00012259      -0.00031862       0.00020796
I        5.37370791      15.89203170       2.45330084       36      -0.00022230      -0.00021296      -0.00005567
I       -9.69239928       5.83428762       7.15821915       37      -0.00029683      -0.00026549       0.00007318
I       -7.09791844      11.97320931       2.17001032       38      -0.00005458       0.00013310      -0.00008320
I        2.77907317       9.75274719       7.44150151       39       0.00005841      -0.00005881      -0.00004603
