40
Lattice="16.737196271945454 0.0 0.0 -14.467694171631472 8.415436079120651 0.0 0.0 0.0 7.945912994650824" Properties=species:S:1:pos:R:3 pbc="T T T"
Cs       6.07743263       1.41621138       7.93834647
Cs       0.87661756       2.81878406       0.00736967
K        2.90965851       0.01362603       3.97296097
In       2.90968004       0.01363491       0.00005529
I        9.08167165       0.01652234       1.58945863
I       -2.12763912       4.21839127       6.35649610
I        3.21266458       1.11556462       1.58947838
I        3.74145322       3.11947752       6.35651586
I        5.93798629       3.11654261       1.58945068
I        1.01606321       1.11847881       6.35648815
Cs      -1.15641445       5.62392942       7.93834647
Cs      -6.35722952       7.02650210       0.00736967
K       -4.32418858       4.22134407       3.97296097
In      -4.32416705       4.22135295       0.00005529
I        1.84782457       4.22424037       1.58945863
I       -9.36148621       8.42610931       6.35649610
I       -4.02118250       5.32328266       1.58947838
I       -3.49239387       7.32719556       6.35651586
I       -1.29586080       7.32426065       1.58945068
I       -6.21778388       5.32619685       6.35648815
Cs      14.44603077       1.41621138       7.93834647
Cs       9.24521570       2.81878406       0.00736967
K       11.27825664       0.01362603       3.97296097
In      11.27827817       0.01363491       0.00005529
I       17.45026979       0.01652234       1.58945863
I        6.24095901       4.21839127       6.35649610
I       11.58126272       1.11556462       1.58947838
I       12.11005136       3.11947752       6.35651586
I       14.30658442       3.11654261       1.58945068
I        9.38466135       1.11847881       6.35648815
Cs       7.21218369       5.62392942       7.93834647
Cs       2.01136861       7.02650210       0.00736967
K        4.04440956       4.22134407       3.97296097
In       4.04443109       4.22135295       0.00005529
I       10.21642270       4.22424037       1.58945863
I       -0.99288807       8.42610931       6.35649610
I        4.34741563       5.32328266       1.58947838
I        4.87620427       7.32719556       6.35651586
I        7.07273734       7.32426065       1.58945068
I        2.15081426       5.32619685       6.35648815
