80
Lattice="18.415549554469575 0.08239144196344143 0.1012043094194678 9.281645768701681 16.009192953116614 0.06271615439582748 9.298059197181376 5.362227332112025 13.935836075258791" Properties=species:S:1:pos:R:3:spacegroup_kinds:I:1:forces:R:3 spacegroup="P 1" unit_cell=conventional occupancy="_JSON {\"0\": {\"Cs\": 1.0}, \"1\": {\"Cs\": 1.0}, \"2\": {\"K\": 1.0}, \"3\": {\"In\": 1.0}, \"4\": {\"I\": 1.0}, \"5\": {\"I\": 1.0}, \"6\": {\"I\": 1.0}, \"7\": {\"I\": 1.0}, \"8\": {\"I\": 1.0}, \"9\": {\"I\": 1.0}, \"10\": {\"Cs\": 1.0}, \"11\": {\"Cs\": 1.0}, \"12\": {\"K\": 1.0}, \"13\": {\"In\": 1.0}, \"14\": {\"I\": 1.0}, \"15\": {\"I\": 1.0}, \"16\": {\"I\": 1.0}, \"17\": {\"I\": 1.0}, \"18\": {\"I\": 1.0}, \"19\": {\"I\": 1.0}, \"20\": {\"Cs\": 1.0}, \"21\": {\"Cs\": 1.0}, \"22\": {\"K\": 1.0}, \"23\": {\"In\": 1.0}, \"24\": {\"I\": 1.0}, \"25\": {\"I\": 1.0}, \"26\": {\"I\": 1.0}, \"27\": {\"I\": 1.0}, \"28\": {\"I\": 1.0}, \"29\": {\"I\": 1.0}, \"30\": {\"Cs\": 1.0}, \"31\": {\"Cs\": 1.0}, \"32\": {\"K\": 1.0}, \"33\": {\"In\": 1.0}, \"34\": {\"I\": 1.0}, \"35\": {\"I\": 1.0}, \"36\": {\"I\": 1.0}, \"37\": {\"I\": 1.0}, \"38\": {\"I\": 1.0}, \"39\": {\"I\": 1.0}, \"40\": {\"Cs\": 1.0}, \"41\": {\"Cs\": 1.0}, \"42\": {\"K\": 1.0}, \"43\": {\"In\": 1.0}, \"44\": {\"I\": 1.0}, \"45\": {\"I\": 1.0}, \"46\": {\"I\": 1.0}, \"47\": {\"I\": 1.0}, \"48\": {\"I\": 1.0}, \"49\": {\"I\": 1.0}, \"50\": {\"Cs\": 1.0}, \"51\": {\"Cs\": 1.0}, \"52\": {\"K\": 1.0}, \"53\": {\"In\": 1.0}, \"54\": {\"I\": 1.0}, \"55\": {\"I\": 1.0}, \"56\": {\"I\": 1.0}, \"57\": {\"I\": 1.0}, \"58\": {\"I\": 1.0}, \"59\": {\"I\": 1.0}, \"60\": {\"Cs\": 1.0}, \"61\": {\"Cs\": 1.0}, \"62\": {\"K\": 1.0}, \"63\": {\"In\": 1.0}, \"64\": {\"I\": 1.0}, \"65\": {\"I\": 1.0}, \"66\": {\"I\": 1.0}, \"67\": {\"I\": 1.0}, \"68\": {\"I\": 1.0}, \"69\": {\"I\": 1.0}, \"70\": {\"Cs\": 1.0}, \"71\": {\"Cs\": 1.0}, \"72\": {\"K\": 1.0}, \"73\": {\"In\": 1.0}, \"74\": {\"I\": 1.0}, \"75\": {\"I\": 1.0}, \"76\": {\"I\": 1.0}, \"77\": {\"I\": 1.0}, \"78\": {\"I\": 1.0}, \"79\": {\"I\": 1.0}}" energy=-205.19143901697748 free_energy=-205.19143901697748 stress="-1.3950462429558064e-05 -1.965414899111493e-06 1.1554150142910388e-05 -1.965414899111493e-06 1.28513060154544e-05 1.8035097614654689e-06 1.1554150142910388e-05 1.8035097614654689e-06 -4.286114245862052e-07" pbc="T T T"
Cs       4.63547338       2.70215265       1.95279846        0       0.00009153      -0.00010784      -0.00035648
Cs      13.86176581       8.02459812       5.09868847        1      -0.00003045       0.00009792      -0.00026707
K        9.24871982       5.36345999       3.52463720        2      -0.00000820       0.00011801       0.00021451
In      18.41550125       0.08255432       0.10103479        3       0.00060559      -0.00031731       0.00027619
I        6.99217864       3.24331580       5.23030915        4       0.00009824       0.00021265      -0.00046900
I       11.50606015       7.48399545       1.82043885        5       0.00001567      -0.00035290      -0.00044810
I        9.93867869       2.37321491       1.75677120        6       0.00005934      -0.00038724      -0.00010725
I        8.55842089       8.35405308       5.29246586        7       0.00019876       0.00016243       0.00040085
I        6.33782989       6.22399193       1.71020607        8       0.00000212      -0.00000619       0.00030099
I       12.16006556       4.50232438       5.33836784        9      -0.00010786       0.00018356       0.00040198
Cs       9.28450825       5.38324558       8.92071214       10       0.00011823      -0.00003779      -0.00032105
Cs      18.51078548      10.70577216      12.06660482       11      -0.00005141      -0.00004330      -0.00028463
K       13.89779587       8.04458550      10.49255580       12      -0.00008930       0.00009227       0.00020230
In      23.06455450       2.76361308       7.06893858       13      -0.00001094      -0.00035270       0.00026589
I       11.64128810       5.92439039      12.19819316       14      -0.00026852       0.00024585      -0.00022185
I       16.15502797      10.16510067       8.78843141       15       0.00027304      -0.00029004      -0.00069532
I       14.58772309       5.05428107       8.72460719       16      -0.00003565      -0.00040797      -0.00004277
I       13.20740470      11.03518913      12.26042181       17       0.00034327       0.00027294       0.00041859
I       10.98692508       8.90517996       8.67813152       18      -0.00022826      -0.00009132       0.00021689
I       16.80897693       7.18336500      12.30626948       19       0.00027030       0.00024880       0.00055849
Cs       9.27636761      10.70670197       1.98416421       20      -0.00000883       0.00002823      -0.00034270
Cs      18.50249560      16.02925553       5.13005029       21       0.00013468      -0.00007251      -0.00027928
K       13.88949743      13.36803985       3.55600135       22       0.00010995       0.00014352       0.00019826
In      23.05645628       8.08701137       0.13241345       23      -0.00039705      -0.00027043      -0.00026898
I       11.63310263      11.24815678       5.26161566       24      -0.00037068      -0.00042099      -0.00015493
I       16.14701844      15.48843340       1.85168629       25      -0.00018351       0.00003776      -0.00021822
I       14.57937871      10.37762778       1.78795876       26       0.00030256      -0.00000829       0.00031111
I       13.19932962      16.35877209       5.32396230       27       0.00000339      -0.00017519      -0.00001200
I       10.97861350      14.22844860       1.74150491       28      -0.00007855       0.00045939       0.00030172
I       16.80103711      12.50697656       5.36985947       29      -0.00030361      -0.00005193       0.00017337
Cs      13.92541450      13.38782271       8.95208162       30      -0.00009314       0.00000038      -0.00035669
Cs      23.15151158      18.71040746      12.09795018       31       0.00019988      -0.00011090      -0.00026422
K       18.53856677      16.04915812      10.52393444       32       0.00003474       0.00014119       0.00016371
In      27.70528998      10.76800770       7.10032287       33       0.00057156       0.00012253      -0.00010719
I       16.28216491      13.92920835      12.22950867       34      -0.00026942      -0.00023941      -0.00018567
I       20.79600343      18.16956119       8.81968408       35      -0.00018336      -0.00002204      -0.00035072
I       19.22843202      13.05864987       8.75578886       36       0.00030558       0.00038270       0.00064553
I       17.84830184      19.03993350      12.29190516       37       0.00008255      -0.00032470      -0.00012699
I       15.62764552      16.90962546       8.70941477       38       0.00003838       0.00024402       0.00043283
I       21.44997871      15.18804342      12.33776854       39      -0.00016189       0.00005734       0.00017200
Cs      13.84322797       2.74335542       2.00339411       40       0.00014695      -0.00009088      -0.00031247
Cs      23.06953344       8.06579985       5.14930160       41      -0.00003101       0.00005023      -0.00032235
K       18.45647759       5.40466433       3.57523735       42       0.00004634       0.00011374       0.00021259
In       9.20784451       0.04126657       0.05047311       43      -0.00032674      -0.00005885       0.00008597
I       16.19995634       3.28455456       5.28089975       44      -0.00003249       0.00007287      -0.00036614
I       20.71392754       7.52511862       1.87100990       45      -0.00011543      -0.00017994      -0.00040449
I       19.14649065       2.41445839       1.80743528       46      -0.00004532      -0.00055710      -0.00030232
I       17.76619033       8.39523617       5.34302886       47       0.00026118       0.00026907       0.00055453
I       15.54569533       6.26520038       1.76083062       48      -0.00024179      -0.00000712       0.00018395
I       21.36777873       4.54350874       5.38893766       49       0.00002725       0.00022711       0.00049760
Cs      18.49227503       5.42446758       8.97130953       50       0.00007437      -0.00011707      -0.00032371
Cs      27.71854580      10.74695980      12.11721171       51       0.00005145       0.00000858      -0.00028803
K       23.10555523       8.08579396      10.54316021       52      -0.00004847       0.00006965       0.00019229
In      13.85671556       2.72225637       7.01834105       53       0.00042718       0.00039179       0.00048344
I       20.84903080       5.96561460      12.24880014       54      -0.00001523       0.00024089      -0.00035399
I       25.36291776      10.20624630       8.83899227       55      -0.00021540      -0.00026145      -0.00043296
I       23.79549631       5.09545998       8.77524707       56       0.00001991      -0.00013900       0.00004438
I       22.41520839      11.07642415      12.31099751       57       0.00025500      -0.00000121       0.00033477
I       20.19472411       8.94641749       8.72872592       58      -0.00010489      -0.00029561       0.00036774
I       26.01674012       7.22453343      12.35686302       59       0.00010139       0.00045092       0.00043236
Cs      18.48413578      10.74793895       2.03477190       60      -0.00005542      -0.00007960      -0.00035157
Cs      27.71025258      16.07042819       5.18065269       61       0.00024283      -0.00001184      -0.00028211
K       23.09725500      13.40924689       3.60660501       62       0.00015562       0.00012679       0.00018807
In      13.84860691       8.04565672       0.08182174       63       0.00008958       0.00045214      -0.00008768
I       20.84085273      11.28937110       5.31222216       64      -0.00011100      -0.00040450      -0.00029393
I       25.35489439      15.52958629       1.90225261       65      -0.00062284       0.00006108       0.00001256
I       23.78716783      10.41880162       1.83858387       66       0.00033554       0.00027051       0.00041576
I       22.40711946      16.40001969       5.37455897       67      -0.00007121      -0.00049351      -0.00013773
I       20.18641703      14.26966728       1.79211564       68       0.00003420       0.00028959       0.00042636
I       26.00878841      12.54816428       5.42043166       69      -0.00043740       0.00009293       0.00009652
Cs      23.13317072      13.42903564       9.00267917       70      -0.00003149       0.00000928      -0.00031418
Cs      32.35928104      18.75160076      12.14856128       71       0.00019854      -0.00014858      -0.00031304
K       27.74632831      16.09036507      10.57453571       72       0.00008536       0.00012723       0.00016176
In      18.49764132      10.72673374       7.04975749       73      -0.00040070       0.00030790      -0.00026251
I       25.48995756      13.97044216      12.28008829       74      -0.00045505      -0.00037135      -0.00003872
I       30.00385663      18.21069572       8.87026479       75      -0.00029444       0.00012660      -0.00032975
I       28.43624419      13.09988016       8.80643813       76       0.00019802       0.00022722       0.00046644
I       27.05606747      19.08113373      12.34248185       77       0.00013905      -0.00026480      -0.00001389
I       24.83551911      16.95082650       8.76005629       78      -0.00021391       0.00026370       0.00029658
I       30.65768204      15.22923733      12.38832088       79       0.00000177       0.00007207       0.00030380
