10
Lattice="7.772398303054009 0.0 0.0 1.8368145312056063 9.501241953224099 0.0 0.16658302736574984 0.4487591129704673 8.211354561984832" Properties=species:S:1:pos:R:3 pbc="T T T"
Cs       2.44394906       2.48750046       2.05283789
Cs       7.33184679       7.46250059       6.15851666
K        4.88789797       4.97500057       4.10567738
In       0.00000005       0.00000005       0.00000001
I        2.36293819       2.54992901       6.29992021
I        7.41285778       7.40007217       1.91143449
I        6.43572531       2.31442987       1.90901705
I        3.34007067       7.63557128       6.30233764
I        3.25528531       7.39681435       1.90765170
I        6.52051064       2.55318685       6.30370299
