20
Lattice="18.37536164973822 -2.586131543749506 1.2484967422917834 -3.447524173162487 8.608350090136286 -0.680413165676657 -0.5324512158964185 0.4821918184348228 8.799344697367705" Properties=species:S:1:pos:R:3:spacegroup_kinds:I:1:forces:R:3 spacegroup="P 1" unit_cell=conventional occupancy="_JSON {\"0\": {\"Cs\": 1.0}, \"1\": {\"Cs\": 1.0}, \"2\": {\"K\": 1.0}, \"3\": {\"In\": 1.0}, \"4\": {\"I\": 1.0}, \"5\": {\"I\": 1.0}, \"6\": {\"I\": 1.0}, \"7\": {\"I\": 1.0}, \"8\": {\"I\": 1.0}, \"9\": {\"I\": 1.0}, \"10\": {\"Cs\": 1.0}, \"11\": {\"Cs\": 1.0}, \"12\": {\"K\": 1.0}, \"13\": {\"In\": 1.0}, \"14\": {\"I\": 1.0}, \"15\": {\"I\": 1.0}, \"16\": {\"I\": 1.0}, \"17\": {\"I\": 1.0}, \"18\": {\"I\": 1.0}, \"19\": {\"I\": 1.0}}" energy=-51.587625701701675 free_energy=-51.587625701701675 stress="2.6362570540947406e-06 1.2442206028928135e-07 -3.948223195462605e-06 1.2442206028928135e-07 -1.4036106039393212e-06 2.1275178151029436e-07 -3.948223195462605e-06 2.1275178151029436e-07 -5.413578434156892e-07" pbc="T T T"
Cs       7.52960077      -0.21241085       9.35705965        0      -0.00035772      -0.00005909       0.00039438
Cs       3.85536564       2.60223591       0.05359952        1      -0.00074290      -0.00024268       0.00019226
K       21.19708639      -5.04940454       5.98284055        2       0.00018765       0.00038980      -0.00029864
In      -0.35934636       5.90442228      -0.34542255        3       0.00035195       0.00036143      -0.00032297
I        6.30976419       5.02485955       1.87610767        4       0.00054638       0.00028440      -0.00010337
I        1.62609059       5.97293385       6.85569177        5       0.00073872       0.00001011       0.00031786
I        1.02205471       7.93314929       1.39838098        6      -0.00014230      -0.00067138       0.00008646
I        6.91460682       3.06516113       7.33340925        7       0.00034921       0.00030680       0.00017100
I        9.64713102       2.45891688       2.21795877        8      -0.00024571       0.00002277       0.00009130
I       -1.71038256       8.53887100       6.51406894        9       0.00014894       0.00004960      -0.00022583
Cs      16.71711905      -1.50541828       9.98126301       10       0.00010676      -0.00012003       0.00045267
Cs      13.04278095       1.30936629       0.67772851       11      -0.00024059      -0.00058850       0.00040771
K       12.00933019      -3.75627086       5.35849372       12       0.00023946       0.00023066       0.00001663
In       8.82845462       4.61151012       0.27878243       13      -0.00020779      -0.00050452      -0.00033119
I       15.49765134       3.73173116       2.50035793       14      -0.00005962       0.00034238      -0.00002850
I       10.81425299       4.67962815       7.48022710       15      -0.00039692       0.00037059      -0.00037342
I       10.20982859       6.63993665       2.02265154       16      -0.00023838      -0.00020053       0.00016653
I       16.10256178       1.77211346       7.95773365       17      -0.00048676      -0.00016063      -0.00005572
I        0.45944186       3.75189988       1.59376977       18      -0.00006495       0.00011062      -0.00002974
I        7.47722033       7.24576467       7.13840775       19       0.00051456       0.00006820      -0.00052740
