80
Lattice="17.556761125043376 0.0 0.0 -14.392195168237151 11.469976590301494 0.0 -2.996030464941243 -13.698497306173559 15.033392456380469" Properties=species:S:1:pos:R:3 pbc="T T T"
Cs       0.71782243       2.51745239       0.02380558
Cs      -6.09547885      -2.37651458       7.49263231
K       -3.47992484      -2.79698200       3.75834373
In      -2.73097708       0.62762328       0.00009860
I       -4.90581298       0.76764134       1.50367044
I       -0.47186887      -0.62650716       6.01305448
I       -3.49660128      -3.35433201       6.01311113
I       -1.88109200       3.49511963       1.50372709
I       -7.91881033       4.97962269       1.50368472
I        2.54118444      -4.83868076       6.01306876
Cs      -0.78019280      -4.33179626       7.54050181
Cs      -7.59349409      -9.22576323      15.00932854
K       -4.97794007      -9.64623065      11.27503996
In      -4.22899231      -6.22162538       7.51679483
I       -6.40382821      -6.08160732       9.02036667
I       -1.96988410      -7.47575582      13.52975071
I       -4.99461651     -10.20358066      13.52980735
I       -3.37910724      -3.35412903       9.02042332
I       -9.41682556      -1.86962597       9.02038095
I        1.04316921     -11.68792942      13.52976499
Cs      -6.47827515       8.25244069       0.02380558
Cs     -13.29157644       3.35847371       7.49263231
K      -10.67602243       2.93800630       3.75834373
In      -9.92707467       6.36261157       0.00009860
I      -12.10191056       6.50262963       1.50367044
I       -7.66796646       5.10848113       6.01305448
I      -10.69269886       2.38065629       6.01311113
I       -9.07718959       9.23010792       1.50372709
I      -15.11490791      10.71461098       1.50368472
I       -4.65491314       0.89630753       6.01306876
Cs      -7.97629039       1.40319204       7.54050181
Cs     -14.78959167      -3.49077494      15.00932854
K      -12.17403766      -3.91124235      11.27503996
In     -11.42508990      -0.48663708       7.51679483
I      -13.59992579      -0.34661902       9.02036667
I       -9.16598169      -1.74076752      13.52975071
I      -12.19071410      -4.46859237      13.52980735
I      -10.57520482       2.38085927       9.02042332
I      -16.61292315       3.86536233       9.02038095
I       -6.15292838      -5.95294112      13.52976499
Cs       9.49620299       2.51745239       0.02380558
Cs       2.68290171      -2.37651458       7.49263231
K        5.29845572      -2.79698200       3.75834373
In       6.04740348       0.62762328       0.00009860
I        3.87256758       0.76764134       1.50367044
I        8.30651169      -0.62650716       6.01305448
I        5.28177928      -3.35433201       6.01311113
I        6.89728856       3.49511963       1.50372709
I        0.85957023       4.97962269       1.50368472
I       11.31956500      -4.83868076       6.01306876
Cs       7.99818776      -4.33179626       7.54050181
Cs       1.18488648      -9.22576323      15.00932854
K        3.80044049      -9.64623065      11.27503996
In       4.54938825      -6.22162538       7.51679483
I        2.37455235      -6.08160732       9.02036667
I        6.80849646      -7.47575582      13.52975071
I        3.78376405     -10.20358066      13.52980735
I        5.39927333      -3.35412903       9.02042332
I       -0.63844500      -1.86962597       9.02038095
I        9.82154977     -11.68792942      13.52976499
Cs       2.30010541       8.25244069       0.02380558
Cs      -4.51319588       3.35847371       7.49263231
K       -1.89764186       2.93800630       3.75834373
In      -1.14869410       6.36261157       0.00009860
I       -3.32353000       6.50262963       1.50367044
I        1.11041411       5.10848113       6.01305448
I       -1.91431830       2.38065629       6.01311113
I       -0.29880903       9.23010792       1.50372709
I       -6.33652735      10.71461098       1.50368472
I        4.12346742       0.89630753       6.01306876
Cs       0.80209018       1.40319204       7.54050181
Cs      -6.01121111      -3.49077494      15.00932854
K       -3.39565710      -3.91124235      11.27503996
In      -2.64670934      -0.48663708       7.51679483
I       -4.82154523      -0.34661902       9.02036667
I       -0.38760113      -1.74076752      13.52975071
I       -3.41233353      -4.46859237      13.52980735
I       -1.79682426       2.38085927       9.02042332
I       -7.83454258       3.86536233       9.02038095
I        2.62545219      -5.95294112      13.52976499
