80
Lattice="14.284884420420685 -1.1129579709279245 0.8845124753403726 -12.1763896115202 17.046571065451012 -0.31906609233303895 -1.190980555107157 -18.358485632390277 17.43227371772425" Properties=species:S:1:pos:R:3:spacegroup_kinds:I:1:forces:R:3 spacegroup="P 1" unit_cell=conventional occupancy="_JSON {\"0\": {\"Cs\": 1.0}, \"1\": {\"Cs\": 1.0}, \"2\": {\"K\": 1.0}, \"3\": {\"In\": 1.0}, \"4\": {\"I\": 1.0}, \"5\": {\"I\": 1.0}, \"6\": {\"I\": 1.0}, \"7\": {\"I\": 1.0}, \"8\": {\"I\": 1.0}, \"9\": {\"I\": 1.0}, \"10\": {\"Cs\": 1.0}, \"11\": {\"Cs\": 1.0}, \"12\": {\"K\": 1.0}, \"13\": {\"In\": 1.0}, \"14\": {\"I\": 1.0}, \"15\": {\"I\": 1.0}, \"16\": {\"I\": 1.0}, \"17\": {\"I\": 1.0}, \"18\": {\"I\": 1.0}, \"19\": {\"I\": 1.0}, \"20\": {\"Cs\": 1.0}, \"21\": {\"Cs\": 1.0}, \"22\": {\"K\": 1.0}, \"23\": {\"In\": 1.0}, \"24\": {\"I\": 1.0}, \"25\": {\"I\": 1.0}, \"26\": {\"I\": 1.0}, \"27\": {\"I\": 1.0}, \"28\": {\"I\": 1.0}, \"29\": {\"I\": 1.0}, \"30\": {\"Cs\": 1.0}, \"31\": {\"Cs\": 1.0}, \"32\": {\"K\": 1.0}, \"33\": {\"In\": 1.0}, \"34\": {\"I\": 1.0}, \"35\": {\"I\": 1.0}, \"36\": {\"I\": 1.0}, \"37\": {\"I\": 1.0}, \"38\": {\"I\": 1.0}, \"39\": {\"I\": 1.0}, \"40\": {\"Cs\": 1.0}, \"41\": {\"Cs\": 1.0}, \"42\": {\"K\": 1.0}, \"43\": {\"In\": 1.0}, \"44\": {\"I\": 1.0}, \"45\": {\"I\": 1.0}, \"46\": {\"I\": 1.0}, \"47\": {\"I\": 1.0}, \"48\": {\"I\": 1.0}, \"49\": {\"I\": 1.0}, \"50\": {\"Cs\": 1.0}, \"51\": {\"Cs\": 1.0}, \"52\": {\"K\": 1.0}, \"53\": {\"In\": 1.0}, \"54\": {\"I\": 1.0}, \"55\": {\"I\": 1.0}, \"56\": {\"I\": 1.0}, \"57\": {\"I\": 1.0}, \"58\": {\"I\": 1.0}, \"59\": {\"I\": 1.0}, \"60\": {\"Cs\": 1.0}, \"61\": {\"Cs\": 1.0}, \"62\": {\"K\": 1.0}, \"63\": {\"In\": 1.0}, \"64\": {\"I\": 1.0}, \"65\": {\"I\": 1.0}, \"66\": {\"I\": 1.0}, \"67\": {\"I\": 1.0}, \"68\": {\"I\": 1.0}, \"69\": {\"I\": 1.0}, \"70\": {\"Cs\": 1.0}, \"71\": {\"Cs\": 1.0}, \"72\": {\"K\": 1.0}, \"73\": {\"In\": 1.0}, \"74\": {\"I\": 1.0}, \"75\": {\"I\": 1.0}, \"76\": {\"I\": 1.0}, \"77\": {\"I\": 1.0}, \"78\": {\"I\": 1.0}, \"79\": {\"I\": 1.0}}" energy=-204.66061464099525 free_energy=-204.66061464099525 stress="-9.349721786836726e-07 1.899816139401964e-08 -4.0298719995899905e-06 1.899816139401964e-08 -2.911538422614906e-06 5.129283010872991e-07 -4.0298719995899905e-06 5.129283010872991e-07 1.3484587645227676e-06" pbc="T T T"
Cs       1.83491210       0.22657378       3.79281126        0       0.00045196      -0.00001141      -0.00011900
Cs      -4.94217034      -3.99617948       7.98975888        1       0.00015167      -0.00008392      -0.00015262
K       12.18836673      -4.60362601       4.21829958        2      -0.00017405       0.00012879       0.00003716
In      12.26844100       0.03020854      -0.10318961        3      -0.00010670       0.00045341       0.00034906
I        9.70108380       3.61363732       4.02698411        4       0.00015712       0.00002187      -0.00011202
I       -0.42059794      -1.99768881       6.32606556        5      -0.00008614      -0.00028509      -0.00018343
I       -1.48452826      -5.73592044       8.90518270        6       0.00019258       0.00067970      -0.00003473
I       -3.73120844       9.04432793      -0.28472978        7       0.00013275       0.00004766      -0.00059220
I       -7.56836480       8.07718921       1.30103147        8      -0.00036167      -0.00008957      -0.00017177
I        4.04640614      -6.86872824       5.68190841        9      -0.00039295       0.00034325       0.00009829
Cs       1.24378169      -8.95536614      12.51892282       10       0.00030176       0.00008652       0.00015024
Cs      -5.53286480     -13.17755160      16.69015821       11       0.00027199       0.00013979       0.00000148
K       11.59415180     -13.77117380      12.94043630       12       0.00003615       0.00020099      -0.00004170
In      11.67511707      -9.14979847       8.61204083       13      -0.00059470      -0.00015512      -0.00028076
I        9.10857516      -5.56514631      12.75847825       14      -0.00009543       0.00013723      -0.00004254
I       -1.02221963     -11.18261653      15.05099964       15       0.00024843       0.00005084      -0.00007378
I       -2.08107471     -14.91367868      17.62074234       16       0.00032640      -0.00016542      -0.00039883
I       -4.32042680      -0.13690306       8.44023725       17       0.00027548      -0.00024605       0.00006924
I       -8.13970618      -1.11185165      10.00653510       18       0.00043964      -0.00033964       0.00049885
I        3.44978007     -16.05559253      14.39180090       19      -0.00005789      -0.00002596      -0.00006476
Cs      -4.24718571       8.75071690       3.62993887       20       0.00005134       0.00004055       0.00010485
Cs     -11.03220267       4.52743635       7.82682818       21      -0.00018443      -0.00014492       0.00016564
K        6.09961751       3.92152965       4.06172679       22       0.00008084       0.00003965      -0.00030791
In       6.17729533       8.55409297      -0.26224063       23       0.00023942      -0.00028418      -0.00010958
I        3.61359043      12.13660840       3.86659749       24      -0.00017099      -0.00001480       0.00028397
I       -6.50334526       6.52872143       6.16292732       25      -0.00020999      -0.00045570       0.00002242
I       -7.57482961       2.78975869       8.74098073       26      -0.00066679      -0.00033528      -0.00015773
I       -9.81687299      17.56701035      -0.44162033       27      -0.00041665       0.00012836       0.00007986
I       -1.47525958      -0.45135181       1.45622823       28      -0.00038240      -0.00032390       0.00046976
I       -2.04447739       1.65253178       5.52017946       29       0.00019559      -0.00001275      -0.00005485
Cs      -4.83739617      -0.43148921      12.35865371       30      -0.00053835      -0.00014082      -0.00014612
Cs     -11.62169962      -4.65288631      16.52995030       31      -0.00037053       0.00013042      -0.00000010
K        5.50457808      -5.24587592      12.78267757       32       0.00009561      -0.00025391       0.00008127
In       5.58438363      -0.62636746       8.45222638       33       0.00029933       0.00045478      -0.00031820
I        3.02117398       2.95855146      12.59645226       34      -0.00008526      -0.00017400      -0.00000206
I       -7.10757271      -2.65586105      14.88778002       35       0.00002094       0.00019415       0.00034867
I       -8.16998674      -6.38884594      17.45700791       36      -0.00007297      -0.00002984       0.00011907
I      -10.40507472       8.38433596       8.28105651       37       0.00020761      -0.00007515       0.00063465
I       -2.04611097      -9.64130684      10.16189993       38       0.00034478      -0.00006153       0.00000799
I       -2.63885855      -7.53604688      14.22854578       39       0.00027374       0.00008580      -0.00042810
Cs       8.98975034      -0.33428801       4.23143824       40       0.00038221       0.00012197      -0.00001222
Cs       2.20213209      -4.55542950       8.42929897       41       0.00019488       0.00042830       0.00015608
K        5.04525268      -4.03853089       3.77796263       42       0.00026635       0.00018480       0.00027852
In       5.12424786       0.58773047      -0.54496258       43       0.00025110       0.00040647      -0.00002850
I        2.55959695       4.17085339       3.58576194       44      -0.00016045       0.00037375      -0.00012525
I        6.72208625      -2.55266379       6.76713480       45       0.00040521       0.00027867      -0.00003783
I        5.65805217      -6.29456608       9.35147198       46       0.00037075       0.00000939      -0.00008433
I        3.41150641       8.49131221       0.15340677       47      -0.00046742      -0.00005199      -0.00016723
I       -0.41925958       7.52444873       1.74302302       48      -0.00013204       0.00028101      -0.00025231
I       11.17704730      -7.42625917       6.12595579       49      -0.00022007      -0.00032472       0.00068961
Cs       8.37401375      -9.50764141      12.96567012       50       0.00024382      -0.00005699       0.00012120
Cs       1.60757246     -13.73148025      17.13453710       51       0.00026913      -0.00030621      -0.00030576
K        4.45205115     -13.22273422      12.49594230       52      -0.00023722      -0.00012562       0.00016235
In       4.53424782      -8.59419358       8.16930379       53       0.00031614      -0.00048648       0.00012147
I        1.96521680      -5.00958450      12.31461325       54       0.00040064      -0.00017682      -0.00003056
I        6.11966040     -11.74084902      15.49399168       55      -0.00053177       0.00019888       0.00008579
I        5.06126770     -15.46759208      18.05839248       56      -0.00009732      -0.00017942      -0.00014589
I        2.82195380      -0.69724839       8.88775821       57       0.00016879      -0.00010946      -0.00030215
I       -1.00476100      -1.67086352      10.44992338       58       0.00000019      -0.00018814      -0.00039959
I       10.60337192     -16.61076890      14.83272367       59      -0.00039120      -0.00007813       0.00020338
Cs       2.90831357       8.18954790       4.07127807       60      -0.00036324      -0.00013279      -0.00034652
Cs      -3.88726538       3.96949360       8.26983851       61      -0.00041773       0.00005109      -0.00004684
K       -1.04369253       4.48732376       3.62100998       62       0.00000465      -0.00044375      -0.00007174
In      -0.96594449       9.11124915      -0.70490922       63       0.00011167      -0.00027246       0.00049594
I       -3.52793262      12.69497469       3.42365925       64      -0.00024866      -0.00019977      -0.00034345
I        0.63728734       5.97411695       6.60421757       65       0.00042472       0.00025156      -0.00036003
I       -0.43164064       2.23069769       9.18793285       66      -0.00005900      -0.00002548       0.00036513
I       -2.67369554      17.01272672      -0.00581475       67       0.00029427       0.00020694      -0.00018496
I        5.67308846      -1.00473805       1.89840523       68       0.00007994       0.00009266       0.00006338
I        5.08839001       1.09326662       5.96286854       69       0.00015796       0.00027730       0.00015874
Cs       2.29278591      -0.98410390      12.80257642       70      -0.00041737       0.00008998       0.00025918
Cs      -4.48159245      -5.20787338      16.97120460       71      -0.00033504      -0.00009350       0.00004475
K       -1.63700050      -4.69787690      12.33897559       72       0.00018839       0.00020762      -0.00022055
In      -1.55722401      -0.07010466       8.01010096       73      -0.00021626      -0.00012084      -0.00003166
I       -4.12186206       3.51357128      12.15486602       74      -0.00006781      -0.00008691       0.00041160
I        0.03620725      -3.21447754      15.33070591       75      -0.00049332      -0.00035734       0.00016157
I       -1.02859009      -6.94223096      17.89396448       76      -0.00015896       0.00025000       0.00029934
I       -3.26307812       7.82522993       8.73119823       77       0.00001937       0.00011969       0.00041157
I        5.08877421     -10.20023678      10.60511736       78       0.00011576       0.00045298      -0.00027695
I        4.51227413      -8.08982184      14.67107627       79       0.00052175      -0.00012105      -0.00044495
