80
Lattice="17.25377377296367 1.4777146751296766 1.9512358807067551 6.456243815791677 16.222246145749008 0.17971903658066868 5.6268062903315945 5.987323156803244 15.540483070519837" Properties=species:S:1:pos:R:3:spacegroup_kinds:I:1:forces:R:3 spacegroup="P 1" unit_cell=conventional occupancy="_JSON {\"0\": {\"Cs\": 1.0}, \"1\": {\"Cs\": 1.0}, \"2\": {\"K\": 1.0}, \"3\": {\"In\": 1.0}, \"4\": {\"I\": 1.0}, \"5\": {\"I\": 1.0}, \"6\": {\"I\": 1.0}, \"7\": {\"I\": 1.0}, \"8\": {\"I\": 1.0}, \"9\": {\"I\": 1.0}, \"10\": {\"Cs\": 1.0}, \"11\": {\"Cs\": 1.0}, \"12\": {\"K\": 1.0}, \"13\": {\"In\": 1.0}, \"14\": {\"I\": 1.0}, \"15\": {\"I\": 1.0}, \"16\": {\"I\": 1.0}, \"17\": {\"I\": 1.0}, \"18\": {\"I\": 1.0}, \"19\": {\"I\": 1.0}, \"20\": {\"Cs\": 1.0}, \"21\": {\"Cs\": 1.0}, \"22\": {\"K\": 1.0}, \"23\": {\"In\": 1.0}, \"24\": {\"I\": 1.0}, \"25\": {\"I\": 1.0}, \"26\": {\"I\": 1.0}, \"27\": {\"I\": 1.0}, \"28\": {\"I\": 1.0}, \"29\": {\"I\": 1.0}, \"30\": {\"Cs\": 1.0}, \"31\": {\"Cs\": 1.0}, \"32\": {\"K\": 1.0}, \"33\": {\"In\": 1.0}, \"34\": {\"I\": 1.0}, \"35\": {\"I\": 1.0}, \"36\": {\"I\": 1.0}, \"37\": {\"I\": 1.0}, \"38\": {\"I\": 1.0}, \"39\": {\"I\": 1.0}, \"40\": {\"Cs\": 1.0}, \"41\": {\"Cs\": 1.0}, \"42\": {\"K\": 1.0}, \"43\": {\"In\": 1.0}, \"44\": {\"I\": 1.0}, \"45\": {\"I\": 1.0}, \"46\": {\"I\": 1.0}, \"47\": {\"I\": 1.0}, \"48\": {\"I\": 1.0}, \"49\": {\"I\": 1.0}, \"50\": {\"Cs\": 1.0}, \"51\": {\"Cs\": 1.0}, \"52\": {\"K\": 1.0}, \"53\": {\"In\": 1.0}, \"54\": {\"I\": 1.0}, \"55\": {\"I\": 1.0}, \"56\": {\"I\": 1.0}, \"57\": {\"I\": 1.0}, \"58\": {\"I\": 1.0}, \"59\": {\"I\": 1.0}, \"60\": {\"Cs\": 1.0}, \"61\": {\"Cs\": 1.0}, \"62\": {\"K\": 1.0}, \"63\": {\"In\": 1.0}, \"64\": {\"I\": 1.0}, \"65\": {\"I\": 1.0}, \"66\": {\"I\": 1.0}, \"67\": {\"I\": 1.0}, \"68\": {\"I\": 1.0}, \"69\": {\"I\": 1.0}, \"70\": {\"Cs\": 1.0}, \"71\": {\"Cs\": 1.0}, \"72\": {\"K\": 1.0}, \"73\": {\"In\": 1.0}, \"74\": {\"I\": 1.0}, \"75\": {\"I\": 1.0}, \"76\": {\"I\": 1.0}, \"77\": {\"I\": 1.0}, \"78\": {\"I\": 1.0}, \"79\": {\"I\": 1.0}}" energy=-205.19157202008375 free_energy=-205.19157202008375 stress="-4.4512190232828347e-07 1.4317176498542754e-07 -5.420062506741176e-08 1.4317176498542754e-07 1.6051311112536485e-08 -2.984412195359219e-07 -5.420062506741176e-08 -2.984412195359219e-07 -2.7182358430513937e-07" pbc="T T T"
Cs       3.52895931       2.86622953       2.11722629        0       0.00036224      -0.00003176      -0.00021087
Cs      11.13862566       8.97752198       6.71877906        1       0.00022977      -0.00019146      -0.00003699
K        7.33408259       5.92179478       4.41725612        2       0.00009639      -0.00018747       0.00055030
In      17.25391240       1.47755553       1.95113042        3      -0.00019404       0.00015575       0.00020489
I        5.35582660       3.84155820       6.48368695        4      -0.00055060       0.00001164      -0.00001873
I        9.31311733       8.00229523       2.35249881        5      -0.00005216       0.00005086      -0.00020611
I        8.19082554       3.50601836       1.98142356        6      -0.00004266      -0.00020121      -0.00006467
I        6.47769892       8.33755239       6.85402751        7      -0.00005120       0.00039108      -0.00002273
I        4.70087584       7.41919054       2.58661431        8      -0.00018180      -0.00013708       0.00023670
I        9.96787216       4.42471262       6.24880067        9      -0.00018675      -0.00009171       0.00044801
Cs       6.34270859       5.86034105       9.88706274       10       0.00014592      -0.00036241       0.00004077
Cs      13.95205741      11.97107370      14.48917736       11       0.00017651      -0.00009498      -0.00020560
K       10.14746250       8.91499349      12.18800505       12       0.00017749       0.00034775      -0.00000737
In      20.06725773       4.47130409       9.72142441       13       0.00020951       0.00026715       0.00023545
I        8.16907159       6.83485668      14.25396069       14      -0.00002697       0.00018024      -0.00012620
I       12.12651508      10.99601543      10.12271983       15      -0.00011198      -0.00009620      -0.00022935
I       11.00414536       6.49955485       9.75176925       16      -0.00000647       0.00049026       0.00011212
I        9.29084432      11.33125694      14.62412903       17       0.00014547      -0.00040972       0.00011833
I        7.51444154      10.41283198      10.35699074       18      -0.00032829      -0.00002169       0.00015626
I       12.78117797       7.41814732      14.01921924       19      -0.00019267       0.00004990      -0.00013225
Cs       6.75702700      10.97704598       2.20718701       20       0.00036731       0.00012810      -0.00033432
Cs      14.36657617      17.08848768       6.80864425       21       0.00024472       0.00005715      -0.00011262
K       10.56219668      14.03282482       4.50720313       22       0.00000678      -0.00004026       0.00048200
In      20.48190843       9.58863189       2.04094123       23       0.00004665       0.00015600      -0.00018085
I        8.58395723      11.95251206       6.57354721       24      -0.00027545       0.00016043       0.00001109
I       12.54147008      16.11329389       2.44239946       25      -0.00053977       0.00009597      -0.00009789
I       11.41889500      11.61705664       2.07119709       26       0.00001717       0.00025829       0.00029382
I        9.70605542      16.44879360       6.94405422       27      -0.00002511      -0.00018746      -0.00039338
I        7.92881933      15.53050858       2.67672466       28       0.00003371      -0.00009748      -0.00010152
I       13.19599709      12.53594065       6.33882910       29      -0.00009000      -0.00015409       0.00012972
Cs       9.57074321      13.97137993       9.97717486       30       0.00035719      -0.00022227      -0.00010825
Cs      17.18016140      20.08225979      14.57913985       31       0.00029947      -0.00024162      -0.00044510
K       13.37554272      17.02609968      12.27809039       32       0.00016169       0.00040762      -0.00029751
In      23.29545836      12.58248208       9.81143813       33      -0.00005140      -0.00019145       0.00000865
I       11.39717119      14.94605686      14.34373209       34      -0.00020596      -0.00004664      -0.00007210
I       15.35453904      19.10712992      10.21255376       35       0.00014409      -0.00005542      -0.00024084
I       14.23214647      14.61090974       9.84149679       36       0.00026650      -0.00018061       0.00010733
I       12.51900532      19.44215222      14.71398209       37       0.00016769       0.00025512       0.00066487
I       10.74254215      18.52403480      10.44687671       38      -0.00035967       0.00023177      -0.00000415
I       16.00921645      15.52931523      14.10907646       39      -0.00013158      -0.00003544      -0.00003364
Cs      12.15579675       3.60514966       3.09281313       40       0.00045045      -0.00002083      -0.00022617
Cs      19.76547482       9.71649649       7.69439177       41       0.00033676      -0.00022383      -0.00010124
K       15.96103461       6.66074847       5.39305898       42       0.00004287      -0.00029518       0.00035756
In       8.62696767       0.73862848       0.97543697       43       0.00010888       0.00021186       0.00025218
I       13.98260876       4.58044124       7.45928369       44      -0.00028299       0.00004234       0.00000691
I       17.94008956       8.74107877       3.32815891       45      -0.00030501       0.00022914      -0.00030030
I       16.81759595       4.24510395       2.95681631       46       0.00013436      -0.00050775       0.00010544
I       15.10461524       9.07639124       7.82963081       47      -0.00008609       0.00039660      -0.00007059
I       13.32774902       8.15799081       3.56230790       48      -0.00021425       0.00009610      -0.00001694
I       18.59463553       5.16351762       7.22449459       49      -0.00000419      -0.00020667       0.00021721
Cs      14.96954779       6.59922758      10.86279637       50       0.00034756      -0.00042449      -0.00001494
Cs      22.57889948      12.70996184      15.46482512       51       0.00016457       0.00000221      -0.00038076
K       18.77448847       9.65385667      13.16379301       52       0.00005089       0.00035859      -0.00021721
In      11.44036741       3.73250827       8.74588834       53       0.00005943      -0.00030944       0.00000187
I       16.79593266       7.57380681      15.22957930       54      -0.00001451       0.00013991      -0.00024597
I       20.75329917      11.73494541      11.09837373       55       0.00016898      -0.00002896      -0.00020688
I       19.63087496       7.23861703      10.72708922       56       0.00014646       0.00003210       0.00021716
I       17.91786467      12.07020755      15.59976774       57       0.00005504      -0.00039995       0.00015225
I       16.14109414      11.15161263      11.33257848       58       0.00006984       0.00002916       0.00030766
I       21.40799009       8.15684381      14.99486348       59       0.00004011       0.00009233      -0.00024095
Cs      15.38395936      11.71618567       3.18270793       60       0.00032438      -0.00006995      -0.00030354
Cs      22.99355633      17.82745689       7.78427559       61       0.00010550      -0.00001970       0.00007469
K       19.18900800      14.77151167       5.48264876       62       0.00017839       0.00013960       0.00065043
In      11.85507243       8.84989039       1.06538566       63      -0.00009037      -0.00009293       0.00007632
I       17.21087652      12.69133502       7.54918204       64      -0.00040343       0.00025867      -0.00001984
I       21.16830425      16.85229139       3.41790939       65      -0.00056623       0.00001952       0.00009074
I       20.04592124      12.35580502       3.04687967       66      -0.00016355       0.00032296       0.00011074
I       18.33281109      17.18771735       7.91959413       67       0.00000625      -0.00025775      -0.00030277
I       16.55591618      16.26929197       3.65211131       68      -0.00009939      -0.00020829       0.00020217
I       21.82302321      13.27479306       7.31460786       69      -0.00050102       0.00005726      -0.00020946
Cs      18.19751446      14.71027516      10.95276423       70       0.00028043      -0.00019617      -0.00005760
Cs      25.80705260      20.82119045      15.55482834       71       0.00025582      -0.00027127      -0.00042466
K       22.00246968      17.76478346      13.25357231       72       0.00014412       0.00058686      -0.00018014
In      14.66859303      11.84359859       8.83574425       73      -0.00034117       0.00001820      -0.00012272
I       20.02395337      15.68497821      15.31916665       74      -0.00004501       0.00001618       0.00014687
I       23.98159122      19.84592010      11.18822547       75      -0.00017000       0.00000589      -0.00020668
I       22.85929676      15.34974837      10.81731903       76       0.00013037      -0.00013660      -0.00008442
I       21.14595844      20.18104473      15.68951815       77       0.00010625       0.00014273       0.00045249
I       19.36952401      19.26278895      11.42255010       78      -0.00054792       0.00018265      -0.00017402
I       24.63616067      16.26818059      15.08445330       79       0.00007567      -0.00012771       0.00056783
