20
Lattice="17.164968363472568 1.2300619558081014 0.9973540429739691 -4.80921695420524 7.1341534750099305 -0.4932883255481571 -0.5208979592367561 0.24901309016985376 8.731889623108284" Properties=species:S:1:pos:R:3:spacegroup_kinds:I:1:forces:R:3 spacegroup="P 1" unit_cell=conventional occupancy="_JSON {\"0\": {\"Cs\": 1.0}, \"1\": {\"Cs\": 1.0}, \"2\": {\"K\": 1.0}, \"3\": {\"In\": 1.0}, \"4\": {\"I\": 1.0}, \"5\": {\"I\": 1.0}, \"6\": {\"I\": 1.0}, \"7\": {\"I\": 1.0}, \"8\": {\"I\": 1.0}, \"9\": {\"I\": 1.0}, \"10\": {\"Cs\": 1.0}, \"11\": {\"Cs\": 1.0}, \"12\": {\"K\": 1.0}, \"13\": {\"In\": 1.0}, \"14\": {\"I\": 1.0}, \"15\": {\"I\": 1.0}, \"16\": {\"I\": 1.0}, \"17\": {\"I\": 1.0}, \"18\": {\"I\": 1.0}, \"19\": {\"I\": 1.0}}" energy=-51.55155890738836 free_energy=-51.55155890738836 stress="4.003939951213871e-07 3.055755052320915e-06 8.018793401655798e-06 3.055755052320915e-06 -4.5369851829601565e-06 -1.3173162876827862e-06 8.018793401655798e-06 -1.3173162876827862e-06 6.20073012713317e-06" pbc="T T T"
Cs       3.42744963       2.91001513       1.35957012        0      -0.00025198      -0.00005067       0.00017827
Cs      -1.40910316       5.26190762       7.29831904        1      -0.00033569      -0.00002152       0.00001397
K       16.28718503       1.44146255       5.32376026        2       0.00016174      -0.00001298      -0.00019030
In      16.54753692       1.31689332       0.95760851        3       0.00006978       0.00014460       0.00078223
I       15.97495150       3.74659295       2.60225126        4       0.00035579       0.00016511      -0.00050277
I        3.20682097       5.65522715       7.05338647        5       0.00024764       0.00007686      -0.00007419
I        0.79137784       1.88542561       7.01552926        6      -0.00025728      -0.00005359       0.00008706
I        1.22643811       6.28622746       1.64255132        7      -0.00001015       0.00026316       0.00028440
I        1.57161995      -0.64386640       1.86039670        8      -0.00002615      -0.00015579      -0.00015938
I        5.25528315       1.68202663       7.29074671        9       0.00011362      -0.00009423       0.00013491
Cs      12.00988377       3.52486761       1.85823119       10      -0.00007440       0.00017359       0.00024333
Cs       7.17333710       5.87674467       7.79702232       11      -0.00020530       0.00015242      -0.00012746
K        7.70472215       0.82660097       4.82510201       12       0.00004056      -0.00021174      -0.00019014
In       7.96503884       0.70191866       0.45930874       13      -0.00016881      -0.00023560      -0.00086167
I        7.39244505       3.13183086       2.10323872       14       0.00041834      -0.00022556       0.00034428
I       11.78927611       6.27023686       7.55190317       15       0.00032212      -0.00013797       0.00016537
I        9.37381222       2.50026195       7.51427550       16      -0.00000652       0.00020116      -0.00001691
I        9.80894260       6.90145693       2.14155000       17       0.00000608      -0.00011737      -0.00054771
I       10.15418584      -0.02901828       2.35896491       18      -0.00016409       0.00008231       0.00047239
I       13.83780423       2.29693586       7.78943651       19      -0.00023531       0.00005782      -0.00003568
