20
Lattice="21.30930522458266 0.0 0.0 -6.130418245032038 4.885686508369338 0.0 -1.2239975555281837 0.4956749417773729 8.294259189014992" Properties=species:S:1:pos:R:3 pbc="T T T"
Cs       4.28650782       1.71577428       0.02637372
Cs      -2.52471842       3.83685472       8.26781156
K       -1.38121006       0.33348425       4.14712746
In      -0.76922776       0.08563992       0.00002680
I       -2.60444875       1.47126956       1.65920399
I        4.36623130       4.08141433       6.63506025
I       -0.54338415       1.75765526       6.63507661
I        2.30516328       3.79493077       1.65922035
I       -4.34912715       5.05954810       1.65920951
I        6.11092505       0.49308186       6.63506578
Cs      14.94116043       1.71577428       0.02637372
Cs       8.12993419       3.83685472       8.26781156
K        9.27344255       0.33348425       4.14712746
In       9.88542486       0.08563992       0.00002680
I        8.05020386       1.47126956       1.65920399
I       15.02088391       4.08141433       6.63506025
I       10.11126846       1.75765526       6.63507661
I       12.95981589       3.79493077       1.65922035
I        6.30552546       5.05954810       1.65920951
I       16.76557766       0.49308186       6.63506578
