20
Lattice="20.650688761282712 0.0 0.0 6.388003107541434 4.137736471762022 0.0 3.636696218556493 4.199107552826772 5.044311250026506" Properties=species:S:1:pos:R:3 pbc="T T T"
Cs       5.08744322       2.08419038       1.26109271
Cs      15.26260037       6.25265309       3.78321817
K       10.17502182       4.16842169       2.52215541
In       0.00000017       0.00000036       0.00000016
I        7.34510235       3.23815413       2.83739211
I       13.00494130       5.09868896       2.20691871
I       11.87844654       2.32938805       1.78930195
I        8.47159602       6.00745517       3.25500854
I        8.43294152       3.59748043       0.55519364
I       11.91710244       4.73936481       4.48911836
Cs      15.41278760       2.08419038       1.26109271
Cs      25.58794475       6.25265309       3.78321817
K       20.50036620       4.16842169       2.52215541
In      10.32534455       0.00000036       0.00000016
I       17.67044673       3.23815413       2.83739211
I       23.33028568       5.09868896       2.20691871
I       22.20379092       2.32938805       1.78930195
I       18.79694040       6.00745517       3.25500854
I       18.75828590       3.59748043       0.55519364
I       22.24244682       4.73936481       4.48911836
