20
Lattice="22.80907148144995 -8.842386320900282 -7.693063734225969 5.419740196980993 6.894016356638974 -3.0932496435021504 0.9133450124335469 7.793034024790239 4.990704178027076" Properties=species:S:1:pos:R:3:spacegroup_kinds:I:1:forces:R:3 spacegroup="P 1" unit_cell=conventional occupancy="_JSON {\"0\": {\"Cs\": 1.0}, \"1\": {\"Cs\": 1.0}, \"2\": {\"K\": 1.0}, \"3\": {\"In\": 1.0}, \"4\": {\"I\": 1.0}, \"5\": {\"I\": 1.0}, \"6\": {\"I\": 1.0}, \"7\": {\"I\": 1.0}, \"8\": {\"I\": 1.0}, \"9\": {\"I\": 1.0}, \"10\": {\"Cs\": 1.0}, \"11\": {\"Cs\": 1.0}, \"12\": {\"K\": 1.0}, \"13\": {\"In\": 1.0}, \"14\": {\"I\": 1.0}, \"15\": {\"I\": 1.0}, \"16\": {\"I\": 1.0}, \"17\": {\"I\": 1.0}, \"18\": {\"I\": 1.0}, \"19\": {\"I\": 1.0}}" energy=-51.58763063678478 free_energy=-51.58763063678478 stress="-8.544044349550815e-07 -1.487145760222283e-07 8.946019109255157e-08 -1.487145760222283e-07 6.375087010310492e-07 -7.976179363823713e-08 8.946019109255157e-08 -7.976179363823713e-08 -4.93716447956107e-07" pbc="T T T"
Cs       2.09459355       4.90532508       0.62342960        0      -0.00010867       0.00001729      -0.00011442
Cs      15.64085580       5.36138401      -2.57404509        1       0.00027047       0.00009039       0.00036363
K        8.86809311       5.13240035      -0.97416036        2       0.00044799       0.00018821      -0.00000140
In      22.80940187      -8.84074311      -7.69181754        3      -0.00008697      -0.00005005      -0.00012919
I        5.61294722       6.41377500      -0.12627495        4       0.00024513       0.00005955       0.00011953
I       12.12368474       3.85086453      -1.82286373        5      -0.00028013      -0.00013569      -0.00009710
I       10.25625132      -1.67916954      -3.37805575        6      -0.00004287       0.00009605      -0.00006677
I        7.48234806      11.94558181       1.42791157        7      -0.00010549      -0.00014812      -0.00009963
I        8.21831433       8.00560693      -3.04362962        8      -0.00011333      -0.00013716      -0.00035882
I        9.51879142       2.26088567       1.09627478        9       0.00037787       0.00014447       0.00019092
Cs      13.50032474       0.48086895      -3.22428098       10       0.00002735       0.00000162      -0.00001893
Cs      27.04877059       0.94165561      -6.41600665       11      -0.00030744      -0.00009443      -0.00049331
K       20.27389827       0.71214210      -4.82148728       12      -0.00036069      -0.00016716       0.00004120
In      11.40414870      -4.42274057      -3.84784562       13       0.00028390       0.00000158       0.00012777
I       17.01765324       1.99140471      -3.97508642       14       0.00001296       0.00004892       0.00005767
I       23.52985950      -0.56677859      -5.66712848       15       0.00024651       0.00012318      -0.00000486
I       21.65994262      -6.09811375      -7.22199022       16      -0.00000469       0.00005625       0.00020971
I       18.88584983       7.52115503      -2.41940404       17       0.00006036       0.00004485       0.00033393
I       19.62240990       3.58122228      -6.89480552       18       0.00008450       0.00000385       0.00034802
I       20.92487792      -2.15833345      -2.74881346       19      -0.00064675      -0.00014359      -0.00040795
