5
Lattice="6.27514229 0.0 3.842416459821346e-16 -3.842416459821346e-16 6.27514229 3.842416459821346e-16 0.0 0.0 6.27514229" Properties=species:S:1:pos:R:3:forces:R:3 energy=-13.942853154213209 stress="-0.005895902377857315 -2.2486869456957667e-18 -3.6407019511482184e-18 -2.2486869456957667e-18 -0.005895902377857316 -5.158182672348864e-19 -3.6407019511482184e-18 -5.158182672348864e-19 -0.005895902377857322" free_energy=-13.942853154213209 pbc="T T T"
Cs       3.13757114       3.13757114       3.13757115      -0.00000000       0.00000000      -0.00000000
Pb       0.00000000       0.00000000       0.00000000       0.00000000      -0.00000000      -0.00000000
I        0.00000000       0.00000000       3.13757114      -0.00000000      -0.00000000       0.00000000
I        3.13757114       0.00000000       0.00000000      -0.00000000       0.00000000       0.00000000
I       -0.00000000       3.13757114       0.00000000       0.00000000      -0.00000000      -0.00000000
5
Lattice="6.280366330644648 1.992440045398946e-18 3.877873555703721e-16 -3.825690861694399e-16 6.280366330644648 3.8501856492080646e-16 3.225829355533241e-18 4.570387059676243e-19 6.280366330644648" Properties=species:S:1:pos:R:3:forces:R:3 energy=-13.946399448424913 stress="-0.005588112505822666 3.0213977246110305e-18 -4.2710426001649724e-18 3.0213977246110305e-18 -0.0055881125058226625 6.401349092121938e-19 -4.2710426001649724e-18 6.401349092121938e-19 -0.005588112505822663" free_energy=-13.946399448424913 pbc="T T T"
Cs       3.14018317       3.14018317       3.14018317      -0.00000000       0.00000000      -0.00000000
Pb       0.00000000      -0.00000000      -0.00000000      -0.00000000      -0.00000000       0.00000000
I        0.00000000      -0.00000000       3.14018317       0.00000000       0.00000000       0.00000000
I        3.14018317       0.00000000       0.00000000       0.00000000       0.00000000      -0.00000000
I       -0.00000000       3.14018317       0.00000000      -0.00000000      -0.00000000       0.00000000
5
Lattice="6.378332607415731 -5.090560251376841e-17 4.68398510801603e-16 -4.416050835591145e-16 6.37833260741573 3.7974240832631227e-16 7.855916823093372e-17 -1.0881716469692069e-17 6.37833260741573" Properties=species:S:1:pos:R:3:forces:R:3 energy=-13.980522844996374 stress="-0.0004128939539986415 -1.5319576696968834e-18 1.8856963752779703e-17 -1.5319576696968834e-18 -0.0004128939539986537 2.8468837751567315e-19 1.8856963752779703e-17 2.8468837751567315e-19 -0.0004128939539986689" free_energy=-13.980522844996374 pbc="T T T"
Cs       3.18916630       3.18916630       3.18916630       0.00000000       0.00000000       0.00000000
Pb      -0.00000000      -0.00000000       0.00000000       0.00000000       0.00000000       0.00000000
I        0.00000000      -0.00000000       3.18916630      -0.00000000      -0.00000000      -0.00000000
I        3.18916630       0.00000000       0.00000000      -0.00000000      -0.00000000      -0.00000000
I       -0.00000000       3.18916630       0.00000000       0.00000000       0.00000000      -0.00000000
5
Lattice="6.3864146582532095 -5.351641154974575e-17 4.560405317628983e-16 -4.447098000979312e-16 6.386414658253208 3.7907515556508855e-16 6.576215512336788e-17 -1.2070044672941126e-17 6.386414658253208" Properties=species:S:1:pos:R:3:forces:R:3 energy=-13.980741216779524 stress="-3.04701151926841e-05 8.887923682170951e-18 -2.3009553775633515e-18 8.887923682170951e-18 -3.0470115192739856e-05 3.8544812920788215e-18 -2.3009553775633515e-18 3.8544812920788215e-18 -3.047011519273664e-05" free_energy=-13.980741216779524 pbc="T T T"
Cs       3.19320733       3.19320733       3.19320733       0.00000000       0.00000000      -0.00000000
Pb      -0.00000000      -0.00000000       0.00000000       0.00000000       0.00000000      -0.00000000
I        0.00000000      -0.00000000       3.19320733       0.00000000      -0.00000000       0.00000000
I        3.19320733       0.00000000       0.00000000       0.00000000      -0.00000000       0.00000000
I       -0.00000000       3.19320733       0.00000000      -0.00000000       0.00000000      -0.00000000
5
Lattice="6.387060369535307 -6.264389925887497e-17 4.587137084185055e-16 -4.538759015894868e-16 6.387060369535306 3.752224647236508e-16 6.840012580755547e-17 -1.5963680714825898e-17 6.387060369535306" Properties=species:S:1:pos:R:3:forces:R:3 energy=-13.980742427222 stress="-1.7495076575408578e-07 1.752736504946225e-18 -1.6803481698812403e-18 1.752736504946225e-18 -1.7495076578934117e-07 8.976518394428955e-18 -1.6803481698812403e-18 8.976518394428955e-18 -1.749507657934837e-07" free_energy=-13.980742427222 pbc="T T T"
Cs       3.19353018       3.19353018       3.19353018       0.00000000       0.00000000       0.00000000
Pb      -0.00000000      -0.00000000       0.00000000      -0.00000000       0.00000000       0.00000000
I        0.00000000      -0.00000000       3.19353018      -0.00000000      -0.00000000      -0.00000000
I        3.19353018       0.00000000       0.00000000      -0.00000000       0.00000000       0.00000000
I       -0.00000000       3.19353018       0.00000000       0.00000000       0.00000000      -0.00000000
