10
Lattice="9.640446683107594 0.0 0.0 -2.7862472734753245 8.495783774665673 0.0 0.0 0.0 7.671191618516066" Properties=species:S:1:pos:R:3 pbc="T T T"
Cs       3.45527724       6.97096228      -0.00005338
Cs       7.59750856       4.13903435      -0.00005338
K        2.09930448       1.30709530       3.83561407
In       2.09931722       1.30711552       0.00004911
I        3.89649262       3.53470846       1.53479239
I        7.15634502       7.57529723       6.13648081
I        4.62701974       1.30708140       6.13647551
I        9.21200938       1.30708140       1.53478708
I       -2.05569226       6.26818627       1.53475160
I       -0.73055502       2.22759750       6.13644002
