20
Lattice="12.774119003080793 -2.8962513700845033e-08 -2.0873998377743352e-16 -2.8962513700415852e-08 12.77411900308113 3.7626433572658086e-17 -1.0409106374628221e-16 1.8719516208777186e-17 6.387059498277316" Properties=species:S:1:pos:R:3:spacegroup_kinds:I:1:forces:R:3 spacegroup="P 1" unit_cell=conventional occupancy="_JSON {\"0\": {\"Cs\": 1.0}, \"1\": {\"Pb\": 1.0}, \"2\": {\"I\": 1.0}, \"3\": {\"I\": 1.0}, \"4\": {\"I\": 1.0}, \"5\": {\"Cs\": 1.0}, \"6\": {\"Pb\": 1.0}, \"7\": {\"I\": 1.0}, \"8\": {\"I\": 1.0}, \"9\": {\"I\": 1.0}, \"10\": {\"Cs\": 1.0}, \"11\": {\"Pb\": 1.0}, \"12\": {\"I\": 1.0}, \"13\": {\"I\": 1.0}, \"14\": {\"I\": 1.0}, \"15\": {\"Cs\": 1.0}, \"16\": {\"Pb\": 1.0}, \"17\": {\"I\": 1.0}, \"18\": {\"I\": 1.0}, \"19\": {\"I\": 1.0}}" energy=-55.922969716814336 free_energy=-55.922969716814336 stress="-2.1579967054808117e-07 -8.544325564181876e-11 3.9951183964225075e-18 -8.544325564181876e-11 -2.1579966972226733e-07 6.548626668034752e-18 3.9951183964225075e-18 6.548626668034752e-18 -2.1579236125252005e-07" pbc="T T T"
Cs       3.19378757       3.19327191       3.19352975        0       0.00000980      -0.00000981      -0.00000000
Pb       0.00003790      -0.00003790      -0.00000000        1      -0.00000811       0.00000811       0.00000000
I        0.00002082      -0.00002082       3.19352975        2      -0.00001759       0.00001759      -0.00000000
I        3.19354510      -0.00002083      -0.00000000        3       0.00003348       0.00001759       0.00000000
I        0.00002081       3.19351440      -0.00000000        4      -0.00001759      -0.00003348       0.00000000
Cs       3.19378756       9.58033141       3.19352975        5       0.00000980      -0.00000981      -0.00000000
Pb       0.00003788       6.38702161      -0.00000000        6      -0.00000811       0.00000811       0.00000000
I        0.00002080       6.38703868       3.19352975        7      -0.00001759       0.00001759      -0.00000000
I        3.19354509       6.38703868      -0.00000000        8       0.00003348       0.00001759       0.00000000
I        0.00002080       9.58057390      -0.00000000        9      -0.00001759      -0.00003348       0.00000000
Cs       9.58084707       3.19327189       3.19352975       10       0.00000980      -0.00000981      -0.00000000
Pb       6.38709740      -0.00003791      -0.00000000       11      -0.00000811       0.00000811       0.00000000
I        6.38708032      -0.00002083       3.19352975       12      -0.00001759       0.00001759      -0.00000000
I        9.58060460      -0.00002084      -0.00000000       13       0.00003348       0.00001759       0.00000000
I        6.38708031       3.19351439      -0.00000000       14      -0.00001759      -0.00003348       0.00000000
Cs       9.58084706       9.58033140       3.19352975       15       0.00000980      -0.00000981      -0.00000000
Pb       6.38709738       6.38702159      -0.00000000       16      -0.00000811       0.00000811       0.00000000
I        6.38708031       6.38703867       3.19352975       17      -0.00001759       0.00001759      -0.00000000
I        9.58060459       6.38703866      -0.00000000       18       0.00003348       0.00001759       0.00000000
I        6.38708030       9.58057389      -0.00000000       19      -0.00001759      -0.00003348       0.00000000
