40
Lattice="19.90101754555692 0.10563565993415731 1.258347582913591 -1.8341982843769051 10.895042801291384 -0.5560573257088546 -5.119846361237614 4.125659332975107 11.183796585208329" Properties=species:S:1:pos:R:3:spacegroup_kinds:I:1:forces:R:3 spacegroup="P 1" unit_cell=conventional occupancy="_JSON {\"0\": {\"Cs\": 1.0}, \"1\": {\"Cs\": 1.0}, \"2\": {\"Cs\": 1.0}, \"3\": {\"Cs\": 1.0}, \"4\": {\"Pb\": 1.0}, \"5\": {\"Pb\": 1.0}, \"6\": {\"Pb\": 1.0}, \"7\": {\"Pb\": 1.0}, \"8\": {\"I\": 1.0}, \"9\": {\"I\": 1.0}, \"10\": {\"I\": 1.0}, \"11\": {\"I\": 1.0}, \"12\": {\"I\": 1.0}, \"13\": {\"I\": 1.0}, \"14\": {\"I\": 1.0}, \"15\": {\"I\": 1.0}, \"16\": {\"I\": 1.0}, \"17\": {\"I\": 1.0}, \"18\": {\"I\": 1.0}, \"19\": {\"I\": 1.0}, \"20\": {\"Cs\": 1.0}, \"21\": {\"Cs\": 1.0}, \"22\": {\"Cs\": 1.0}, \"23\": {\"Cs\": 1.0}, \"24\": {\"Pb\": 1.0}, \"25\": {\"Pb\": 1.0}, \"26\": {\"Pb\": 1.0}, \"27\": {\"Pb\": 1.0}, \"28\": {\"I\": 1.0}, \"29\": {\"I\": 1.0}, \"30\": {\"I\": 1.0}, \"31\": {\"I\": 1.0}, \"32\": {\"I\": 1.0}, \"33\": {\"I\": 1.0}, \"34\": {\"I\": 1.0}, \"35\": {\"I\": 1.0}, \"36\": {\"I\": 1.0}, \"37\": {\"I\": 1.0}, \"38\": {\"I\": 1.0}, \"39\": {\"I\": 1.0}}" energy=-110.69526728753851 free_energy=-110.69526728753851 stress="1.766163896035334e-05 -3.160975034278852e-06 1.010416281420997e-05 -3.160975034278852e-06 -2.476449070930223e-06 5.2936571831532177e-08 1.010416281420997e-05 5.2936571831532177e-08 -1.1067417099430216e-05" pbc="T T T"
Cs       2.79786906      10.26153805       2.11923806        0      -0.00043307      -0.00014892      -0.00006866
Cs      -1.33815873       6.01150066       2.27908053        1      -0.00023336      -0.00016258      -0.00023839
Cs       1.08959327       6.39635627       8.73031598        2       0.00016431       0.00019392       0.00017645
Cs       8.82820492      11.71316175       9.09707344        3      -0.00026226      -0.00019035      -0.00009494
Pb      -4.60890710       4.33034593      10.69395102        4      -0.00022778      -0.00021273      -0.00005759
Pb      -1.00848507       8.79652309      12.90907512        5      -0.00008888       0.00020055       0.00004805
Pb      -3.17911229       2.96466380       6.15888228        6      -0.00016623      -0.00006237      -0.00025315
Pb       4.76748659       8.54911694       6.47936264        7       0.00010255       0.00013818      -0.00001943
I        2.01572842       6.56962639       0.49832303        8      -0.00024437       0.00005474       0.00021633
I        3.24801233       2.13603767       0.08807925        9      -0.00012901      -0.00005203       0.00002466
I        6.22674318       2.89649771       3.63657939       10       0.00020252      -0.00024351       0.00015138
I        1.18756140       9.53271428      10.96593520       11      -0.00008512       0.00011108      -0.00031960
I        0.47692961      14.50471918      10.46935877       12       0.00006268       0.00012441      -0.00019963
I        5.03693653       7.42722720       3.69136061       13      -0.00032388       0.00011033       0.00008621
I       -1.03337316       9.89191985       1.70085947       14       0.00034599      -0.00013227       0.00013336
I       -0.51365335       4.35018972       5.89234092       15       0.00007895       0.00006417       0.00034497
I       -3.17779794       2.02040766       9.28142010       16      -0.00017472      -0.00011345      -0.00021211
I        4.93337647       5.61755879       7.95557563       17      -0.00011586       0.00019272       0.00019317
I        6.50242730      11.12912455       5.89902977       18       0.00006168       0.00014260       0.00008175
I        1.90183803       9.50122737       6.21287012       19       0.00044222       0.00008679      -0.00019767
Cs      12.74814351      10.31415250       2.74764717       20       0.00024681      -0.00003801       0.00000468
Cs       8.61160916       6.06488622       2.90949235       21       0.00025880      -0.00038381       0.00002016
Cs      11.04117822       6.44950131       9.35916643       22      -0.00016996       0.00041486      -0.00005803
Cs      -1.12160805      11.65952051       8.46774754       23       0.00015631       0.00001953      -0.00011443
Pb       5.34080120       4.38314332      11.32434575       24      -0.00004433       0.00011558      -0.00026231
Pb       8.94218960       8.84914265      13.53763923       25      -0.00009115      -0.00011073       0.00041246
Pb       6.77000328       3.01727580       6.78908787       26      -0.00013512      -0.00018114      -0.00002887
Pb      14.71943175       8.60213895       7.10762824       27       0.00004604       0.00003054      -0.00009841
I       11.96528150       6.62173190       1.12809184       28       0.00029589       0.00023912      -0.00014402
I       13.19853381       2.18864749       0.71670093       29      -0.00006592       0.00012614       0.00019786
I       -3.72270357       2.84318827       3.00634541       30      -0.00020723       0.00021095       0.00011343
I       11.13736569       9.58612912      11.59381985       31       0.00025982       0.00017398       0.00004461
I       10.42809348      14.55791158      11.09743971       32      -0.00008803      -0.00013208       0.00025605
I       14.98778725       7.48027702       4.31957054       33       0.00025330      -0.00029916      -0.00006657
I        8.91743912       9.94537395       2.33147001       34      -0.00032521      -0.00026267      -0.00009991
I        9.43554810       4.40257910       6.52319616       35       0.00034193       0.00000565      -0.00022804
I        6.77129990       2.07307266       9.91153220       36       0.00002804      -0.00034885       0.00012819
I       14.88454077       5.67066562       8.58415601       37       0.00015872       0.00012606      -0.00022602
I       16.45423286      11.18247709       6.52715288       38       0.00007968      -0.00003459       0.00024702
I       11.85390921       9.55398496       6.84106588       39       0.00002525       0.00022738       0.00010700
