80
Lattice="18.360536162280415 -0.016671249269051072 -0.022652553415953715 9.161699573761455 14.819304577647793 0.34717502099447695 9.1707762105752 5.273075429898183 15.109086681864955" Properties=species:S:1:pos:R:3:spacegroup_kinds:I:1:forces:R:3 spacegroup="P 1" unit_cell=conventional occupancy="_JSON {\"0\": {\"Cs\": 1.0}, \"1\": {\"Cs\": 1.0}, \"2\": {\"K\": 1.0}, \"3\": {\"In\": 1.0}, \"4\": {\"I\": 1.0}, \"5\": {\"I\": 1.0}, \"6\": {\"I\": 1.0}, \"7\": {\"I\": 1.0}, \"8\": {\"I\": 1.0}, \"9\": {\"I\": 1.0}, \"10\": {\"Cs\": 1.0}, \"11\": {\"Cs\": 1.0}, \"12\": {\"K\": 1.0}, \"13\": {\"In\": 1.0}, \"14\": {\"I\": 1.0}, \"15\": {\"I\": 1.0}, \"16\": {\"I\": 1.0}, \"17\": {\"I\": 1.0}, \"18\": {\"I\": 1.0}, \"19\": {\"I\": 1.0}, \"20\": {\"Cs\": 1.0}, \"21\": {\"Cs\": 1.0}, \"22\": {\"K\": 1.0}, \"23\": {\"In\": 1.0}, \"24\": {\"I\": 1.0}, \"25\": {\"I\": 1.0}, \"26\": {\"I\": 1.0}, \"27\": {\"I\": 1.0}, \"28\": {\"I\": 1.0}, \"29\": {\"I\": 1.0}, \"30\": {\"Cs\": 1.0}, \"31\": {\"Cs\": 1.0}, \"32\": {\"K\": 1.0}, \"33\": {\"In\": 1.0}, \"34\": {\"I\": 1.0}, \"35\": {\"I\": 1.0}, \"36\": {\"I\": 1.0}, \"37\": {\"I\": 1.0}, \"38\": {\"I\": 1.0}, \"39\": {\"I\": 1.0}, \"40\": {\"Cs\": 1.0}, \"41\": {\"Cs\": 1.0}, \"42\": {\"K\": 1.0}, \"43\": {\"In\": 1.0}, \"44\": {\"I\": 1.0}, \"45\": {\"I\": 1.0}, \"46\": {\"I\": 1.0}, \"47\": {\"I\": 1.0}, \"48\": {\"I\": 1.0}, \"49\": {\"I\": 1.0}, \"50\": {\"Cs\": 1.0}, \"51\": {\"Cs\": 1.0}, \"52\": {\"K\": 1.0}, \"53\": {\"In\": 1.0}, \"54\": {\"I\": 1.0}, \"55\": {\"I\": 1.0}, \"56\": {\"I\": 1.0}, \"57\": {\"I\": 1.0}, \"58\": {\"I\": 1.0}, \"59\": {\"I\": 1.0}, \"60\": {\"Cs\": 1.0}, \"61\": {\"Cs\": 1.0}, \"62\": {\"K\": 1.0}, \"63\": {\"In\": 1.0}, \"64\": {\"I\": 1.0}, \"65\": {\"I\": 1.0}, \"66\": {\"I\": 1.0}, \"67\": {\"I\": 1.0}, \"68\": {\"I\": 1.0}, \"69\": {\"I\": 1.0}, \"70\": {\"Cs\": 1.0}, \"71\": {\"Cs\": 1.0}, \"72\": {\"K\": 1.0}, \"73\": {\"In\": 1.0}, \"74\": {\"I\": 1.0}, \"75\": {\"I\": 1.0}, \"76\": {\"I\": 1.0}, \"77\": {\"I\": 1.0}, \"78\": {\"I\": 1.0}, \"79\": {\"I\": 1.0}}" energy=-205.19157437783272 free_energy=-205.19157437783272 stress="7.199314570986504e-07 1.2267456856879367e-06 -4.3611577781097957e-07 1.2267456856879367e-06 -2.4494379872529078e-08 -4.132995535606373e-07 -4.3611577781097957e-07 -4.132995535606373e-07 -3.2557037630272106e-07" pbc="T T T"
Cs       4.60007290       2.68430485       1.85487202        0       0.00004636       0.00005876      -0.00003778
Cs      13.74549907       7.35437288       5.86256916        1      -0.00013827      -0.00017429       0.00026753
K        9.17348713       5.01936310       3.85794950        2      -0.00011929      -0.00021542       0.00026610
In      18.36040385      -0.01655396      -0.02249124        3       0.00036149      -0.00011358      -0.00039602
I        6.24664398       3.63627417       5.29108100        4       0.00007000       0.00026915      -0.00008535
I       12.10087459       6.40085257       2.42625598        5       0.00007693       0.00013991      -0.00003427
I        9.87484812       2.39964671       1.58761121        6      -0.00026761      -0.00005546      -0.00023152
I        8.47219227       7.63795423       6.12985581        7      -0.00012730      -0.00030405       0.00000425
I        6.96251914       6.01095274       1.28296411        8      -0.00001289      -0.00002754      -0.00028652
I       11.38333756       4.02635213       6.43399372        9      -0.00005799       0.00019915       0.00005328
Cs       9.18602115       5.32084553       9.40927618       10       0.00002341       0.00005431       0.00006165
Cs      18.33168205       9.99034954      13.41694889       11      -0.00022005      -0.00007286       0.00006320
K       13.75910539       7.65555407      11.41305592       12      -0.00015321      -0.00012187       0.00015219
In      22.94580081       2.62002729       7.53173384       13       0.00039452      -0.00038177       0.00034783
I       10.83187009       6.27286736      12.84578984       14      -0.00016980       0.00031332       0.00010664
I       16.68631998       9.03665511       9.98041512       15       0.00026895       0.00029433      -0.00016067
I       14.45916253       5.03645728       9.14167766       16      -0.00014036      -0.00001583      -0.00014545
I       13.05781797      10.27453775      13.68397291       17       0.00002885       0.00023326       0.00031954
I       11.54744430       8.64707022       8.83817950       18      -0.00003467       0.00021102      -0.00036002
I       15.96902870       6.66351868      13.98943069       19       0.00030423       0.00000739       0.00016833
Cs       9.18162005      10.09394373       2.02833514       20      -0.00001379       0.00010176       0.00006458
Cs      18.32696017      14.76402106       6.03618127       21      -0.00017774      -0.00008856       0.00011869
K       13.75461154      12.42880801       4.03212851       22      -0.00011929      -0.00012903       0.00003167
In      22.94143716       7.39314527       0.15084424       23       0.00013557      -0.00060690      -0.00035714
I       10.82747073      11.04598900       5.46479359       24       0.00010158       0.00020157       0.00005198
I       16.68217603      13.80958638       2.59947458       25      -0.00007109       0.00026934       0.00015389
I       14.45458157       9.81016858       1.75992887       26       0.00006407       0.00018233       0.00043534
I       13.05325573      15.04747096       6.30342499       27      -0.00011639      -0.00007376       0.00003924
I       11.54335164      13.42092038       1.45709372       28      -0.00007550      -0.00003524      -0.00001150
I       15.96437979      11.43679844       6.60859163       29       0.00027398      -0.00001202      -0.00026128
Cs      13.76662487      12.73090365       9.58305750       30      -0.00012381      -0.00005738       0.00014630
Cs      22.91193957      17.39992797      13.59046846       31      -0.00018069       0.00011694      -0.00005396
K       18.33966012      15.06511435      11.58640130       32      -0.00000610      -0.00012453       0.00008368
In      27.52668865      10.02956081       7.70548575       33       0.00045564      -0.00027768       0.00035709
I       15.41243241      13.68329583      13.01913965       34      -0.00000486       0.00001440       0.00011994
I       21.26668477      16.44662025      10.15391860       35       0.00002357       0.00011877      -0.00014148
I       19.04109838      12.44564814       9.31532930       36      -0.00008553      -0.00007111       0.00005029
I       17.63873265      17.68382970      13.85842260       37      -0.00024319       0.00001673      -0.00002372
I       16.12833878      16.05723367       9.01179642       38       0.00002944      -0.00014111      -0.00029283
I       20.54956080      14.07223039      14.16218436       39       0.00018996       0.00008215      -0.00002357
Cs      13.78133786       2.67565790       1.84355701       40      -0.00003938      -0.00003192      -0.00005000
Cs      22.92642674       7.34498310       5.85020761       41       0.00013024      -0.00002358       0.00003585
K       18.35353015       5.01089926       3.84674949       42      -0.00029079      -0.00002914       0.00031503
In       9.18047131      -0.00828806      -0.01130784       43      -0.00032711       0.00002086      -0.00020192
I       15.42598052       3.62894852       5.27989763       44       0.00044380       0.00033754      -0.00021790
I       21.28089237       6.39224651       2.41420204       45      -0.00030456       0.00008734       0.00009836
I       19.05430747       2.39198155       1.57559224       46       0.00005679       0.00003137      -0.00002978
I       17.65179349       7.62979002       6.11790392       47       0.00001613      -0.00001508      -0.00003034
I       16.14315488       6.00348007       1.27159038       48       0.00034877      -0.00030771       0.00011190
I       20.56427636       4.01839196       6.42204666       49      -0.00009879       0.00038678      -0.00018422
Cs      18.36583167       5.31177423       9.39725731       50       0.00007183       0.00005947       0.00013052
Cs      27.51186744       9.98205477      13.40559906       51      -0.00003130      -0.00015689      -0.00011473
K       22.93871162       7.64742348      11.40106676       52      -0.00010578      -0.00006470       0.00033631
In      13.76534458       2.62819652       7.54308099       53       0.00009851       0.00011142       0.00047832
I       20.01121143       6.26578925      12.83407143       54       0.00008822      -0.00005303      -0.00022277
I       25.86597153       9.02945037       9.96921029       55      -0.00013902       0.00009010      -0.00018914
I       23.64010907       5.02828953       9.12997358       56      -0.00022865       0.00000204      -0.00009984
I       22.23810403      10.26558929      13.67388696       57       0.00011423      -0.00001342      -0.00031882
I       20.72813523       8.63817702       8.82497413       58       0.00009542       0.00011207       0.00011595
I       25.14953966       6.65511184      13.97702512       59       0.00019186      -0.00004678      -0.00027991
Cs      18.36117505      10.08529491       2.01650866       60       0.00011504       0.00009698      -0.00004627
Cs      27.50738548      14.75515328       6.02447204       61      -0.00010193      -0.00010428       0.00010243
K       22.93420661      12.42011814       4.02031489       62      -0.00009465       0.00004669       0.00018525
In      13.76105653       7.40135682       0.16238839       63      -0.00031407      -0.00012439      -0.00031257
I       20.00676149      11.03841262       5.45314877       64       0.00003971       0.00017312      -0.00037907
I       25.86130141      13.80280333       2.58818136       65      -0.00009188      -0.00023292       0.00023100
I       23.63552668       9.80123407       1.74922285       66       0.00002437       0.00020951       0.00003283
I       22.23362320      15.03916096       6.29187363       67      -0.00019427      -0.00035765      -0.00014042
I       20.72408199      13.41225716       1.44442483       68       0.00021415      -0.00034524      -0.00021529
I       25.14528295      11.42835697       6.59597822       69      -0.00008742       0.00014532      -0.00012426
Cs      22.94748647      12.72206258       9.57119913       70      -0.00000169       0.00005564      -0.00002554
Cs      32.09273642      17.39147921      13.57832290       71      -0.00001362      -0.00006971       0.00001612
K       27.51949858      15.05666941      11.57505108       72      -0.00001551       0.00007175       0.00020007
In      18.34647959      10.03771252       7.71662040       73      -0.00024917      -0.00014282       0.00046829
I       24.59242653      13.67478450      13.00783454       74      -0.00026163      -0.00004455      -0.00017457
I       30.44608545      16.43920914      10.14216230       75       0.00021886       0.00012908       0.00006520
I       28.22096928      12.43785962       9.30368034       76      -0.00008559       0.00012942      -0.00005466
I       26.81855493      17.67608058      13.84597934       77       0.00012559       0.00005155       0.00022464
I       25.30887572      16.04905028       8.99968436       78       0.00045362      -0.00016739      -0.00018980
I       29.73034650      14.06461664      14.15075736       79       0.00004051       0.00019856      -0.00010637
