20
Lattice="12.774120739070614 0.0 0.0 0.0 12.774120739070613 0.0 0.0 0.0 6.387060369535306" Properties=species:S:1:pos:R:3:oxi_states:R:1 pbc="T T T"
Cs       3.19358977       3.19347060       3.19353018       1.00000000
Pb      -0.00000000      -0.00000000       0.00000000       2.00000000
I        0.00000000      -0.00000000       3.19353018      -1.00000000
I        3.19353018       0.00000000      -0.00000000      -1.00000000
I       -0.00000000       3.19353018       0.00000000      -1.00000000
Cs       3.19358977       9.58053097       3.19353018       1.00000000
Pb      -0.00000000       6.38706037       0.00000000       2.00000000
I        0.00000000       6.38706037       3.19353018      -1.00000000
I        3.19353018       6.38706037      -0.00000000      -1.00000000
I       -0.00000000       9.58059055       0.00000000      -1.00000000
Cs       9.58065014       3.19347060       3.19353018       1.00000000
Pb       6.38706037      -0.00000000       0.00000000       2.00000000
I        6.38706037      -0.00000000       3.19353018      -1.00000000
I        9.58059055       0.00000000      -0.00000000      -1.00000000
I        6.38706037       3.19353018       0.00000000      -1.00000000
Cs       9.58065014       9.58053097       3.19353018       1.00000000
Pb       6.38706037       6.38706037       0.00000000       2.00000000
I        6.38706037       6.38706037       3.19353018      -1.00000000
I        9.58059055       6.38706037      -0.00000000      -1.00000000
I        6.38706037       9.58059055       0.00000000      -1.00000000
