20
Lattice="21.957712551172 4.80039624235089 -3.7302612105873654 5.806255845361087 10.31203451319838 1.3946136433807936 7.698424804805702 6.431995497344556 7.400757002197309" Properties=species:S:1:pos:R:3:spacegroup_kinds:I:1:forces:R:3 spacegroup="P 1" unit_cell=conventional occupancy="_JSON {\"0\": {\"Cs\": 1.0}, \"1\": {\"Cs\": 1.0}, \"2\": {\"K\": 1.0}, \"3\": {\"In\": 1.0}, \"4\": {\"I\": 1.0}, \"5\": {\"I\": 1.0}, \"6\": {\"I\": 1.0}, \"7\": {\"I\": 1.0}, \"8\": {\"I\": 1.0}, \"9\": {\"I\": 1.0}, \"10\": {\"Cs\": 1.0}, \"11\": {\"Cs\": 1.0}, \"12\": {\"K\": 1.0}, \"13\": {\"In\": 1.0}, \"14\": {\"I\": 1.0}, \"15\": {\"I\": 1.0}, \"16\": {\"I\": 1.0}, \"17\": {\"I\": 1.0}, \"18\": {\"I\": 1.0}, \"19\": {\"I\": 1.0}}" energy=-50.695136214818326 free_energy=-50.695136214818326 stress="2.833347563317558e-06 -1.642371588558236e-06 1.5893247020588374e-07 -1.642371588558236e-06 -1.8880660937277346e-06 1.6380935058103402e-06 1.5893247020588374e-07 1.6380935058103402e-06 7.71983395077028e-08" pbc="T T T"
Cs       2.13680425       6.09166962       3.15249342        0      -0.00008644       0.00039463      -0.00004490
Cs      13.21087669      13.89457072       6.01762269        1      -0.00010096       0.00005386      -0.00000958
K        6.30488730       8.94958039       4.25518430        2      -0.00000207       0.00001499      -0.00001215
In      13.85355135       2.25360595      -3.33410222        3       0.00001407      -0.00000828      -0.00006870
I        5.02278649       3.34054272      -1.67931093        4      -0.00025270      -0.00013116       0.00010448
I        6.03990413      12.91188128      11.55552247        5      -0.00017638       0.00032485       0.00001494
I        9.47984268       6.96891003       4.42908235        6      -0.00017578       0.00028931      -0.00008504
I        2.98979698       9.34473696       5.04838007        7      -0.00017911       0.00004046      -0.00000999
I       13.46577407      12.61249378       9.64378435        8      -0.00006994       0.00009042      -0.00012445
I        0.64414530       3.94321617      -0.29689896        9       0.00007291      -0.00002289       0.00014993
Cs      12.77673036      10.50534650       1.70028268       10      -0.00009101       0.00025953      -0.00022032
Cs      24.60837167      12.73683507       5.04469675       11      -0.00000502      -0.00007595       0.00007380
K       17.60226871       9.79397839       2.33437073       12       0.00006748       0.00014288      -0.00003383
In       2.65487214       2.15178426      -0.91298676       13       0.00014677      -0.00004997      -0.00024604
I       16.36521829       2.90540530      -4.42154864       14       0.00012952      -0.00012845       0.00001683
I       16.67497837      17.44130174      10.18810994       15       0.00018443      -0.00050293       0.00005679
I       20.17123889       7.03378194       2.37180229       16       0.00016806      -0.00031166       0.00010183
I       15.43929561      12.03044764       3.76429799       17       0.00001918      -0.00002180       0.00005446
I       23.00299168      14.66948306       7.75653788       18       0.00023895      -0.00031079       0.00033366
I       12.55584585       4.59405027      -2.74441087       19       0.00009804      -0.00004705      -0.00005172
