160
Lattice="15.817160426156029 0.0 0.0 -3.053200168689555 21.65820601876394 0.0 -9.269927470135096 9.244974297541336 17.426906919472593" Properties=species:S:1:pos:R:3 pbc="T T T"
Cs       1.81999149      11.74284732       2.17836331
Cs      -0.93865125       6.32850490       2.17836331
Cs       1.22377886       4.91066357       6.53509004
Cs       3.98251186      10.32542416       6.53509004
Pb       0.64836764       0.60110729      -0.00000425
Pb       3.83938483       6.01555114      -0.00001011
Pb      -2.31748187       2.31124357       4.35672673
Pb       1.52190296       8.32679471       4.35673672
I        0.91928162       8.36124008       0.36201534
I        2.57603878       2.94667180       0.36221280
I        6.71395130       1.85891555       2.17836331
I        2.12451504       8.29247609       8.35115251
I        0.46776488      13.70701082       8.35134997
I        3.33607958       7.27325299       2.17836331
I       -1.01291332      10.28823386       3.99471127
I        0.64384384       4.87366557       3.99451381
I       -3.67021160      14.79501932       6.53509004
I        4.05670998       6.36548232       4.71902756
I        2.39995982      11.78001704       4.71883010
I       -0.29231653       9.38025375       6.53509004
Cs      -2.81497225      16.36533447      10.89181677
Cs      -5.57361499      10.95099204      10.89181677
Cs      -3.41118487       9.53315072      15.24854350
Cs      -0.65245188      14.94791131      15.24854350
Pb      -3.98659610       5.22359443       8.71344921
Pb      -0.79557891      10.63803829       8.71344335
Pb      -6.95244560       6.93373072      13.07018019
Pb      -3.11306077      12.94928186      13.07019018
I       -3.71568211      12.98372723       9.07546880
I       -2.05892496       7.56915894       9.07566626
I        2.07898756       6.48140270      10.89181677
I       -2.51044869      12.91496324      17.06460597
I       -4.16719885      18.32949797      17.06480343
I       -1.29888415      11.89574014      10.89181677
I       -5.64787705      14.91072101      12.70816473
I       -3.99111990       9.49615272      12.70796727
I       -8.30517533      19.41750647      15.24854350
I       -0.57825376      10.98796947      13.43248102
I       -2.23500392      16.40250419      13.43228356
I       -4.92728026      14.00274090      15.24854350
Cs       0.29339140      22.57195033       2.17836331
Cs      -2.46525134      17.15760790       2.17836331
Cs      -0.30282122      15.73976658       6.53509004
Cs       2.45591177      21.15452717       6.53509004
Pb      -0.87823245      11.43021029      -0.00000425
Pb       2.31278475      16.84465415      -0.00001011
Pb      -3.84408195      13.14034658       4.35672673
Pb      -0.00469712      19.15589772       4.35673672
I       -0.60731846      19.19034309       0.36201534
I        1.04943869      13.77577480       0.36221280
I        5.18735121      12.68801856       2.17836331
I        0.59791496      19.12157910       8.35115251
I       -1.05883520      24.53611383       8.35134997
I        1.80947950      18.10235600       2.17836331
I       -2.53951340      21.11733687       3.99471127
I       -0.88275625      15.70276858       3.99451381
I       -5.19681168      25.62412233       6.53509004
I        2.53010989      17.19458533       4.71902756
I        0.87335973      22.60912005       4.71883010
I       -1.81891661      20.20935676       6.53509004
Cs      -4.34157233      27.19443748      10.89181677
Cs      -7.10021507      21.78009505      10.89181677
Cs      -4.93778496      20.36225373      15.24854350
Cs      -2.17905196      25.77701432      15.24854350
Pb      -5.51319618      16.05269744       8.71344921
Pb      -2.32217899      21.46714130       8.71344335
Pb      -8.47904569      17.76283373      13.07018019
Pb      -4.63966086      23.77838487      13.07019018
I       -5.24228220      23.81283024       9.07546880
I       -3.58552504      18.39826195       9.07566626
I        0.55238748      17.31050571      10.89181677
I       -4.03704878      23.74406625      17.06460597
I       -5.69379894      29.15860098      17.06480343
I       -2.82548424      22.72484315      10.89181677
I       -7.17447714      25.73982402      12.70816473
I       -5.51771998      20.32525573      12.70796727
I       -9.83177542      30.24660948      15.24854350
I       -2.10485384      21.81707248      13.43248102
I       -3.76160400      27.23160720      13.43228356
I       -6.45388035      24.83184391      15.24854350
Cs       9.72857170      11.74284732       2.17836331
Cs       6.96992896       6.32850490       2.17836331
Cs       9.13235908       4.91066357       6.53509004
Cs      11.89109207      10.32542416       6.53509004
Pb       8.55694785       0.60110729      -0.00000425
Pb      11.74796504       6.01555114      -0.00001011
Pb       5.59109835       2.31124357       4.35672673
Pb       9.43048318       8.32679471       4.35673672
I        8.82786183       8.36124008       0.36201534
I       10.48461899       2.94667180       0.36221280
I       14.62253151       1.85891555       2.17836331
I       10.03309525       8.29247609       8.35115251
I        8.37634509      13.70701082       8.35134997
I       11.24465980       7.27325299       2.17836331
I        6.89566690      10.28823386       3.99471127
I        8.55242405       4.87366557       3.99451381
I        4.23836862      14.79501932       6.53509004
I       11.96529019       6.36548232       4.71902756
I       10.30854003      11.78001704       4.71883010
I        7.61626368       9.38025375       6.53509004
Cs       5.09360797      16.36533447      10.89181677
Cs       2.33496523      10.95099204      10.89181677
Cs       4.49739534       9.53315072      15.24854350
Cs       7.25612834      14.94791131      15.24854350
Pb       3.92198412       5.22359443       8.71344921
Pb       7.11300131      10.63803829       8.71344335
Pb       0.95613461       6.93373072      13.07018019
Pb       4.79551944      12.94928186      13.07019018
I        4.19289810      12.98372723       9.07546880
I        5.84965525       7.56915894       9.07566626
I        9.98756777       6.48140270      10.89181677
I        5.39813152      12.91496324      17.06460597
I        3.74138136      18.32949797      17.06480343
I        6.60969606      11.89574014      10.89181677
I        2.26070316      14.91072101      12.70816473
I        3.91746032       9.49615272      12.70796727
I       -0.39659512      19.41750647      15.24854350
I        7.33032646      10.98796947      13.43248102
I        5.67357630      16.40250419      13.43228356
I        2.98129995      14.00274090      15.24854350
Cs       8.20197162      22.57195033       2.17836331
Cs       5.44332888      17.15760790       2.17836331
Cs       7.60575899      15.73976658       6.53509004
Cs      10.36449199      21.15452717       6.53509004
Pb       7.03034777      11.43021029      -0.00000425
Pb      10.22136496      16.84465415      -0.00001011
Pb       4.06449826      13.14034658       4.35672673
Pb       7.90388309      19.15589772       4.35673672
I        7.30126175      19.19034309       0.36201534
I        8.95801891      13.77577480       0.36221280
I       13.09593142      12.68801856       2.17836331
I        8.50649517      19.12157910       8.35115251
I        6.84974501      24.53611383       8.35134997
I        9.71805971      18.10235600       2.17836331
I        5.36906681      21.11733687       3.99471127
I        7.02582397      15.70276858       3.99451381
I        2.71176853      25.62412233       6.53509004
I       10.43869011      17.19458533       4.71902756
I        8.78193995      22.60912005       4.71883010
I        6.08966360      20.20935676       6.53509004
Cs       3.56700788      27.19443748      10.89181677
Cs       0.80836514      21.78009505      10.89181677
Cs       2.97079526      20.36225373      15.24854350
Cs       5.72952825      25.77701432      15.24854350
Pb       2.39538403      16.05269744       8.71344921
Pb       5.58640122      21.46714130       8.71344335
Pb      -0.57046547      17.76283373      13.07018019
Pb       3.26891936      23.77838487      13.07019018
I        2.66629801      23.81283024       9.07546880
I        4.32305517      18.39826195       9.07566626
I        8.46096769      17.31050571      10.89181677
I        3.87153143      23.74406625      17.06460597
I        2.21478128      29.15860098      17.06480343
I        5.08309598      22.72484315      10.89181677
I        0.73410308      25.73982402      12.70816473
I        2.39086023      20.32525573      12.70796727
I       -1.92319520      30.24660948      15.24854350
I        5.80372637      21.81707248      13.43248102
I        4.14697621      27.23160720      13.43228356
I        1.45469986      24.83184391      15.24854350
