10
Lattice="11.10086213628511 0.0 0.0 -3.79297374383007 6.569623236088424 0.0 1.7630085298601428 1.0178734492983592 7.073154166347186" Properties=species:S:1:pos:R:3 pbc="T T T"
Cs       9.56678093       2.81934798       7.06644678
Cs       2.84247443       3.99326228       0.00658825
K        0.88150426       0.50893672       3.53657708
In       1.66919690      -0.38744807       0.00002894
I       10.21300280      -0.17929368       1.41486396
I        2.19624172       6.99185590       5.65830219
I        3.94333697       1.53660631       1.41487870
I        8.46595727       5.27602808       5.65831693
I       10.31793769       4.66079793       1.41486540
I        2.09131826       2.15182593       5.65830364
