10
Lattice="9.181342833348268 -1.108831684883365 -0.9892285108080809 -3.697029229717306 8.529883902286251 -0.14866570737123344 1.014713308077574 0.5891413099499315 8.751261058179598" Properties=species:S:1:pos:R:3:spacegroup_kinds:I:1:forces:R:3 spacegroup="P 1" unit_cell=conventional occupancy="_JSON {\"0\": {\"Cs\": 1.0}, \"1\": {\"Cs\": 1.0}, \"2\": {\"K\": 1.0}, \"3\": {\"In\": 1.0}, \"4\": {\"I\": 1.0}, \"5\": {\"I\": 1.0}, \"6\": {\"I\": 1.0}, \"7\": {\"I\": 1.0}, \"8\": {\"I\": 1.0}, \"9\": {\"I\": 1.0}}" energy=-25.793805897295023 free_energy=-25.793805897295023 stress="8.491466348763506e-06 -3.8075037478724542e-06 7.010330625937973e-07 -3.8075037478724542e-06 -5.7787545552630106e-06 -9.276175053860264e-07 7.010330625937973e-07 -9.276175053860264e-07 1.0720326560732354e-05" pbc="T T T"
Cs       7.18028810       2.11290188       7.97740124        0      -0.00019576       0.00022770      -0.00018809
Cs       1.86342677       4.73175014      -0.57988718        1      -0.00010293       0.00015972       0.00011161
K        1.77933260      -0.28811758       4.26770702        2       0.00012792       0.00020665      -0.00022440
In      -2.42486258       7.94701419      -0.25681432        3       0.00041018       0.00029405       0.00015733
I        4.54968766       7.21993812       0.76623736        4       0.00007395      -0.00001093       0.00041705
I        0.79668365       8.15460559       6.48214339        5      -0.00005307      -0.00008969      -0.00006500
I        2.89074562       1.49827974       1.34600206        6       0.00046004      -0.00040108       0.00008328
I        6.15234935       5.34660977       6.05093673        7      -0.00004123       0.00006266       0.00049260
I       -1.22703321       5.83962665       1.52905275        8      -0.00061923      -0.00029838      -0.00019359
I        1.08963749       2.11439876       6.85778961        9      -0.00005988      -0.00015070      -0.00059079
