80
Lattice="18.765172667516296 0.0 0.0 -6.005107607488939 16.27709475429807 0.0 1.0765577190897828 -3.415079154107923 19.150393291897505" Properties=species:S:1:pos:R:3 pbc="T T T"
Cs       2.55963801       3.97247509       0.03036599
Cs      -1.03389116       4.98865897       9.54458374
K       -2.42709705       0.41133023       4.78760038
In      -2.69629832       1.26509176       0.00010427
I       -3.35823393       3.06654645       1.91546784
I        4.88395343       5.89478442       7.65977858
I       -0.57905478       2.02379175       7.65983165
I        2.10476444       6.93719871       1.91552090
I       -3.13488005       9.04382860       1.91547130
I        4.66065776      -0.08268916       7.65978205
Cs       3.09791687       2.26493551       9.60556264
Cs      -0.49561230       3.28111939      19.11978038
K       -1.88881819      -1.29620935      14.36279703
In      -2.15801946      -0.44244781       9.57530092
I       -2.81995508       1.35900687      11.49066448
I        5.42223229       4.18724484      17.23497523
I       -0.04077593       0.31625218      17.23502830
I        2.64304330       5.22965914      11.49071755
I       -2.59660119       7.33628902      11.49066795
I        5.19893662      -1.79022874      17.23497870
Cs      -0.44291579      12.11102246       0.03036599
Cs      -4.03644497      13.12720635       9.54458374
K       -5.42965086       8.54987761       4.78760038
In      -5.69885212       9.40363914       0.00010427
I       -6.36078774      11.20509383       1.91546784
I        1.88139962      14.03333179       7.65977858
I       -3.58160859      10.16233913       7.65983165
I       -0.89778936      15.07574609       1.91552090
I       -6.13743386      17.18237597       1.91547130
I        1.65810395       8.05585822       7.65978205
Cs       0.09536307      10.40348289       9.60556264
Cs      -3.49816611      11.41966677      19.11978038
K       -4.89137200       6.84233803      14.36279703
In      -5.16057326       7.69609956       9.57530092
I       -5.82250888       9.49755425      11.49066448
I        2.41967848      12.32579222      17.23497523
I       -3.04332973       8.45479956      17.23502830
I       -0.35951050      13.36820651      11.49071755
I       -5.59915500      15.47483640      11.49066795
I        2.19638281       6.34831864      17.23497870
Cs      11.94222435       3.97247509       0.03036599
Cs       8.34869517       4.98865897       9.54458374
K        6.95548928       0.41133023       4.78760038
In       6.68628802       1.26509176       0.00010427
I        6.02435240       3.06654645       1.91546784
I       14.26653976       5.89478442       7.65977858
I        8.80353155       2.02379175       7.65983165
I       11.48735078       6.93719871       1.91552090
I        6.24770628       9.04382860       1.91547130
I       14.04324409      -0.08268916       7.65978205
Cs      12.48050321       2.26493551       9.60556264
Cs       8.88697403       3.28111939      19.11978038
K        7.49376814      -1.29620935      14.36279703
In       7.22456687      -0.44244781       9.57530092
I        6.56263126       1.35900687      11.49066448
I       14.80481862       4.18724484      17.23497523
I        9.34181041       0.31625218      17.23502830
I       12.02562964       5.22965914      11.49071755
I        6.78598514       7.33628902      11.49066795
I       14.58152295      -1.79022874      17.23497870
Cs       8.93967054      12.11102246       0.03036599
Cs       5.34614137      13.12720635       9.54458374
K        3.95293548       8.54987761       4.78760038
In       3.68373421       9.40363914       0.00010427
I        3.02179860      11.20509383       1.91546784
I       11.26398596      14.03333179       7.65977858
I        5.80097775      10.16233913       7.65983165
I        8.48479697      15.07574609       1.91552090
I        3.24515248      17.18237597       1.91547130
I       11.04069029       8.05585822       7.65978205
Cs       9.47794940      10.40348289       9.60556264
Cs       5.88442023      11.41966677      19.11978038
K        4.49121434       6.84233803      14.36279703
In       4.22201307       7.69609956       9.57530092
I        3.56007745       9.49755425      11.49066448
I       11.80226482      12.32579222      17.23497523
I        6.33925660       8.45479956      17.23502830
I        9.02307583      13.36820651      11.49071755
I        3.78343134      15.47483640      11.49066795
I       11.57896915       6.34831864      17.23497870
