80
Lattice="17.18522530656834 0.0 0.0 9.893178338246424 13.413322003225131 0.0 5.8944241228267105 6.1285340499444265 13.510862928795813" Properties=species:S:1:pos:R:3 pbc="T T T"
Cs       4.12146891       2.44269153       1.68888175
Cs      12.36494474       7.32823542       5.06654901
K        8.24320674       4.88546333       3.37771528
In       0.00000023       0.00000073       0.00000032
I        6.73968632       2.02849984       3.06364069
I        9.74672716       7.74242624       3.69178989
I       11.50901279       3.33868479       2.47549884
I        4.97739871       6.43224146       4.27993123
I        6.89687584       5.04635830       0.66421397
I        9.58953838       4.72457179       6.09121873
Cs       7.06868097       5.50695856       8.44431321
Cs      15.31215680      10.39250244      11.82198047
K       11.19041880       7.94973036      10.13314674
In       2.94721230       3.06426776       6.75543178
I        9.68689838       5.09276687       9.81907216
I       12.69393923      10.80669326      10.44722135
I       14.45622485       6.40295181       9.23093030
I        7.92461077       9.49650849      11.03536269
I        9.84408790       8.11062533       7.41964544
I       12.53675045       7.78883882      12.84665019
Cs       9.06805808       9.14935254       1.68888175
Cs      17.31153390      14.03489642       5.06654901
K       13.18979591      11.59212434       3.37771528
In       4.94658940       6.70666174       0.00000032
I       11.68627549       8.73516084       3.06364069
I       14.69331633      14.44908724       3.69178989
I       16.45560196      10.04534579       2.47549884
I        9.92398788      13.13890247       4.27993123
I       11.84346501      11.75301930       0.66421397
I       14.53612755      11.43123280       6.09121873
Cs      12.01527014      12.21361956       8.44431321
Cs      20.25874597      17.09916344      11.82198047
K       16.13700797      14.65639136      10.13314674
In       7.89380147       9.77092876       6.75543178
I       14.63348755      11.79942787       9.81907216
I       17.64052840      17.51335426      10.44722135
I       19.40281402      13.10961282       9.23093030
I       12.87119994      16.20316949      11.03536269
I       14.79067707      14.81728633       7.41964544
I       17.48333962      14.49549982      12.84665019
Cs      12.71408157       2.44269153       1.68888175
Cs      20.95755739       7.32823542       5.06654901
K       16.83581939       4.88546333       3.37771528
In       8.59261289       0.00000073       0.00000032
I       15.33229897       2.02849984       3.06364069
I       18.33933982       7.74242624       3.69178989
I       20.10162544       3.33868479       2.47549884
I       13.57001137       6.43224146       4.27993123
I       15.48948849       5.04635830       0.66421397
I       18.18215104       4.72457179       6.09121873
Cs      15.66129363       5.50695856       8.44431321
Cs      23.90476945      10.39250244      11.82198047
K       19.78303146       7.94973036      10.13314674
In      11.53982495       3.06426776       6.75543178
I       18.27951103       5.09276687       9.81907216
I       21.28655188      10.80669326      10.44722135
I       23.04883751       6.40295181       9.23093030
I       16.51722343       9.49650849      11.03536269
I       18.43670055       8.11062533       7.41964544
I       21.12936310       7.78883882      12.84665019
Cs      17.66067073       9.14935254       1.68888175
Cs      25.90414656      14.03489642       5.06654901
K       21.78240856      11.59212434       3.37771528
In      13.53920206       6.70666174       0.00000032
I       20.27888814       8.73516084       3.06364069
I       23.28592899      14.44908724       3.69178989
I       25.04821461      10.04534579       2.47549884
I       18.51660054      13.13890247       4.27993123
I       20.43607766      11.75301930       0.66421397
I       23.12874021      11.43123280       6.09121873
Cs      20.60788280      12.21361956       8.44431321
Cs      28.85135862      17.09916344      11.82198047
K       24.72962062      14.65639136      10.13314674
In      16.48641412       9.77092876       6.75543178
I       23.22610020      11.79942787       9.81907216
I       26.23314105      17.51335426      10.44722135
I       27.99542667      13.10961282       9.23093030
I       21.46381260      16.20316949      11.03536269
I       23.38328972      14.81728633       7.41964544
I       26.07595227      14.49549982      12.84665019
