5
Lattice="5.831382868022631 0.0 0.0 -1.0650865280052566 7.5553066215270945 0.0 -2.342205401015935 2.3359005560417017 4.403205487992434" Properties=species:S:1:pos:R:3:oxi_states:R:1 pbc="T T T"
Cs       1.21216213       4.94548693       2.20160274       1.00000000
Pb      -0.00000000      -0.00000000       0.00000000       2.00000000
I       -1.17110270       1.16795028       2.20160274      -1.00000000
I        2.91569143       0.00000000      -0.00000000      -1.00000000
I       -0.53254326       3.77765331       0.00000000      -1.00000000
