20
Lattice="18.593086978991558 -0.40519464041716374 0.003222325143618363 -4.473031217914864 8.152584822338476 -0.0012069022066095291 -0.0020402877887338022 0.0014057638368115174 8.828684013574222" Properties=species:S:1:pos:R:3:spacegroup_kinds:I:1:forces:R:3 spacegroup="P 1" unit_cell=conventional occupancy="_JSON {\"0\": {\"Cs\": 1.0}, \"1\": {\"Cs\": 1.0}, \"2\": {\"K\": 1.0}, \"3\": {\"In\": 1.0}, \"4\": {\"I\": 1.0}, \"5\": {\"I\": 1.0}, \"6\": {\"I\": 1.0}, \"7\": {\"I\": 1.0}, \"8\": {\"I\": 1.0}, \"9\": {\"I\": 1.0}, \"10\": {\"Cs\": 1.0}, \"11\": {\"Cs\": 1.0}, \"12\": {\"K\": 1.0}, \"13\": {\"In\": 1.0}, \"14\": {\"I\": 1.0}, \"15\": {\"I\": 1.0}, \"16\": {\"I\": 1.0}, \"17\": {\"I\": 1.0}, \"18\": {\"I\": 1.0}, \"19\": {\"I\": 1.0}}" energy=-51.58763216027513 free_energy=-51.58763216027513 stress="1.3676104373798004e-07 1.5358508883270357e-07 -3.84837185760474e-06 1.5358508883270357e-07 6.297711069363786e-07 -6.186597739280855e-07 -3.84837185760474e-06 -6.186597739280855e-07 1.231570182738041e-07" pbc="T T T"
Cs       2.67049938       4.01455343       0.01990397        0      -0.00019413      -0.00014220       0.00033552
Cs      -1.92152120       6.80054593       8.80795488        1       0.00019832       0.00025027       0.00007233
K       16.55631047       1.02764805       4.41728906        2      -0.00022298      -0.00012573      -0.00011100
In      16.55675519       1.02661635       0.00284336        3      -0.00003669       0.00017075       0.00010600
I       15.39441675       3.17031576       1.76867491        4       0.00040328       0.00046902       0.00010678
I        3.94758209       7.23943029       7.06296648        5      -0.00045125       0.00000373      -0.00036679
I       -0.76177127       3.51103175       7.06216030        6      -0.00050808      -0.00021617      -0.00005427
I        1.51067540       7.30441254       1.76633437        7       0.00051149      -0.00028675      -0.00009146
I        0.40056344       1.36590768       1.76657764        8       0.00027151       0.00024890      -0.00019734
I        4.82144545       1.29674740       7.06273711        9       0.00002854      -0.00037181       0.00020024
Cs      11.96704287       3.81195610       0.02151513       10      -0.00019413      -0.00014220       0.00033552
Cs       7.37502229       6.59794861       8.80956605       11       0.00019832       0.00025027       0.00007233
K        7.25976698       1.23024537       4.41567790       12      -0.00022298      -0.00012573      -0.00011100
In       7.26021170       1.22921367       0.00123220       13      -0.00003669       0.00017075       0.00010600
I        6.09787326       3.37291308       1.76706375       14       0.00040328       0.00046902       0.00010678
I       13.24412558       7.03683297       7.06457764       15      -0.00045125       0.00000373      -0.00036679
I        8.53477222       3.30843443       7.06377146       16      -0.00050808      -0.00021617      -0.00005427
I       10.80721889       7.10181522       1.76794553       17       0.00051149      -0.00028675      -0.00009146
I        9.69710693       1.16331036       1.76818880       18       0.00027151       0.00024890      -0.00019734
I       14.11798894       1.09415008       7.06434827       19       0.00002854      -0.00037181       0.00020024
