10
Lattice="12.472076195416202 2.5866759046506527 0.9685394697962935 -1.3085549781827557 6.249599228910991 0.15820477137248048 -0.44115366614825524 -0.253861429414849 6.366701172432312" Properties=species:S:1:pos:R:3:spacegroup_kinds:I:1:forces:R:3 spacegroup="P 1" unit_cell=conventional occupancy="_JSON {\"0\": {\"Cs\": 1.0}, \"1\": {\"Pb\": 1.0}, \"2\": {\"I\": 1.0}, \"3\": {\"I\": 1.0}, \"4\": {\"I\": 1.0}, \"5\": {\"Cs\": 1.0}, \"6\": {\"Pb\": 1.0}, \"7\": {\"I\": 1.0}, \"8\": {\"I\": 1.0}, \"9\": {\"I\": 1.0}}" energy=-27.961485507698182 free_energy=-27.961485507698182 stress="1.6951132521258338e-06 -1.8032017873095177e-07 2.3825218365840073e-06 -1.8032017873095177e-07 6.556356125343207e-07 -5.836696832488652e-07 2.3825218365840073e-06 -5.836696832488652e-07 -8.328474955201051e-07" pbc="T T T"
Cs       2.24192047       3.64225294       3.50414507        0      -0.00010876      -0.00019245      -0.00005776
Pb       0.00002713      -0.00000046      -0.00022495        1       0.00012354       0.00001876       0.00021517
I       -0.21997492      -0.12584865       3.18351306        2       0.00008850       0.00007663      -0.00019353
I        3.11823696       0.64730267       0.24243236        3      -0.00018326       0.00003815       0.00000515
I       11.81847211       5.71180181       1.04785907        4       0.00007998       0.00005891       0.00003096
Cs       8.47795857       4.93559089       3.98841481        5      -0.00010876      -0.00019245      -0.00005776
Pb       6.23606523       1.29333750       0.48404478        6       0.00012354       0.00001876       0.00021517
I        6.01606317       1.16748930       3.66778280        7       0.00008850       0.00007663      -0.00019353
I        9.35427505       1.94064063       0.72670209        8      -0.00018326       0.00003815       0.00000515
I        5.58243401       4.41846385       0.56358934        9       0.00007998       0.00005891       0.00003096
