10
Lattice="9.868948713057527 0.0 0.0 4.934474356570317 8.546760294129687 0.0 4.934474356650076 2.848920098105232 8.057963102743097" Properties=species:S:1:pos:R:3 pbc="T T T"
Cs       4.93437176       2.84888934       2.01449573
Cs      14.80352542       8.54679027       6.04346686
K        9.86894857       5.69783978       4.02898128
In       0.00000018       0.00000066       0.00000027
I        8.24714599       2.73177620       4.42074159
I       11.49075123       8.66390281       3.63722094
I       11.90681532       4.08945865       1.87258455
I        7.83108074       7.30622027       6.18537786
I        7.22841200       7.22274695       1.87260603
I       12.50948601       4.17293457       6.18535760
