10
Lattice="9.156783954045906 0.5233611317566651 -0.3751804888656205 4.083907714230749 8.235471443456769 -0.7488241094368554 4.661632123180592 3.365212025887408 6.546890966308755" Properties=species:S:1:pos:R:3:spacegroup_kinds:I:1:forces:R:3 spacegroup="P 1" unit_cell=conventional occupancy="_JSON {\"0\": {\"Cs\": 1.0}, \"1\": {\"Cs\": 1.0}, \"2\": {\"K\": 1.0}, \"3\": {\"In\": 1.0}, \"4\": {\"I\": 1.0}, \"5\": {\"I\": 1.0}, \"6\": {\"I\": 1.0}, \"7\": {\"I\": 1.0}, \"8\": {\"I\": 1.0}, \"9\": {\"I\": 1.0}}" energy=-25.648944261495352 free_energy=-25.648944261495352 stress="1.6767163940047756e-07 1.516741975884444e-06 1.1545213370690888e-06 1.516741975884444e-06 -1.982190242029926e-06 -1.4196202750043862e-06 1.1545213370690888e-06 -1.4196202750043862e-06 8.474255899287048e-07" pbc="T T T"
Cs       4.49697318       3.03324407       1.54481810        0       0.00030256      -0.00034884       0.00011989
Cs      13.40403884       9.09184083       3.87756514        1       0.00039850      -0.00045630       0.00017199
K        8.95151076       6.06125606       2.71252368        2      -0.00025787       0.00068145      -0.00056550
In       9.15670637       0.52290208      -0.37499939        3       0.00011346       0.00039914      -0.00012520
I        6.94050708       3.96656828       4.72932537        4      -0.00030401      -0.00008413      -0.00053623
I       10.96262199       8.15772672       0.69513509        5      -0.00015601      -0.00000020      -0.00068732
I        9.77113417       2.98306621       1.17629632        6       0.00042629      -0.00013225       0.00045199
I        8.12996734       9.14141152       4.24547785        7       0.00030847      -0.00012570       0.00049677
I        5.91310038       6.65472865       0.99459154        8      -0.00032555       0.00010175       0.00025790
I       11.99067990       5.46881517       4.42707358        9      -0.00050583      -0.00003491       0.00041571
