40
Lattice="12.651577846322878 0.0 0.0 2.2312572382598246 13.096259609200281 0.0 6.549628449762451 -2.1244007937839986 12.326165516200096" Properties=species:S:1:pos:R:3:oxi_states:R:1 pbc="T T T"
Cs       5.35814897       2.74293162       3.08154138       1.00000000
Pb      -0.00000000      -0.00000000       0.00000000       2.00000000
I        1.63740711      -0.53110020       3.08154138      -1.00000000
I        3.16289446       0.00000000      -0.00000000      -1.00000000
I        0.55781431       3.27406490       0.00000000      -1.00000000
Cs       8.63296319       1.68073122       9.24462414       1.00000000
Pb       3.27481422      -1.06220040       6.16308276       2.00000000
I        4.91222134      -1.59330060       9.24462414      -1.00000000
I        6.43770869      -1.06220040       6.16308276      -1.00000000
I        3.83262853       2.21186451       6.16308276      -1.00000000
Cs       6.47377759       9.29106143       3.08154138       1.00000000
Pb       1.11562862       6.54812980       0.00000000       2.00000000
I        2.75303573       6.01702961       3.08154138      -1.00000000
I        4.27852308       6.54812980      -0.00000000      -1.00000000
I        1.67344293       9.82219471       0.00000000      -1.00000000
Cs       9.74859181       8.22886103       9.24462414       1.00000000
Pb       4.39044284       5.48592941       6.16308276       2.00000000
I        6.02784996       4.95482921       9.24462414      -1.00000000
I        7.55333731       5.48592941       6.16308276      -1.00000000
I        4.94825715       8.75999431       6.16308276      -1.00000000
Cs      11.68393789       2.74293162       3.08154138       1.00000000
Pb       6.32578892      -0.00000000       0.00000000       2.00000000
I        7.96319604      -0.53110020       3.08154138      -1.00000000
I        9.48868338       0.00000000      -0.00000000      -1.00000000
I        6.88360323       3.27406490       0.00000000      -1.00000000
Cs      14.95875211       1.68073122       9.24462414       1.00000000
Pb       9.60060315      -1.06220040       6.16308276       2.00000000
I       11.23801026      -1.59330060       9.24462414      -1.00000000
I       12.76349761      -1.06220040       6.16308276      -1.00000000
I       10.15841746       2.21186451       6.16308276      -1.00000000
Cs      12.79956651       9.29106143       3.08154138       1.00000000
Pb       7.44141754       6.54812980       0.00000000       2.00000000
I        9.07882465       6.01702961       3.08154138      -1.00000000
I       10.60431200       6.54812980      -0.00000000      -1.00000000
I        7.99923185       9.82219471       0.00000000      -1.00000000
Cs      16.07438073       8.22886103       9.24462414       1.00000000
Pb      10.71623177       5.48592941       6.16308276       2.00000000
I       12.35363888       4.95482921       9.24462414      -1.00000000
I       13.87912623       5.48592941       6.16308276      -1.00000000
I       11.27404608       8.75999431       6.16308276      -1.00000000
