160
Lattice="16.087446369485033 0.0 0.0 6.53995590733371 17.6524555751781 0.0 -9.060725503710303 13.739190386411755 13.529013610784954" Properties=species:S:1:pos:R:3 pbc="T T T"
Cs       6.61429314      10.71308088       1.69112662
Cs       1.39719632       6.30026669       1.69112662
Cs       2.02783330       6.69555559       5.07338002
Cs       7.24505874      11.10896918       5.07338002
Pb       0.92938056       0.85661743      -0.00000604
Pb       5.65685057       4.41311389       0.00000000
Pb      -2.26518138       3.43479760       3.38225340
Pb       4.32108841       8.70437461       3.38226767
I        4.58295146       7.31039376       0.28094955
I        3.85668855       2.89725581       0.28123258
I        7.19004127       2.65734316       1.69112662
I        4.05921235      10.09853713       6.48314860
I        4.78548523      14.51162697       6.48343163
I        6.16578516       7.07015020       1.69112662
I        2.69436193      10.17414800       3.10130368
I        1.96809902       5.76101006       3.10102065
I        1.45204095      14.75190105       5.07338002
I        5.94780188       7.23478289       3.66361144
I        6.67407476      11.64787273       3.66332841
I        2.47633034      10.33848031       5.07338002
Cs       2.08393038      17.58267608       8.45563342
Cs      -3.13316644      13.16986188       8.45563342
Cs      -2.50252945      13.56515078      11.83788682
Cs       2.71469599      17.97856437      11.83788682
Pb      -3.60098219       7.72621263       6.76450077
Pb       1.12648782      11.28270909       6.76450681
Pb      -6.79554413      10.30439279      10.14676021
Pb      -0.20927434      15.57396981      10.14677447
I        0.05258870      14.17998896       7.04545636
I       -0.67367421       9.76685101       7.04573939
I        2.65967852       9.52693835       8.45563342
I       -0.47115040      16.96813233      13.24765541
I        0.25512248      21.38122217      13.24793844
I        1.63542241      13.93974540       8.45563342
I       -1.83600082      17.04374320       9.86581049
I       -2.56226373      12.63060525       9.86552745
I       -3.07832180      21.62149624      11.83788682
I        1.41743912      14.10437809      10.42811824
I        2.14371201      18.51746792      10.42783521
I       -2.05403241      17.20807550      11.83788682
Cs       9.88427109      19.53930867       1.69112662
Cs       4.66717427      15.12649448       1.69112662
Cs       5.29781126      15.52178337       5.07338002
Cs      10.51503670      19.93519697       5.07338002
Pb       4.19935852       9.68284522      -0.00000604
Pb       8.92682852      13.23934168       0.00000000
Pb       1.00479658      12.26102538       3.38225340
Pb       7.59106637      17.53060240       3.38226767
I        7.85292941      16.13662155       0.28094955
I        7.12666650      11.72348360       0.28123258
I       10.46001922      11.48357094       1.69112662
I        7.32919030      18.92476492       6.48314860
I        8.05546318      23.33785476       6.48343163
I        9.43576311      15.89637799       1.69112662
I        5.96433988      19.00037579       3.10130368
I        5.23807697      14.58723784       3.10102065
I        4.72201890      23.57812884       5.07338002
I        9.21777983      16.06101068       3.66361144
I        9.94405271      20.47410052       3.66332841
I        5.74630830      19.16470810       5.07338002
Cs       5.35390834      26.40890387       8.45563342
Cs       0.13681152      21.99608967       8.45563342
Cs       0.76744851      22.39137857      11.83788682
Cs       5.98467394      26.80479216      11.83788682
Pb      -0.33100424      16.55244041       6.76450077
Pb       4.39646577      20.10893687       6.76450681
Pb      -3.52556617      19.13062058      10.14676021
Pb       3.06070362      24.40019759      10.14677447
I        3.32256666      23.00621674       7.04545636
I        2.59630375      18.59307879       7.04573939
I        5.92965647      18.35316614       8.45563342
I        2.79882755      25.79436011      13.24765541
I        3.52510043      30.20744995      13.24793844
I        4.90540036      22.76597319       8.45563342
I        1.43397713      25.86997098       9.86581049
I        0.70771422      21.45683304       9.86552745
I        0.19165615      30.44772403      11.83788682
I        4.68741708      22.93060587      10.42811824
I        5.41368996      27.34369571      10.42783521
I        1.21594555      26.03430329      11.83788682
Cs      14.65801632      10.71308088       1.69112662
Cs       9.44091950       6.30026669       1.69112662
Cs      10.07155649       6.69555559       5.07338002
Cs      15.28878193      11.10896918       5.07338002
Pb       8.97310375       0.85661743      -0.00000604
Pb      13.70057375       4.41311389       0.00000000
Pb       5.77854181       3.43479760       3.38225340
Pb      12.36481160       8.70437461       3.38226767
I       12.62667464       7.31039376       0.28094955
I       11.90041173       2.89725581       0.28123258
I       15.23376446       2.65734316       1.69112662
I       12.10293553      10.09853713       6.48314860
I       12.82920841      14.51162697       6.48343163
I       14.20950834       7.07015020       1.69112662
I       10.73808511      10.17414800       3.10130368
I       10.01182220       5.76101006       3.10102065
I        9.49576414      14.75190105       5.07338002
I       13.99152506       7.23478289       3.66361144
I       14.71779794      11.64787273       3.66332841
I       10.52005353      10.33848031       5.07338002
Cs      10.12765357      17.58267608       8.45563342
Cs       4.91055675      13.16986188       8.45563342
Cs       5.54119374      13.56515078      11.83788682
Cs      10.75841917      17.97856437      11.83788682
Pb       4.44274100       7.72621263       6.76450077
Pb       9.17021100      11.28270909       6.76450681
Pb       1.24817906      10.30439279      10.14676021
Pb       7.83444885      15.57396981      10.14677447
I        8.09631189      14.17998896       7.04545636
I        7.37004898       9.76685101       7.04573939
I       10.70340170       9.52693835       8.45563342
I        7.57257278      16.96813233      13.24765541
I        8.29884566      21.38122217      13.24793844
I        9.67914559      13.93974540       8.45563342
I        6.20772236      17.04374320       9.86581049
I        5.48145945      12.63060525       9.86552745
I        4.96540138      21.62149624      11.83788682
I        9.46116231      14.10437809      10.42811824
I       10.18743519      18.51746792      10.42783521
I        5.98969078      17.20807550      11.83788682
Cs      17.92799427      19.53930867       1.69112662
Cs      12.71089745      15.12649448       1.69112662
Cs      13.34153444      15.52178337       5.07338002
Cs      18.55875988      19.93519697       5.07338002
Pb      12.24308170       9.68284522      -0.00000604
Pb      16.97055171      13.23934168       0.00000000
Pb       9.04851976      12.26102538       3.38225340
Pb      15.63478955      17.53060240       3.38226767
I       15.89665259      16.13662155       0.28094955
I       15.17038968      11.72348360       0.28123258
I       18.50374241      11.48357094       1.69112662
I       15.37291349      18.92476492       6.48314860
I       16.09918637      23.33785476       6.48343163
I       17.47948630      15.89637799       1.69112662
I       14.00806307      19.00037579       3.10130368
I       13.28180016      14.58723784       3.10102065
I       12.76574209      23.57812884       5.07338002
I       17.26150301      16.06101068       3.66361144
I       17.98777590      20.47410052       3.66332841
I       13.79003148      19.16470810       5.07338002
Cs      13.39763152      26.40890387       8.45563342
Cs       8.18053470      21.99608967       8.45563342
Cs       8.81117169      22.39137857      11.83788682
Cs      14.02839713      26.80479216      11.83788682
Pb       7.71271895      16.55244041       6.76450077
Pb      12.44018896      20.10893687       6.76450681
Pb       4.51815701      19.13062058      10.14676021
Pb      11.10442680      24.40019759      10.14677447
I       11.36628984      23.00621674       7.04545636
I       10.64002693      18.59307879       7.04573939
I       13.97337966      18.35316614       8.45563342
I       10.84255073      25.79436011      13.24765541
I       11.56882362      30.20744995      13.24793844
I       12.94912355      22.76597319       8.45563342
I        9.47770031      25.86997098       9.86581049
I        8.75143740      21.45683304       9.86552745
I        8.23537934      30.44772403      11.83788682
I       12.73114026      22.93060587      10.42811824
I       13.45741314      27.34369571      10.42783521
I        9.25966873      26.03430329      11.83788682
