80
Lattice="16.570503450753122 -8.436417184327746 -0.341846858225582 -1.0916745590122379 18.442143040981303 -2.1403494280337885 1.4362663836778093 2.1138178273759225 17.47170517565471" Properties=species:S:1:pos:R:3:spacegroup_kinds:I:1:forces:R:3 spacegroup="P 1" unit_cell=conventional occupancy="_JSON {\"0\": {\"Cs\": 1.0}, \"1\": {\"Cs\": 1.0}, \"2\": {\"K\": 1.0}, \"3\": {\"In\": 1.0}, \"4\": {\"I\": 1.0}, \"5\": {\"I\": 1.0}, \"6\": {\"I\": 1.0}, \"7\": {\"I\": 1.0}, \"8\": {\"I\": 1.0}, \"9\": {\"I\": 1.0}, \"10\": {\"Cs\": 1.0}, \"11\": {\"Cs\": 1.0}, \"12\": {\"K\": 1.0}, \"13\": {\"In\": 1.0}, \"14\": {\"I\": 1.0}, \"15\": {\"I\": 1.0}, \"16\": {\"I\": 1.0}, \"17\": {\"I\": 1.0}, \"18\": {\"I\": 1.0}, \"19\": {\"I\": 1.0}, \"20\": {\"Cs\": 1.0}, \"21\": {\"Cs\": 1.0}, \"22\": {\"K\": 1.0}, \"23\": {\"In\": 1.0}, \"24\": {\"I\": 1.0}, \"25\": {\"I\": 1.0}, \"26\": {\"I\": 1.0}, \"27\": {\"I\": 1.0}, \"28\": {\"I\": 1.0}, \"29\": {\"I\": 1.0}, \"30\": {\"Cs\": 1.0}, \"31\": {\"Cs\": 1.0}, \"32\": {\"K\": 1.0}, \"33\": {\"In\": 1.0}, \"34\": {\"I\": 1.0}, \"35\": {\"I\": 1.0}, \"36\": {\"I\": 1.0}, \"37\": {\"I\": 1.0}, \"38\": {\"I\": 1.0}, \"39\": {\"I\": 1.0}, \"40\": {\"Cs\": 1.0}, \"41\": {\"Cs\": 1.0}, \"42\": {\"K\": 1.0}, \"43\": {\"In\": 1.0}, \"44\": {\"I\": 1.0}, \"45\": {\"I\": 1.0}, \"46\": {\"I\": 1.0}, \"47\": {\"I\": 1.0}, \"48\": {\"I\": 1.0}, \"49\": {\"I\": 1.0}, \"50\": {\"Cs\": 1.0}, \"51\": {\"Cs\": 1.0}, \"52\": {\"K\": 1.0}, \"53\": {\"In\": 1.0}, \"54\": {\"I\": 1.0}, \"55\": {\"I\": 1.0}, \"56\": {\"I\": 1.0}, \"57\": {\"I\": 1.0}, \"58\": {\"I\": 1.0}, \"59\": {\"I\": 1.0}, \"60\": {\"Cs\": 1.0}, \"61\": {\"Cs\": 1.0}, \"62\": {\"K\": 1.0}, \"63\": {\"In\": 1.0}, \"64\": {\"I\": 1.0}, \"65\": {\"I\": 1.0}, \"66\": {\"I\": 1.0}, \"67\": {\"I\": 1.0}, \"68\": {\"I\": 1.0}, \"69\": {\"I\": 1.0}, \"70\": {\"Cs\": 1.0}, \"71\": {\"Cs\": 1.0}, \"72\": {\"K\": 1.0}, \"73\": {\"In\": 1.0}, \"74\": {\"I\": 1.0}, \"75\": {\"I\": 1.0}, \"76\": {\"I\": 1.0}, \"77\": {\"I\": 1.0}, \"78\": {\"I\": 1.0}, \"79\": {\"I\": 1.0}}" energy=-206.35051570833113 free_energy=-206.35051570833113 stress="-1.7464323616828232e-06 3.520733793276825e-07 7.204190042011063e-07 3.520733793276825e-07 -1.980261799389682e-06 8.552107844265307e-07 7.204190042011063e-07 8.552107844265307e-07 -1.5299235409796707e-07" pbc="T T T"
Cs       7.26293308       0.71454935       8.24008717        0      -0.00007859      -0.00035987       0.00011138
Cs       3.60417610       4.13456192      -0.79859125        1      -0.00035702       0.00010855       0.00020327
K        1.56611065      -0.07641899       4.34313669        2      -0.00015232      -0.00010501       0.00036822
In       1.20613938      -0.60549028      -0.02456424        3      -0.00027848       0.00026974      -0.00023191
I        7.45905248      -3.50721815       1.59411556        4      -0.00002503       0.00010846      -0.00001808
I        3.40368057       8.35164835       5.84845560        5       0.00045266      -0.00014109       0.00002869
I        3.37970871       0.91798215       1.39681561        6      -0.00007006       0.00010296      -0.00005316
I        7.48656138       3.93380091       6.04869057        7      -0.00005887      -0.00043080      -0.00034303
I        9.23104954       2.19159785       0.76270187        8      -0.00002918      -0.00056400       0.00007088
I        1.63784990       2.65813886       6.68296617        9       0.00028121       0.00015142      -0.00025055
Cs       7.98371205       1.76986859      16.97424664       10      -0.00011191      -0.00023299      -0.00008775
Cs       4.31997005       5.19368628       7.94772084       11      -0.00000221      -0.00018274      -0.00062372
K        2.27824879       0.98023681      13.07954631       12       0.00045976      -0.00022451       0.00008880
In       1.92080690       0.45165468       8.71164723       13      -0.00021869      -0.00002485      -0.00008388
I        8.17821702      -2.44788088      10.33276435       14      -0.00021403       0.00001740      -0.00008850
I        4.12248185       9.40961444      14.58039656       15      -0.00022742       0.00019479      -0.00007269
I        4.09436738       1.97278073      10.13540034       16       0.00014761       0.00013426      -0.00027263
I        8.21039667       4.98803478      14.78203317       17      -0.00011248      -0.00003407      -0.00025767
I        9.94943284       3.24857894       9.49762030       18      -0.00044396      -0.00006988      -0.00014543
I        2.35343041       3.71457578      15.41879067       19       0.00019360      -0.00004906      -0.00014353
Cs       6.71590669       9.93400906       7.16884603       20      -0.00000153       0.00000035       0.00004356
Cs       3.05579429      13.35519576      -1.86973251       21       0.00004206      -0.00001243       0.00032176
K        1.02025465       9.14201771       3.27017441       22      -0.00020230       0.00023857       0.00051929
In       0.65904846       8.61342171      -1.09741540       23       0.00008808      -0.00017436       0.00030874
I        6.91578694       5.71558986       0.52397531       24       0.00025639      -0.00011754       0.00023787
I        3.95001372      -0.86725987       6.92068292       25       0.00055583      -0.00022614      -0.00025076
I        2.83319161      10.13650179       0.32356939       26      -0.00029074       0.00011242       0.00043021
I        6.93829198      13.15326331       4.97749823       27       0.00015887      -0.00005822      -0.00006130
I        8.68148464      11.41083922      -0.30876764       28       0.00035552       0.00027889      -0.00012179
I        1.09120516      11.87743939       5.61022467       29      -0.00009356       0.00019340      -0.00005545
Cs       7.43648939      10.98891856      15.89994467       30       0.00003694      -0.00000383      -0.00024308
Cs       3.77201814      14.41420919       6.87565156       31       0.00026909      -0.00020644      -0.00029970
K        1.73131099      10.19871757      12.00675225       32       0.00024795       0.00025399       0.00049115
In       1.37388093       9.67083544       7.63867470       33       0.00017731      -0.00006210       0.00029868
I        7.63469136       6.77404554       9.26362067       34       0.00012443      -0.00033568       0.00021254
I        4.66984390       0.19144957      15.65323958       35      -0.00015085       0.00002496      -0.00043333
I        3.54679318      11.19247565       9.06289108       36       0.00027859       0.00000776      -0.00024047
I        7.66114229      14.20878562      13.71004360       37       0.00027301       0.00007220       0.00037932
I        9.40039602      12.46930621       8.42707095       38       0.00000293      -0.00014424      -0.00007637
I        1.80653731      12.93376735      14.34663586       39      -0.00014169       0.00015726      -0.00044629
Cs      15.54596968      -3.50690782       8.06292023       40       0.00006096       0.00007172       0.00012458
Cs      11.88812114      -0.08304401      -0.96499570       41      -0.00014843      -0.00005963      -0.00007796
K        9.84405906      -4.29604607       4.17071578       42       0.00016775      -0.00002217       0.00039529
In       9.48907286      -4.82488346      -0.19719894       43      -0.00010492       0.00003727      -0.00034865
I       15.74881468      -7.72418089       1.42713541       44      -0.00043590       0.00000243      -0.00042681
I       11.68855603       4.13750877       5.67582604       45      -0.00018043      -0.00034337      -0.00016290
I       11.66126151      -3.30199160       1.22631937       46      -0.00003268      -0.00026732       0.00034827
I       15.77211725      -0.28740942       5.87250944       47      -0.00002659       0.00010875      -0.00007778
I        0.94733507       6.40718877       0.93105738       48       0.00002769       0.00015908       0.00013556
I        9.91683870      -1.56084039       6.50983170       49       0.00030439       0.00004513       0.00025943
Cs      16.26737753      -2.44895428      16.80614871       50      -0.00009392      -0.00018273       0.00000083
Cs      12.60297935       0.97335276       7.76520636       51       0.00006775       0.00019698       0.00018111
K       10.56847817      -3.23792090      12.90637256       52      -0.00025673      -0.00022845      -0.00018243
In      10.20454852      -3.76675223       8.53897568       53       0.00013086       0.00034964      -0.00051545
I       16.46246371      -6.66538181      10.16097018       54       0.00014859      -0.00015833       0.00014667
I       12.41255801       5.19348396      14.41403686       55      -0.00056139       0.00000915      -0.00048652
I       12.37959776      -2.24405627       9.95915733       56      -0.00008562      -0.00012959       0.00008737
I       16.49132191       0.76769494      14.61176719       57       0.00003014       0.00024295       0.00018224
I        1.65664009       7.46427024       9.66791728       58       0.00054545       0.00041823       0.00003025
I       10.64074743      -0.50434238      15.24596995       59      -0.00028085       0.00060550       0.00048544
Cs      15.00241107       5.71461558       6.99425361       60       0.00012436       0.00027130      -0.00004458
Cs      11.34348653       9.13979073      -2.03302178       61      -0.00024252      -0.00018784      -0.00012957
K        9.30045032       4.92719401       3.10161721       62       0.00008130      -0.00008359       0.00021962
In       8.94645187       4.39726710      -1.26638549       63       0.00005637       0.00078785      -0.00005950
I       15.20204394       1.49424822       0.35481009       64      -0.00024839       0.00035249      -0.00008815
I       12.23172253      -5.08524893       6.74538239       65       0.00020188      -0.00038967       0.00020661
I       11.11821087       5.92057190       0.15770287       66      -0.00015525      -0.00018755      -0.00018462
I       15.22673593       8.93584734       4.80546333       67       0.00031366       0.00002243      -0.00019660
I        0.40304352      15.63062212      -0.13659546       68      -0.00023200      -0.00037200       0.00012189
I        9.37375627       7.66171052       5.44132509       69       0.00040722       0.00007338      -0.00027502
Cs      15.72422382       6.77316176      15.73793391       70      -0.00029086      -0.00034780      -0.00009477
Cs      12.05835480      10.19639024       6.69911429       71      -0.00012047       0.00002151       0.00008954
K       10.02488639       5.98311676      11.83735983       72      -0.00009237      -0.00021743      -0.00015737
In       9.66135677       5.45534281       7.46979765       73      -0.00000244       0.00027369       0.00011682
I       15.91513953       2.55277111       9.08818396       74       0.00013437       0.00020392       0.00040318
I       12.95494179      -4.02876379      15.48300927       75       0.00000105      -0.00009793       0.00000400
I       11.83625725       6.97741804       8.89069962       76      -0.00000873       0.00002975      -0.00010409
I       15.94704908       9.99061229      13.54401013       77      -0.00003266       0.00016079       0.00045390
I        1.11234933      16.68721036       8.60007396       78       0.00024720       0.00003962       0.00002012
I       10.09857330       8.71737615      14.17625453       79      -0.00055873       0.00012433       0.00038678
