40
Lattice="10.339376706433207 0.0 0.0 -1.052075951334707 11.699990490462547 0.0 -3.7455712506210546 5.6491162201697085 12.074357115090562" Properties=species:S:1:pos:R:3:oxi_states:R:1 pbc="T T T"
Cs       1.38543594       4.33727312       3.01858928       1.00000000
Pb      -0.00000000      -0.00000000       0.00000000       2.00000000
I       -0.93639281       1.41227906       3.01858928      -1.00000000
I        2.58484418       0.00000000      -0.00000000      -1.00000000
I       -0.26301899       2.92499762       0.00000000      -1.00000000
Cs      -0.48734969       7.16183123       9.05576784       1.00000000
Pb      -1.87278563       2.82455811       6.03717856       2.00000000
I       -2.80917844       4.23683717       9.05576784      -1.00000000
I        0.71205855       2.82455811       6.03717856      -1.00000000
I       -2.13580461       5.74955573       6.03717856      -1.00000000
Cs       0.85939796      10.18726836       3.01858928       1.00000000
Pb      -0.52603798       5.84999525       0.00000000       2.00000000
I       -1.46243079       7.26227430       3.01858928      -1.00000000
I        2.05880620       5.84999525      -0.00000000      -1.00000000
I       -0.78905696       8.77499287       0.00000000      -1.00000000
Cs      -1.01338766      13.01182647       9.05576784       1.00000000
Pb      -2.39882360       8.67455336       6.03717856       2.00000000
I       -3.33521641      10.08683241       9.05576784      -1.00000000
I        0.18602058       8.67455336       6.03717856      -1.00000000
I       -2.66184259      11.59955098       6.03717856      -1.00000000
Cs       6.55512429       4.33727312       3.01858928       1.00000000
Pb       5.16968835      -0.00000000       0.00000000       2.00000000
I        4.23329554       1.41227906       3.01858928      -1.00000000
I        7.75453253       0.00000000      -0.00000000      -1.00000000
I        4.90666937       2.92499762       0.00000000      -1.00000000
Cs       4.68233866       7.16183123       9.05576784       1.00000000
Pb       3.29690273       2.82455811       6.03717856       2.00000000
I        2.36050992       4.23683717       9.05576784      -1.00000000
I        5.88174690       2.82455811       6.03717856      -1.00000000
I        3.03388374       5.74955573       6.03717856      -1.00000000
Cs       6.02908631      10.18726836       3.01858928       1.00000000
Pb       4.64365038       5.84999525       0.00000000       2.00000000
I        3.70725756       7.26227430       3.01858928      -1.00000000
I        7.22849455       5.84999525      -0.00000000      -1.00000000
I        4.38063139       8.77499287       0.00000000      -1.00000000
Cs       4.15630069      13.01182647       9.05576784       1.00000000
Pb       2.77086475       8.67455336       6.03717856       2.00000000
I        1.83447194      10.08683241       9.05576784      -1.00000000
I        5.35570893       8.67455336       6.03717856      -1.00000000
I        2.50784576      11.59955098       6.03717856      -1.00000000
