40
Lattice="12.460203970355064 0.3871304140666988 1.8540567923557945 -0.6310423213650325 12.214555339913984 -3.041442689480001 -1.8981893203805251 2.926983961042822 12.14791160116834" Properties=species:S:1:pos:R:3:spacegroup_kinds:I:1:forces:R:3 spacegroup="P 1" unit_cell=conventional occupancy="_JSON {\"0\": {\"Cs\": 1.0}, \"1\": {\"Pb\": 1.0}, \"2\": {\"I\": 1.0}, \"3\": {\"I\": 1.0}, \"4\": {\"I\": 1.0}, \"5\": {\"Cs\": 1.0}, \"6\": {\"Pb\": 1.0}, \"7\": {\"I\": 1.0}, \"8\": {\"I\": 1.0}, \"9\": {\"I\": 1.0}, \"10\": {\"Cs\": 1.0}, \"11\": {\"Pb\": 1.0}, \"12\": {\"I\": 1.0}, \"13\": {\"I\": 1.0}, \"14\": {\"I\": 1.0}, \"15\": {\"Cs\": 1.0}, \"16\": {\"Pb\": 1.0}, \"17\": {\"I\": 1.0}, \"18\": {\"I\": 1.0}, \"19\": {\"I\": 1.0}, \"20\": {\"Cs\": 1.0}, \"21\": {\"Pb\": 1.0}, \"22\": {\"I\": 1.0}, \"23\": {\"I\": 1.0}, \"24\": {\"I\": 1.0}, \"25\": {\"Cs\": 1.0}, \"26\": {\"Pb\": 1.0}, \"27\": {\"I\": 1.0}, \"28\": {\"I\": 1.0}, \"29\": {\"I\": 1.0}, \"30\": {\"Cs\": 1.0}, \"31\": {\"Pb\": 1.0}, \"32\": {\"I\": 1.0}, \"33\": {\"I\": 1.0}, \"34\": {\"I\": 1.0}, \"35\": {\"Cs\": 1.0}, \"36\": {\"Pb\": 1.0}, \"37\": {\"I\": 1.0}, \"38\": {\"I\": 1.0}, \"39\": {\"I\": 1.0}}" energy=-113.01605403320292 free_energy=-113.01605403320292 stress="-3.146014878926607e-08 1.6466914293582833e-07 -5.1679204252365103e-08 1.6466914293582833e-07 9.030367368041374e-08 -2.9250159805724743e-08 -5.1679204252365103e-08 -2.9250159805724743e-08 -1.4764359449429466e-07" pbc="T T T"
Cs       1.81221048       4.16927541       2.56518631        0      -0.00017641       0.00006311       0.00016112
Pb      -0.00001783      -0.00076894      -0.00026878        1       0.00004621       0.00004502      -0.00013572
I       -0.91339877       0.13969958       3.10990724        2       0.00005270       0.00058270       0.00035473
I        3.03626421       0.87676372       0.81034678        3      -0.00011641       0.00011989       0.00003134
I       -0.90723134       3.12057409      -0.34610069        4       0.00012557       0.00020011       0.00018381
Cs       2.20480123       5.05845722       8.98850746        5      -0.00007678       0.00002455      -0.00005072
Pb      -0.94813902       1.46224715       6.07359191        6      -0.00015064       0.00018550      -0.00011977
I       -0.98292353       2.78418930       9.03676875        7      -0.00068892      -0.00028437       0.00035118
I        2.24595683       2.09579644       5.87117415        8      -0.00011682       0.00049920       0.00023947
I       -1.69666304       4.34003679       4.71578713        9       0.00007286       0.00034588       0.00015856
Cs       1.81992313      10.61975273       1.01296022       10      -0.00042736      -0.00012233       0.00007861
Pb      -0.31646092       6.10620297      -1.52029206       11       0.00017906       0.00000119      -0.00022671
I       -0.22842173       7.31533509       1.48961867       12      -0.00020681       0.00040201       0.00012487
I        2.87787727       5.42384124      -1.40406236       13       0.00024019      -0.00026588      -0.00015875
I        0.27435268       9.09234073      -2.69465193       14       0.00010938      -0.00004848      -0.00018929
Cs       1.56538042      10.82334116       7.50070871       15       0.00033366      -0.00021792      -0.00003344
Pb      -1.26485587       7.56993662       4.55447426       16       0.00014841       0.00020864      -0.00019097
I       10.15591765       8.21062576       9.47181607       17       0.00020556      -0.00022918      -0.00007270
I        1.77103533       7.13183953       5.68298982       18       0.00001717      -0.00010522      -0.00031751
I       11.62938560      11.18652493       6.24496239       19      -0.00045839      -0.00000040      -0.00027786
Cs       8.36526104       4.70995373       3.46104287       20      -0.00016837       0.00015713      -0.00019246
Pb       6.23043850       0.19456416       0.92657598       21      -0.00000943      -0.00027254       0.00003163
I        6.32028972       1.40386247       3.93636444       22       0.00002160       0.00027907       0.00010611
I        9.42489781      -0.49083972       1.04262020       23      -0.00013299       0.00000686       0.00018781
I        6.82058519       3.17995073      -0.24797156       24       0.00020941       0.00009146      -0.00001538
Cs       8.11057052       4.90454774       9.94724260       25       0.00042647       0.00004182       0.00018792
Pb       5.28184902       1.65754380       6.99979053       26      -0.00027603       0.00012131       0.00039282
I        4.24505304       1.91243314      10.06456272       27       0.00025220      -0.00022545      -0.00006782
I        8.31830630       1.21547483       8.12756185       28      -0.00019018       0.00023807       0.00048481
I        5.71362486       4.88784239       6.83738810       29       0.00000016      -0.00024627       0.00027297
Cs       7.72613571      10.46970230       1.97213960       30      -0.00016903       0.00063122       0.00015208
Pb       5.91386402       6.30171821      -0.59336417       31       0.00004016      -0.00013194       0.00011697
I        4.99943620       6.44438134       2.51741873       32       0.00054413       0.00020096      -0.00036995
I        8.94956125       7.17840817       0.21706063       33       0.00009690       0.00006104       0.00013426
I        5.00861561       9.42322512      -0.93936768       34      -0.00001089      -0.00016914      -0.00036998
Cs       8.11974092      11.35939446       8.39432239       35       0.00022282      -0.00040960      -0.00022185
Pb       4.96525053       7.76576997       5.48106200       36       0.00004897      -0.00016664       0.00008657
I        4.92990096       9.08834636       8.44444016       37      -0.00022856      -0.00066217      -0.00037722
I        8.15896953       8.39963138       5.28020545       38      -0.00000254      -0.00034297      -0.00020325
I        4.21670981      10.64368596       4.12296661       39       0.00021299      -0.00060625      -0.00024627
