10
Lattice="12.08948489612252 0.07188662282137298 4.27525294346759 2.039838095555987 12.475299349108607 2.1461797007046024 7.237674716353963 7.1946823896486265 7.764454818247045" Properties=species:S:1:pos:R:3:spacegroup_kinds:I:1:forces:R:3 spacegroup="P 1" unit_cell=conventional occupancy="_JSON {\"0\": {\"Cs\": 1.0}, \"1\": {\"Cs\": 1.0}, \"2\": {\"K\": 1.0}, \"3\": {\"In\": 1.0}, \"4\": {\"I\": 1.0}, \"5\": {\"I\": 1.0}, \"6\": {\"I\": 1.0}, \"7\": {\"I\": 1.0}, \"8\": {\"I\": 1.0}, \"9\": {\"I\": 1.0}}" energy=-25.793815207890376 free_energy=-25.793815207890376 stress="9.54160851919769e-07 1.2517105355901946e-06 -3.257543661543381e-08 1.2517105355901946e-06 -1.8736412290237966e-06 -1.5688034908007492e-06 -3.257543661543381e-08 -1.5688034908007492e-06 -5.484717524691323e-07" pbc="T T T"
Cs       5.36586810       8.32217106       2.86077539        0       0.00021554       0.00003209      -0.00014536
Cs      16.00108988      11.41962209      11.32535060        1      -0.00017341       0.00006972      -0.00008645
K       10.68348672       9.87086958       7.09274831        2       0.00006795       0.00001656       0.00009261
In      12.08941420       0.07199977       4.27536799        3       0.00029557      -0.00029264      -0.00043327
I       19.44033475      10.20120387      12.70347437        4       0.00006494      -0.00016536       0.00019520
I        1.92671460       9.54071616       1.48246762        5      -0.00012660       0.00033541      -0.00013519
I       16.58015103       7.59127576      10.85080841        6      -0.00000081      -0.00011293      -0.00000557
I        4.78683279      12.15048888       3.33486565        7       0.00001517       0.00027487       0.00036973
I       15.75158828      14.99237158      12.86927230        8      -0.00048379      -0.00013915       0.00038793
I        5.61548956       4.74956900       1.31660921        9       0.00012544      -0.00001858      -0.00023963
