10
Lattice="10.36991906794963 0.0 0.0 2.0200152888890752 7.803506537950843 0.0 5.457878328308111 4.2588347499235395 2.925688851436445" Properties=species:S:1:pos:R:3 pbc="T T T"
Cs       4.46177508       3.01553180       0.73144528
Cs      13.38603725       9.04680809       2.19424267
K        8.92390605       6.03116980       1.46284378
In       0.00000027       0.00000102       0.00000043
I        8.83103396       2.59042695      -0.66125670
I        9.01677816       9.47191179       3.58694432
I       13.55092511       4.65271406       1.39441625
I        4.29688466       7.40962477       1.53127090
I        5.55908214       6.33766596      -0.03485921
I       12.28873112       5.72467770       2.96054928
