80
Lattice="20.456573221266666 0.0 0.0 -8.642324788875083 14.968945629843622 0.0 0.0 0.0 19.423342875813127" Properties=species:S:1:pos:R:3 pbc="T T T"
Cs       7.31423690       2.50389799       9.70247828
Cs       2.46442057       4.99872226       0.00906219
K        1.93577257       0.00906529       4.85583869
In       1.93578689       0.00907120       0.00003678
I        9.48249583       0.01424854       1.94266004
I        0.29614988       7.48831727       7.76903917
I        3.48983538       1.96909696       1.94267318
I        6.28886707       5.53355436       7.76905231
I        8.97039587       5.52834542       1.94265474
I        0.80826113       1.97429211       7.76903388
Cs       7.31423690       2.50389799      19.41414972
Cs       2.46442057       4.99872226       9.72073363
K        1.93577257       0.00906529      14.56751013
In       1.93578689       0.00907120       9.71170822
I        9.48249583       0.01424854      11.65433147
I        0.29614988       7.48831727      17.48071061
I        3.48983538       1.96909696      11.65434462
I        6.28886707       5.53355436      17.48072375
I        8.97039587       5.52834542      11.65432618
I        0.80826113       1.97429211      17.48070532
Cs       2.99307451       9.98837080       9.70247828
Cs      -1.85674183      12.48319508       0.00906219
K       -2.38538983       7.49353811       4.85583869
In      -2.38537550       7.49354401       0.00003678
I        5.16133344       7.49872135       1.94266004
I       -4.02501251      14.97279008       7.76903917
I       -0.83132702       9.45356978       1.94267318
I        1.96770468      13.01802717       7.76905231
I        4.64923348      13.01281824       1.94265474
I       -3.51290127       9.45876493       7.76903388
Cs       2.99307451       9.98837080      19.41414972
Cs      -1.85674183      12.48319508       9.72073363
K       -2.38538983       7.49353811      14.56751013
In      -2.38537550       7.49354401       9.71170822
I        5.16133344       7.49872135      11.65433147
I       -4.02501251      14.97279008      17.48071061
I       -0.83132702       9.45356978      11.65434462
I        1.96770468      13.01802717      17.48072375
I        4.64923348      13.01281824      11.65432618
I       -3.51290127       9.45876493      17.48070532
Cs      17.54252351       2.50389799       9.70247828
Cs      12.69270718       4.99872226       0.00906219
K       12.16405918       0.00906529       4.85583869
In      12.16407350       0.00907120       0.00003678
I       19.71078244       0.01424854       1.94266004
I       10.52443649       7.48831727       7.76903917
I       13.71812199       1.96909696       1.94267318
I       16.51715368       5.53355436       7.76905231
I       19.19868248       5.52834542       1.94265474
I       11.03654774       1.97429211       7.76903388
Cs      17.54252351       2.50389799      19.41414972
Cs      12.69270718       4.99872226       9.72073363
K       12.16405918       0.00906529      14.56751013
In      12.16407350       0.00907120       9.71170822
I       19.71078244       0.01424854      11.65433147
I       10.52443649       7.48831727      17.48071061
I       13.71812199       1.96909696      11.65434462
I       16.51715368       5.53355436      17.48072375
I       19.19868248       5.52834542      11.65432618
I       11.03654774       1.97429211      17.48070532
Cs      13.22136112       9.98837080       9.70247828
Cs       8.37154478      12.48319508       0.00906219
K        7.84289679       7.49353811       4.85583869
In       7.84291111       7.49354401       0.00003678
I       15.38962005       7.49872135       1.94266004
I        6.20327410      14.97279008       7.76903917
I        9.39695959       9.45356978       1.94267318
I       12.19599129      13.01802717       7.76905231
I       14.87752009      13.01281824       1.94265474
I        6.71538534       9.45876493       7.76903388
Cs      13.22136112       9.98837080      19.41414972
Cs       8.37154478      12.48319508       9.72073363
K        7.84289679       7.49353811      14.56751013
In       7.84291111       7.49354401       9.71170822
I       15.38962005       7.49872135      11.65433147
I        6.20327410      14.97279008      17.48071061
I        9.39695959       9.45356978      11.65434462
I       12.19599129      13.01802717      17.48072375
I       14.87752009      13.01281824      11.65432618
I        6.71538534       9.45876493      17.48070532
