80
Lattice="18.576722951140287 -0.9128864863665737 -0.003118251756636025 -8.501299672704416 16.542968174334845 -0.011812706173952232 -0.005873643742202996 0.0015145943828201254 17.65735097283627" Properties=species:S:1:pos:R:3:spacegroup_kinds:I:1:forces:R:3 spacegroup="P 1" unit_cell=conventional occupancy="_JSON {\"0\": {\"Cs\": 1.0}, \"1\": {\"Cs\": 1.0}, \"2\": {\"K\": 1.0}, \"3\": {\"In\": 1.0}, \"4\": {\"I\": 1.0}, \"5\": {\"I\": 1.0}, \"6\": {\"I\": 1.0}, \"7\": {\"I\": 1.0}, \"8\": {\"I\": 1.0}, \"9\": {\"I\": 1.0}, \"10\": {\"Cs\": 1.0}, \"11\": {\"Cs\": 1.0}, \"12\": {\"K\": 1.0}, \"13\": {\"In\": 1.0}, \"14\": {\"I\": 1.0}, \"15\": {\"I\": 1.0}, \"16\": {\"I\": 1.0}, \"17\": {\"I\": 1.0}, \"18\": {\"I\": 1.0}, \"19\": {\"I\": 1.0}, \"20\": {\"Cs\": 1.0}, \"21\": {\"Cs\": 1.0}, \"22\": {\"K\": 1.0}, \"23\": {\"In\": 1.0}, \"24\": {\"I\": 1.0}, \"25\": {\"I\": 1.0}, \"26\": {\"I\": 1.0}, \"27\": {\"I\": 1.0}, \"28\": {\"I\": 1.0}, \"29\": {\"I\": 1.0}, \"30\": {\"Cs\": 1.0}, \"31\": {\"Cs\": 1.0}, \"32\": {\"K\": 1.0}, \"33\": {\"In\": 1.0}, \"34\": {\"I\": 1.0}, \"35\": {\"I\": 1.0}, \"36\": {\"I\": 1.0}, \"37\": {\"I\": 1.0}, \"38\": {\"I\": 1.0}, \"39\": {\"I\": 1.0}, \"40\": {\"Cs\": 1.0}, \"41\": {\"Cs\": 1.0}, \"42\": {\"K\": 1.0}, \"43\": {\"In\": 1.0}, \"44\": {\"I\": 1.0}, \"45\": {\"I\": 1.0}, \"46\": {\"I\": 1.0}, \"47\": {\"I\": 1.0}, \"48\": {\"I\": 1.0}, \"49\": {\"I\": 1.0}, \"50\": {\"Cs\": 1.0}, \"51\": {\"Cs\": 1.0}, \"52\": {\"K\": 1.0}, \"53\": {\"In\": 1.0}, \"54\": {\"I\": 1.0}, \"55\": {\"I\": 1.0}, \"56\": {\"I\": 1.0}, \"57\": {\"I\": 1.0}, \"58\": {\"I\": 1.0}, \"59\": {\"I\": 1.0}, \"60\": {\"Cs\": 1.0}, \"61\": {\"Cs\": 1.0}, \"62\": {\"K\": 1.0}, \"63\": {\"In\": 1.0}, \"64\": {\"I\": 1.0}, \"65\": {\"I\": 1.0}, \"66\": {\"I\": 1.0}, \"67\": {\"I\": 1.0}, \"68\": {\"I\": 1.0}, \"69\": {\"I\": 1.0}, \"70\": {\"Cs\": 1.0}, \"71\": {\"Cs\": 1.0}, \"72\": {\"K\": 1.0}, \"73\": {\"In\": 1.0}, \"74\": {\"I\": 1.0}, \"75\": {\"I\": 1.0}, \"76\": {\"I\": 1.0}, \"77\": {\"I\": 1.0}, \"78\": {\"I\": 1.0}, \"79\": {\"I\": 1.0}}" energy=-206.35050357603657 free_energy=-206.35050357603657 stress="2.284604804028578e-06 -4.282618226782206e-06 -6.146803284946495e-06 -4.282618226782206e-06 -1.436596908812162e-06 -9.21500460709701e-06 -6.146803284946495e-06 -9.21500460709701e-06 -1.8634875505135233e-07" pbc="T T T"
Cs       6.52984884       2.37707260       8.83427674        0      -0.00015755       0.00029118      -0.00002206
Cs       2.01998325       5.28525273      -0.01356177        1       0.00001228       0.00023382      -0.00001163
K        1.75637853      -0.07586031       4.41437212        2      -0.00028136      -0.00009751      -0.00053186
In       1.75740854      -0.07685769      -0.00035445        3      -0.00019111       0.00013422      -0.00008217
I        8.61022909      -0.41779614       1.76433524        4      -0.00009253      -0.00044219       0.00022483
I       -0.06047236       8.08075568       7.05619152        5       0.00020834      -0.00036417       0.00005200
I        3.07355048       1.97654276       1.76470586        6       0.00024454       0.00005897       0.00045937
I        5.47574231       5.68584867       7.05534698        7       0.00057468       0.00033700       0.00042181
I        7.91494430       5.57345257       1.75983730        8      -0.00021623      -0.00030481      -0.00015498
I        0.63491239       2.08924436       7.06100030        9      -0.00010601       0.00008442      -0.00031607
Cs       6.52691228       2.37783052      17.66295225       10      -0.00015998       0.00028731      -0.00002232
Cs       2.01704658       5.28601057       8.81511373       11       0.00001068       0.00023040      -0.00001184
K        1.75344170      -0.07510301      13.24304761       12      -0.00028137      -0.00009751      -0.00053185
In       1.75447329      -0.07610946       8.82832151       13      -0.00019872       0.00018820      -0.00008606
I        8.60729185      -0.41703807      10.59301102       14      -0.00008944      -0.00044652       0.00022234
I       -0.06340939       8.08151368      15.88486719       15       0.00020976      -0.00036821       0.00005040
I        3.07061428       1.97730188      10.59338205       16       0.00023805       0.00004749       0.00045335
I        5.47280612       5.68660803      15.88402324       17       0.00056792       0.00032401       0.00041506
I        7.91200915       5.57420576      10.58851436       18      -0.00022760      -0.00028169      -0.00016790
I        0.63197678       2.08999870      15.88967684       19      -0.00011446       0.00010158      -0.00032502
Cs       2.27919814      10.64855657       8.82837065       20      -0.00015023       0.00029256      -0.00002430
Cs      -2.23066732      13.55673800      -0.01946770       21       0.00001758       0.00022705      -0.00001520
K       -2.49427204       8.19562462       4.40846603       22      -0.00027591      -0.00010164      -0.00053384
In      -2.49324398       8.19462131      -0.00626101       23      -0.00016615       0.00016898      -0.00008067
I        4.35957682       7.85369040       1.75843022       24      -0.00007341      -0.00045537       0.00021351
I        4.19017590      -0.19072772       7.06209862       25       0.00022116      -0.00036705       0.00004581
I       -1.17709802      10.24802880       1.75880011       26       0.00023184       0.00004599       0.00045397
I        1.22509259      13.95733054       7.04943946       27       0.00057545       0.00035072       0.00043189
I        3.66430015      13.84492251       1.75393646       28      -0.00025501      -0.00022444      -0.00020071
I       -3.61573496      10.36072239       7.05509633       29      -0.00012265       0.00011786      -0.00033533
Cs       2.27626120      10.64931309      17.65704609       30      -0.00014868       0.00029719      -0.00002384
Cs      -2.23360414      13.55749450       8.80920766       31       0.00001811       0.00023173      -0.00001421
K       -2.49720886       8.19638192      13.23714151       32      -0.00027592      -0.00010164      -0.00053382
In      -2.49618279       8.19539088       8.82241365       33      -0.00015707       0.00009813      -0.00007447
I        4.35664039       7.85444697      10.58710552       34      -0.00007632      -0.00045128       0.00021521
I        4.18723931      -0.18997109      15.89077393       35       0.00021957      -0.00036325       0.00004727
I       -1.18003565      10.24878366      10.58747462       36       0.00024012       0.00006083       0.00046215
I        1.22215495      13.95808518      15.87811382       37       0.00058387       0.00036685       0.00044110
I        3.66136158      13.84568418      10.58261028       38      -0.00024313      -0.00024913      -0.00018698
I       -3.61867335      10.36148363      15.88377027       39      -0.00011205       0.00009575      -0.00032271
Cs      15.81820972       1.92062885       8.83271775       40      -0.00015205       0.00029445      -0.00002334
Cs      11.30834361       4.82880949      -0.01512052       41       0.00002148       0.00023446      -0.00001470
K       11.04473898      -0.53230148       4.41281343       42      -0.00027425      -0.00010929      -0.00053520
In      11.04576324      -0.53328552      -0.00191511       43      -0.00014473       0.00004702      -0.00007039
I       17.89858875      -0.87423859       1.76277697       44      -0.00007788      -0.00044578       0.00021778
I        9.22788756       7.62431338       7.05463325       45       0.00022107      -0.00036874       0.00004475
I       12.36191208       1.52009750       1.76314575       46       0.00024489       0.00007115       0.00046777
I       14.76410348       5.22940208       7.05378616       47       0.00057914       0.00035660       0.00043552
I       -1.37341427       6.02988853       1.76139940       48      -0.00023569      -0.00026411      -0.00017922
I        9.92327582       1.63279649       7.05944289       49      -0.00011952       0.00011078      -0.00033049
Cs      15.81527289       1.92138694      17.66139336       50      -0.00015258       0.00028977      -0.00002433
Cs      11.30540691       4.82956756       8.81355502       51       0.00001993       0.00022983      -0.00001516
K       11.04180216      -0.53154418      13.24148892       52      -0.00027425      -0.00010930      -0.00053522
In      11.04282898      -0.53254179       8.82676102       53      -0.00015778       0.00012522      -0.00007564
I       17.89565170      -0.87348063      10.59145262       54      -0.00007633      -0.00044957       0.00021633
I        9.22495035       7.62507141      15.88330892       55       0.00022394      -0.00037283       0.00004307
I       12.35897608       1.52085746      10.59182236       56       0.00023644       0.00005497       0.00045853
I       14.76116747       5.23016179      15.88246263       57       0.00057088       0.00034181       0.00042736
I       -1.37634953       6.03064190      10.59007643       58      -0.00024628      -0.00024202      -0.00019185
I        9.92034076       1.63354941      15.88812004       59      -0.00013140       0.00013550      -0.00034420
Cs      11.56756077      10.19211309       8.82681112       60      -0.00015949       0.00029312      -0.00002098
Cs       7.05769502      13.10029509      -0.02102706       61       0.00001018       0.00022460      -0.00001318
K        6.79409053       7.73917825       4.40690645       62      -0.00028310      -0.00008407      -0.00053026
In       6.79512463       7.73815812      -0.00781841       63      -0.00021325       0.00028137      -0.00009380
I       13.64794005       7.39724618       1.75687021       64      -0.00008770      -0.00045074       0.00022093
I       13.47853899      -0.64717164       7.06053878       65       0.00020809      -0.00036400       0.00005177
I        8.11126360       9.79158858       1.75724249       66       0.00022880       0.00002808       0.00044159
I       10.51345373      13.50088846       7.04788088       67       0.00057710       0.00034329       0.00042674
I       -5.62406381      14.30137176       1.75549326       68      -0.00023811      -0.00025824      -0.00018155
I        5.67262371       9.90428629       7.05353426       69      -0.00010393       0.00007809      -0.00031136
Cs      11.56462379      10.19286984      17.65548659       70      -0.00015788       0.00029654      -0.00002077
Cs       7.05475794      13.10105177       8.80764839       71       0.00001261       0.00022847      -0.00001292
K        6.79115371       7.73993555      13.23558193       72      -0.00028310      -0.00008407      -0.00053025
In       6.79218521       7.73892719       8.82085581       73      -0.00019918       0.00021279      -0.00008444
I       13.64500344       7.39800277      10.58554552       74      -0.00008917      -0.00044669       0.00022255
I       13.47560258      -0.64641512      15.88921397       75       0.00020504      -0.00035968       0.00005424
I        8.10832614       9.79234381      10.58591720       76       0.00023559       0.00004110       0.00044835
I       10.51051629      13.50164392      15.87655567       77       0.00058360       0.00035482       0.00043277
I       -5.62700186      14.30213205      10.58416769       78      -0.00022961      -0.00027549      -0.00017256
I        5.66968522       9.90504769      15.88220818       79      -0.00009258       0.00005498      -0.00029847
