10
Lattice="7.700575789974247 0.0 0.0 2.325059840122109 9.154837740736244 0.0 5.789320697320439 -0.7464321781875806 6.729979267843594" Properties=species:S:1:pos:R:3 pbc="T T T"
Cs       3.95369763       2.10208938       1.68250272
Cs      11.86125862       6.30631584       5.04747632
K        7.90747819       4.20420258       3.36498955
In       0.00000011       0.00000025       0.00000010
I        7.18062716       0.97933208       4.52861475
I        8.63432919       7.42907293       2.20136432
I        8.76344482       2.23047959       1.89651610
I        7.05151090       6.17792548       4.83346279
I        5.07322318       6.55497527       1.23153141
I       10.74173336       1.85343103       5.49844835
