10
Lattice="9.085092827370971 0.9790660994291904 -1.2575470115138694 4.072462649009393 8.203044195023331 1.3329405525011682 5.555370893762499 1.471006179020667 6.675849955593445" Properties=species:S:1:pos:R:3:spacegroup_kinds:I:1:forces:R:3 spacegroup="P 1" unit_cell=conventional occupancy="_JSON {\"0\": {\"Cs\": 1.0}, \"1\": {\"Cs\": 1.0}, \"2\": {\"K\": 1.0}, \"3\": {\"In\": 1.0}, \"4\": {\"I\": 1.0}, \"5\": {\"I\": 1.0}, \"6\": {\"I\": 1.0}, \"7\": {\"I\": 1.0}, \"8\": {\"I\": 1.0}, \"9\": {\"I\": 1.0}}" energy=-25.648917787014977 free_energy=-25.648917787014977 stress="9.446328789240373e-06 8.076411536560447e-06 9.870628208669988e-06 8.076411536560447e-06 1.0493836254098247e-05 4.24937964782981e-06 9.870628208669988e-06 4.24937964782981e-06 -1.2009707891010956e-05" pbc="T T T"
Cs       4.71098616       2.64798193       1.87288040        0       0.00030042      -0.00067892       0.00038423
Cs      14.00181124       8.00503366       4.87838545        1      -0.00023587       0.00085788      -0.00032366
K        9.35617758       5.32667908       3.37580704        2       0.00055925      -0.00031677      -0.00004507
In       9.08519957       0.97889712      -1.25745423        3      -0.00045430       0.00067665      -0.00024487
I        7.53807742       2.64813955       4.80272586        4       0.00029097       0.00019898       0.00004398
I       11.17472804       8.00487524       1.94848771        5       0.00010021      -0.00020673      -0.00025127
I        9.93415376       2.92783601       0.83434791        6       0.00005302       0.00004323       0.00020182
I        8.77865526       7.72529910       5.91684051        7       0.00002819      -0.00004136       0.00019052
I        6.13545345       6.27371924       2.27204119        8      -0.00040715      -0.00002971      -0.00036876
I       12.57801860       4.37962867       4.47898648        9      -0.00023473      -0.00050325       0.00041308
