20
Lattice="8.449606315798986 -0.01939152976485143 0.04456801827287628 5.678465618921077 8.943912215424538 -2.5807175299236973 -0.05897388799426829 3.462334421971633 11.8777639335734" Properties=species:S:1:pos:R:3:spacegroup_kinds:I:1:forces:R:3 spacegroup="P 1" unit_cell=conventional occupancy="_JSON {\"0\": {\"Cs\": 1.0}, \"1\": {\"Cs\": 1.0}, \"2\": {\"Cs\": 1.0}, \"3\": {\"Cs\": 1.0}, \"4\": {\"Pb\": 1.0}, \"5\": {\"Pb\": 1.0}, \"6\": {\"Pb\": 1.0}, \"7\": {\"Pb\": 1.0}, \"8\": {\"I\": 1.0}, \"9\": {\"I\": 1.0}, \"10\": {\"I\": 1.0}, \"11\": {\"I\": 1.0}, \"12\": {\"I\": 1.0}, \"13\": {\"I\": 1.0}, \"14\": {\"I\": 1.0}, \"15\": {\"I\": 1.0}, \"16\": {\"I\": 1.0}, \"17\": {\"I\": 1.0}, \"18\": {\"I\": 1.0}, \"19\": {\"I\": 1.0}}" energy=-56.619960575613085 free_energy=-56.619960575613085 stress="2.6750780521396427e-06 5.658801814030572e-06 -1.2476299644951813e-05 5.658801814030572e-06 -3.746378680861496e-06 6.804858203479372e-06 -1.2476299644951813e-05 6.804858203479372e-06 1.3353525850336586e-05" pbc="T T T"
Cs      10.86623034       9.20786949       0.58798102        0       0.00031490      -0.00069370       0.00024902
Cs       3.80241178       4.74489935       1.85554196        1      -0.00017893       0.00031574       0.00036532
Cs       4.51737438       4.24755258       8.44828054        2      -0.00060893       0.00034532       0.00003654
Cs       3.13106468       8.72973536       7.13549000        3      -0.00001736      -0.00012174       0.00008075
Pb       0.59891639       3.99667191      11.72528959        4      -0.00026790      -0.00037913      -0.00021802
Pb       7.72097362       4.99619686      -1.42125265        5       0.00035483       0.00015395       0.00019117
Pb       0.62775494       2.26487119       5.78673503        6      -0.00039852       0.00000980       0.00004015
Pb       7.69138127       6.72651913       4.51781172        7       0.00000908       0.00081532       0.00047031
I        4.95346011       6.79686123      -1.39080483        8       0.00031721      -0.00025361      -0.00022543
I        6.33956194       2.31482483      -0.07793373        9      -0.00034399      -0.00006495      -0.00029229
I       10.02349800       1.64948141       2.78759584       10       0.00016226      -0.00048109      -0.00009598
I       10.43066807       6.65853205      10.42722704       11      -0.00054690       0.00025512      -0.00007891
I        9.04518972      11.13991223       9.11471635       12      -0.00051810       0.00028984       0.00002232
I        8.63756240       6.13136096       1.47457615       13       0.00030479      -0.00072685      -0.00008492
I        4.92833990       8.22286268       3.50253686       14       0.00006447      -0.00026680      -0.00035024
I        6.31382593       3.74101722       4.81482326       15       0.00025300       0.00000371      -0.00002629
I       -0.31888815       2.86227243       8.82935356       16       0.00039004       0.00039711       0.00040981
I       10.45423375       5.23208897       5.53460619       17       0.00009471      -0.00000672      -0.00039741
I        9.06863042       9.71370382       4.22184120       18       0.00001447      -0.00014331      -0.00023514
I        6.74439368       7.32426554       7.56110044       19       0.00060085       0.00055199       0.00013924
