80
Lattice="17.49354322045118 0.0 0.0 -2.806449186380695 16.698704969276573 0.0 0.4339111879292175 -1.534123373262927 12.707962280670035" Properties=species:S:1:pos:R:3 pbc="T T T"
Cs       3.49240106       7.43613814       3.17699057
Cs       0.29875635       3.26163719       3.17699057
Cs       5.37227281      -0.38060232       9.53097171
Cs       8.56593557       3.79424921       9.53097171
Pb       0.54359425       0.12028384       0.00000103
Pb       3.67177351       4.17467624       0.00000000
Pb       0.21695559      -0.76706169       6.35398114
Pb       4.43232878       3.52780814       6.35398502
I        1.27359918       5.89153099       0.52809074
I        2.96335853       1.71684068       0.52825629
I        8.64475309      -0.18446334       3.17699057
I        7.59107017       1.16419007      12.17968839
I        5.90131222       5.33885224      12.17985393
I        5.05145299       3.99003343       3.17699057
I        1.45448539       5.25199515       5.82589040
I        3.14424474       1.07730484       5.82572486
I        0.21987373       7.24035409       9.53097171
I        7.41018396       1.80372591       6.88225504
I        5.72042601       5.97838808       6.88208950
I        3.81317850       3.06549838       9.53097171
Cs       2.08917646      15.78549062       3.17699057
Cs      -1.10446824      11.61098967       3.17699057
Cs       3.96904822       7.96875016       9.53097171
Cs       7.16271098      12.14360170       9.53097171
Pb      -0.85963034       8.46963632       0.00000103
Pb       2.26854892      12.52402873       0.00000000
Pb      -1.18626900       7.58229080       6.35398114
Pb       3.02910419      11.87716062       6.35398502
I       -0.12962541      14.24088348       0.52809074
I        1.56013394      10.06619316       0.52825629
I        7.24152849       8.16488914       3.17699057
I        6.18784558       9.51354255      12.17968839
I        4.49808762      13.68820473      12.17985393
I        3.64822839      12.33938591       3.17699057
I        0.05126079      13.60134764       5.82589040
I        1.74102015       9.42665733       5.82572486
I       -1.18335086      15.58970658       9.53097171
I        6.00695937      10.15307839       6.88225504
I        4.31720142      14.32774056       6.88208950
I        2.40995391      11.41485086       9.53097171
Cs      12.23917267       7.43613814       3.17699057
Cs       9.04552796       3.26163719       3.17699057
Cs      14.11904442      -0.38060232       9.53097171
Cs      17.31270718       3.79424921       9.53097171
Pb       9.29036586       0.12028384       0.00000103
Pb      12.41854512       4.17467624       0.00000000
Pb       8.96372720      -0.76706169       6.35398114
Pb      13.17910039       3.52780814       6.35398502
I       10.02037079       5.89153099       0.52809074
I       11.71013014       1.71684068       0.52825629
I       17.39152470      -0.18446334       3.17699057
I       16.33784178       1.16419007      12.17968839
I       14.64808383       5.33885224      12.17985393
I       13.79822460       3.99003343       3.17699057
I       10.20125700       5.25199515       5.82589040
I       11.89101635       1.07730484       5.82572486
I        8.96664534       7.24035409       9.53097171
I       16.15695557       1.80372591       6.88225504
I       14.46719762       5.97838808       6.88208950
I       12.55995011       3.06549838       9.53097171
Cs      10.83594807      15.78549062       3.17699057
Cs       7.64230337      11.61098967       3.17699057
Cs      12.71581983       7.96875016       9.53097171
Cs      15.90948259      12.14360170       9.53097171
Pb       7.88714127       8.46963632       0.00000103
Pb      11.01532053      12.52402873       0.00000000
Pb       7.56050261       7.58229080       6.35398114
Pb      11.77587580      11.87716062       6.35398502
I        8.61714620      14.24088348       0.52809074
I       10.30690555      10.06619316       0.52825629
I       15.98830010       8.16488914       3.17699057
I       14.93461719       9.51354255      12.17968839
I       13.24485923      13.68820473      12.17985393
I       12.39500000      12.33938591       3.17699057
I        8.79803240      13.60134764       5.82589040
I       10.48779176       9.42665733       5.82572486
I        7.56342075      15.58970658       9.53097171
I       14.75373098      10.15307839       6.88225504
I       13.06397303      14.32774056       6.88208950
I       11.15672552      11.41485086       9.53097171
