20
Lattice="17.994255112070526 2.613346517046348 -3.9026778931479815 -6.066473518963169 6.951219429788994 -1.1608638297595137 -4.4409042102930565 -13.888382807068004 14.532482799945978" Properties=species:S:1:pos:R:3:spacegroup_kinds:I:1:forces:R:3 spacegroup="P 1" unit_cell=conventional occupancy="_JSON {\"0\": {\"Cs\": 1.0}, \"1\": {\"Cs\": 1.0}, \"2\": {\"K\": 1.0}, \"3\": {\"In\": 1.0}, \"4\": {\"I\": 1.0}, \"5\": {\"I\": 1.0}, \"6\": {\"I\": 1.0}, \"7\": {\"I\": 1.0}, \"8\": {\"I\": 1.0}, \"9\": {\"I\": 1.0}, \"10\": {\"Cs\": 1.0}, \"11\": {\"Cs\": 1.0}, \"12\": {\"K\": 1.0}, \"13\": {\"In\": 1.0}, \"14\": {\"I\": 1.0}, \"15\": {\"I\": 1.0}, \"16\": {\"I\": 1.0}, \"17\": {\"I\": 1.0}, \"18\": {\"I\": 1.0}, \"19\": {\"I\": 1.0}}" energy=-51.58763033211112 free_energy=-51.58763033211112 stress="-4.045764166465662e-06 -3.651139873403558e-07 -1.788561461521465e-07 -3.651139873403558e-07 -7.948014849598761e-07 7.333286508021232e-07 -1.788561461521465e-07 7.333286508021232e-07 -2.269642344369049e-06" pbc="T T T"
Cs       1.32222616       3.66442095      -1.36901604        0      -0.00029537      -0.00023584      -0.00026440
Cs      -8.14263774      -8.35208414      13.40079387        1      -0.00037187       0.00004297      -0.00002115
K       13.11664989      -3.85831090       3.66799514        2       0.00014844      -0.00001330       0.00011051
In      15.33974698       3.08417138      -3.59701976        3       0.00023351       0.00033915      -0.00012030
I       14.03968438       5.43757667      -2.24206550        4      -0.00037790      -0.00024146      -0.00021055
I       -2.86742746      -7.51207460      10.36947516        5       0.00025824       0.00012685       0.00022620
I       -6.60313776     -11.78096804      12.35926710        6       0.00000851      -0.00039896       0.00008823
I       -0.21748233       7.09341227      -0.32881395        7      -0.00037600       0.00016133       0.00008107
I       -0.00921238       1.33015488       1.45868614        8      -0.00068206       0.00041360      -0.00006230
I       -0.74603919     -12.96998203      11.73304063        9       0.00033289       0.00004485      -0.00001816
Cs      10.31974307       4.96956362      -3.32285052       10       0.00012934       0.00018708       0.00028254
Cs       0.85153346      -7.04372978      11.44927298       11       0.00043660      -0.00002536      -0.00002470
K        4.12212114      -5.16728112       5.62045584       12       0.00009730       0.00016147      -0.00015401
In       6.33999219       1.77848799      -1.64720832       13       0.00008874       0.00039990       0.00015643
I        5.04010671       4.13207143      -0.29155452       14       0.00009213      -0.00006455       0.00001992
I        6.13305934      -6.20609484       8.41922612       15      -0.00061051      -0.00004126      -0.00032814
I        2.39129231     -10.47265288      10.40695567       16      -0.00000998      -0.00032500      -0.00020179
I        8.77970195       8.39868708      -2.27968100       17       0.00050982      -0.00034766       0.00020735
I        8.98462760       2.63947256      -0.49451919       18       0.00094573      -0.00013430       0.00025252
I        8.25411121     -11.66440148       9.78215738       19      -0.00055754      -0.00004952      -0.00001928
