40
Lattice="29.312984820784344 -0.08636370775707461 0.9617804776128478 -10.446574270871654 13.647860771662984 -0.34022409123426195 5.902015544697402 5.661673145142084 6.458333981578427" Properties=species:S:1:pos:R:3:spacegroup_kinds:I:1:forces:R:3 spacegroup="P 1" unit_cell=conventional occupancy="_JSON {\"0\": {\"Cs\": 1.0}, \"1\": {\"Cs\": 1.0}, \"2\": {\"K\": 1.0}, \"3\": {\"In\": 1.0}, \"4\": {\"I\": 1.0}, \"5\": {\"I\": 1.0}, \"6\": {\"I\": 1.0}, \"7\": {\"I\": 1.0}, \"8\": {\"I\": 1.0}, \"9\": {\"I\": 1.0}, \"10\": {\"Cs\": 1.0}, \"11\": {\"Cs\": 1.0}, \"12\": {\"K\": 1.0}, \"13\": {\"In\": 1.0}, \"14\": {\"I\": 1.0}, \"15\": {\"I\": 1.0}, \"16\": {\"I\": 1.0}, \"17\": {\"I\": 1.0}, \"18\": {\"I\": 1.0}, \"19\": {\"I\": 1.0}, \"20\": {\"Cs\": 1.0}, \"21\": {\"Cs\": 1.0}, \"22\": {\"K\": 1.0}, \"23\": {\"In\": 1.0}, \"24\": {\"I\": 1.0}, \"25\": {\"I\": 1.0}, \"26\": {\"I\": 1.0}, \"27\": {\"I\": 1.0}, \"28\": {\"I\": 1.0}, \"29\": {\"I\": 1.0}, \"30\": {\"Cs\": 1.0}, \"31\": {\"Cs\": 1.0}, \"32\": {\"K\": 1.0}, \"33\": {\"In\": 1.0}, \"34\": {\"I\": 1.0}, \"35\": {\"I\": 1.0}, \"36\": {\"I\": 1.0}, \"37\": {\"I\": 1.0}, \"38\": {\"I\": 1.0}, \"39\": {\"I\": 1.0}}" energy=-101.66976821936225 free_energy=-101.66976821936225 stress="2.9173797045086266e-06 -3.474939429807767e-06 -3.866964077197002e-06 -3.474939429807767e-06 1.0333256740713332e-05 2.579732295040326e-06 -3.866964077197002e-06 2.579732295040326e-06 -4.145982671104131e-06" pbc="T T T"
Cs      16.66699516       6.79497815       6.62939877        0       0.00019192      -0.00001535       0.00065290
Cs       0.22688823       5.25578400       0.11767419        1      -0.00029723      -0.00016965      -0.00001392
K        2.40336827       1.67733853       3.55534517        2      -0.00026349      -0.00048693       0.00053549
In      -9.75956872      14.03587759      -1.07711968        3      -0.00033614       0.00027837      -0.00045010
I        3.74899406      14.43714013       1.92455039        4       0.00011051      -0.00032926      -0.00051217
I        2.64818451      10.53814553       4.85378051        5      -0.00015617      -0.00022340      -0.00024451
I        2.94706348       2.26360541      -0.05320172        6       0.00060947       0.00030934      -0.00005457
I       13.21457974      10.94681925       5.79770249        7       0.00036528      -0.00022739      -0.00012114
I       13.88586168       5.66676337       4.35614770        8       0.00019886      -0.00003037       0.00002652
I        5.16375924       7.78780713       4.01224475        9      -0.00017477       0.00012560       0.00001500
Cs      11.13552242      14.22985742       6.24916315       10      -0.00014220       0.00032953      -0.00011599
Cs      -4.70571267      11.72579179       0.06782435       11       0.00019648       0.00033408       0.00004157
K       -2.88414671       8.39396610       3.43733426       12      -0.00020459      -0.00011650       0.00007984
In      -4.90466770       7.00701727      -0.87365593       13      -0.00029610       0.00039503      -0.00039690
I        8.79651236       7.95331265       2.06221332       14      -0.00005286       0.00058364       0.00004160
I       -2.08705891      17.75044904       4.46484555       15      -0.00015416      -0.00059329       0.00027329
I       -2.22015829       8.61965471      -0.17990113       16       0.00010786      -0.00020374      -0.00012959
I        8.57040492      17.42956157       5.56747861       17       0.00041097       0.00001240      -0.00000505
I        8.59232434      12.50181171       4.07387330       18       0.00001756       0.00039059       0.00002151
I        0.07135896      14.63981382       3.77410469       19      -0.00049394       0.00013555       0.00018266
Cs      31.32526283       6.75175301       7.11230368       20       0.00000025      -0.00003901      -0.00038391
Cs      14.88204837       5.21018231       0.59823034       21      -0.00008054       0.00052090      -0.00014661
K       17.06153716       1.63341758       4.03575229       22      -0.00061878      -0.00021366       0.00043276
In       4.89677361      13.99344893      -0.59697540       23      -0.00029040       0.00004014       0.00036341
I       18.40567855      14.38910228       2.40681528       24       0.00031683       0.00024879      -0.00054123
I       17.30339961      10.49445887       5.33225806       25       0.00016602      -0.00042559      -0.00020987
I       17.60494794       2.21989678       0.42695305       26       0.00033749       0.00053541      -0.00005447
I       27.87232498      10.90451094       6.28085565       27      -0.00000830      -0.00039873      -0.00016714
I       -0.76824022       5.71062481       3.87552583       28       0.00003542       0.00028960       0.00018056
I       19.81931671       7.74388028       4.49157695       29       0.00034429       0.00054388      -0.00013599
Cs      25.79251536      14.18799604       6.73030491       30      -0.00004247       0.00001156      -0.00070965
Cs       9.95157708      11.68376066       0.54679284       31      -0.00015861      -0.00056963       0.00047414
K       11.77114608       8.35007518       3.91650569       32      -0.00041271      -0.00005924       0.00019574
In       9.75064037       6.96315597      -0.39468954       33      -0.00005147      -0.00022176       0.00023839
I       23.45353564       7.91276821       2.54418886       34       0.00034674      -0.00004598      -0.00008948
I       12.56842618      17.70662923       4.94638091       35       0.00004738      -0.00059145      -0.00037089
I       12.43488707       8.57586590       0.29827552       36       0.00009909       0.00017683       0.00076647
I       23.22755374      17.38600857       6.04683365       37       0.00042939      -0.00001869      -0.00016439
I       -6.06466629      12.54649513       3.59410346       38      -0.00017290      -0.00037667       0.00055019
I       14.72532452      14.59685688       4.25477127       39       0.00007602       0.00009506      -0.00005446
