20
Lattice="11.845193360113335 0.0 0.0 1.530489328911505 13.160598814986988 0.0 2.099687577992392 1.810464081908632 6.3830057193318765" Properties=species:S:1:pos:R:3:oxi_states:R:1 pbc="T T T"
Cs       4.39380277       4.19534343       3.19150286       1.00000000
Pb      -0.00000000      -0.00000000       0.00000000       2.00000000
I        1.04984379       0.90523204       3.19150286      -1.00000000
I        2.96129834       0.00000000      -0.00000000      -1.00000000
I        0.38262233       3.29014970       0.00000000      -1.00000000
Cs       5.15904744      10.77564284       3.19150286       1.00000000
Pb       0.76524466       6.58029941       0.00000000       2.00000000
I        1.81508845       7.48553145       3.19150286      -1.00000000
I        3.72654300       6.58029941      -0.00000000      -1.00000000
I        1.14786700       9.87044911       0.00000000      -1.00000000
Cs      10.31639945       4.19534343       3.19150286       1.00000000
Pb       5.92259668      -0.00000000       0.00000000       2.00000000
I        6.97244047       0.90523204       3.19150286      -1.00000000
I        8.88389502       0.00000000      -0.00000000      -1.00000000
I        6.30521901       3.29014970       0.00000000      -1.00000000
Cs      11.08164412      10.77564284       3.19150286       1.00000000
Pb       6.68784134       6.58029941       0.00000000       2.00000000
I        7.73768513       7.48553145       3.19150286      -1.00000000
I        9.64913968       6.58029941      -0.00000000      -1.00000000
I        7.07046368       9.87044911       0.00000000      -1.00000000
