40
Lattice="18.392406038860145 -0.03134488273420889 0.004595044599716211 9.184650074365516 15.976748827519227 -0.018040248685871445 4.579340335541974 2.6372297608286677 6.936383616397557" Properties=species:S:1:pos:R:3:spacegroup_kinds:I:1:forces:R:3 spacegroup="P 1" unit_cell=conventional occupancy="_JSON {\"0\": {\"Cs\": 1.0}, \"1\": {\"Cs\": 1.0}, \"2\": {\"K\": 1.0}, \"3\": {\"In\": 1.0}, \"4\": {\"I\": 1.0}, \"5\": {\"I\": 1.0}, \"6\": {\"I\": 1.0}, \"7\": {\"I\": 1.0}, \"8\": {\"I\": 1.0}, \"9\": {\"I\": 1.0}, \"10\": {\"Cs\": 1.0}, \"11\": {\"Cs\": 1.0}, \"12\": {\"K\": 1.0}, \"13\": {\"In\": 1.0}, \"14\": {\"I\": 1.0}, \"15\": {\"I\": 1.0}, \"16\": {\"I\": 1.0}, \"17\": {\"I\": 1.0}, \"18\": {\"I\": 1.0}, \"19\": {\"I\": 1.0}, \"20\": {\"Cs\": 1.0}, \"21\": {\"Cs\": 1.0}, \"22\": {\"K\": 1.0}, \"23\": {\"In\": 1.0}, \"24\": {\"I\": 1.0}, \"25\": {\"I\": 1.0}, \"26\": {\"I\": 1.0}, \"27\": {\"I\": 1.0}, \"28\": {\"I\": 1.0}, \"29\": {\"I\": 1.0}, \"30\": {\"Cs\": 1.0}, \"31\": {\"Cs\": 1.0}, \"32\": {\"K\": 1.0}, \"33\": {\"In\": 1.0}, \"34\": {\"I\": 1.0}, \"35\": {\"I\": 1.0}, \"36\": {\"I\": 1.0}, \"37\": {\"I\": 1.0}, \"38\": {\"I\": 1.0}, \"39\": {\"I\": 1.0}}" energy=-102.59571605173528 free_energy=-102.59571605173528 stress="4.161172281027227e-06 -1.7723546615501076e-06 8.215196608669236e-06 -1.7723546615501076e-06 3.4186081718193785e-06 4.7528619476916375e-07 8.215196608669236e-06 4.7528619476916375e-07 -4.378348196136158e-06" pbc="T T T"
Cs       4.59716015       2.64260749       1.92244367        0       0.00022481       0.00031458      -0.00016587
Cs      13.77056465       7.96600064       5.00756646        1       0.00012920       0.00063916      -0.00000433
K        9.18372418       5.30497619       3.46510734        2       0.00015579       0.00014185      -0.00022514
In      18.39239589      -0.03123126       0.00450271        3       0.00003428       0.00004511       0.00044723
I        6.96467818       3.20606151       5.24811340        4      -0.00005600       0.00008649      -0.00009244
I       11.40350004       7.40393041       1.68171076        5       0.00000957      -0.00043039      -0.00001990
I        9.88786793       2.30504851       1.72878642        6      -0.00009245      -0.00043462       0.00036077
I        8.48011820       8.30595335       5.19978827        7      -0.00022466      -0.00018269       0.00033273
I        6.24913451       6.19830533       1.70019793        8      -0.00024108      -0.00024817      -0.00062939
I       12.11845384       4.41188148       5.22970550        9       0.00005437      -0.00031814       0.00034705
Cs       9.18955841      10.63099935       1.91350030       10       0.00019523       0.00046173      -0.00022138
Cs      18.36307315      15.95486221       4.99865263       11      -0.00017635       0.00014954      -0.00001999
K       13.77617431      13.29330443       3.45615466       12      -0.00007574      -0.00001002      -0.00024060
In      22.98470882       7.95719716      -0.00436161       13       0.00032128      -0.00005935      -0.00033770
I       11.55704693      11.19444268       5.23905024       14      -0.00020225      -0.00011597       0.00013566
I       15.99581947      15.39189697       1.67267814       15       0.00000726       0.00014985      -0.00014467
I       14.48026711      10.29331200       1.71969569       16       0.00008762      -0.00001515       0.00069138
I       13.07248876      16.29408720       5.19092953       17      -0.00028815       0.00003103      -0.00001111
I       10.84132301      14.18675480       1.69103445       18       0.00021725      -0.00030921      -0.00022797
I       16.71081380      12.40003794       5.22066119       19      -0.00001087       0.00040297       0.00007652
Cs      13.79333738       2.62695261       1.92473463       20       0.00029668       0.00032026      -0.00018124
Cs      22.96679261       7.95025972       5.00986806       21       0.00003161       0.00064374       0.00003118
K       18.37995196       5.28934472       3.46738232       22       0.00009259       0.00004886      -0.00020378
In       9.19616875      -0.01554529       0.00224774       23       0.00017692       0.00004232      -0.00004587
I       16.16101995       3.19042431       5.25041401       24      -0.00052409      -0.00003210       0.00012238
I       20.59968582       7.38816739       1.68401143       25       0.00003695      -0.00029494       0.00002107
I       19.08402339       2.28944662       1.73104349       26       0.00004087      -0.00052689       0.00038245
I       17.67647413       8.29020597       5.20209960       27      -0.00044193      -0.00011646       0.00033566
I       15.44526646       6.18261261       1.70245644       28      -0.00013406      -0.00024325      -0.00049353
I       21.31470143       4.39615877       5.23209873       29      -0.00018237      -0.00016036       0.00005407
Cs      18.38577266      10.61529634       1.91581835       30       0.00015879       0.00046973      -0.00022488
Cs      27.55925022      15.93917918       5.00095945       31      -0.00007335       0.00016496      -0.00006218
K       22.97233977      13.27760567       3.45846298       32      -0.00002590       0.00005912      -0.00024688
In      13.78856082       7.97292941      -0.00672701       33       0.00000707      -0.00050655       0.00004724
I       20.75317757      11.17869889       5.24141434       34       0.00026479       0.00002604      -0.00018281
I       25.19204186      15.37630906       1.67497921       35      -0.00001446       0.00002549      -0.00010336
I       23.67653328      10.27766065       1.72203263       36      -0.00009201      -0.00025253       0.00052043
I       22.26853372      16.27845582       5.19315228       37      -0.00002442       0.00020898       0.00015231
I       20.03754676      14.17113154       1.69336872       38       0.00014324      -0.00042325      -0.00033797
I       25.90695622      12.38439838       5.22290174       39       0.00019399       0.00024823       0.00036487
