40
Lattice="17.94354311465003 0.0 0.0 8.97177155740053 15.53956417114501 0.0 4.4858857787727935 2.5899273619138032 7.325421002493734" Properties=species:S:1:pos:R:3 pbc="T T T"
Cs       4.48586753       2.58992189       1.83135558
Cs      13.45767553       7.76978741       5.49406533
K        8.97177162       5.17985470       3.66271052
In       0.00000009       0.00000015       0.00000005
I        6.75216929       3.53742573       5.30919477
I       11.19137397       6.82228357       2.01622623
I        9.33416212       2.66388142       1.70242383
I        8.60938093       7.69582785       5.62299714
I        6.57100949       6.56600519       1.70242765
I       11.37253389       3.79370457       5.62299354
Cs       8.97175330      10.35970397       1.83135558
Cs      17.94356131      15.53956950       5.49406533
K       13.45765740      12.94963678       3.66271052
In       4.48588587       7.76978224       0.00000005
I       11.23805507      11.30720782       5.30919477
I       15.67725975      14.59206566       2.01622623
I       13.82004790      10.43366351       1.70242383
I       13.09526671      15.46560993       5.62299714
I       11.05689527      14.33578728       1.70242765
I       15.85841967      11.56348665       5.62299354
Cs      13.45763908       2.58992189       1.83135558
Cs      22.42944709       7.76978741       5.49406533
K       17.94354317       5.17985470       3.66271052
In       8.97177165       0.00000015       0.00000005
I       15.72394085       3.53742573       5.30919477
I       20.16314553       6.82228357       2.01622623
I       18.30593368       2.66388142       1.70242383
I       17.58115248       7.69582785       5.62299714
I       15.54278104       6.56600519       1.70242765
I       20.34430545       3.79370457       5.62299354
Cs      17.94352486      10.35970397       1.83135558
Cs      26.91533286      15.53956950       5.49406533
K       22.42942895      12.94963678       3.66271052
In      13.45765743       7.76978224       0.00000005
I       20.20982663      11.30720782       5.30919477
I       24.64903131      14.59206566       2.01622623
I       22.79181946      10.43366351       1.70242383
I       22.06703826      15.46560993       5.62299714
I       20.02866682      14.33578728       1.70242765
I       24.83019123      11.56348665       5.62299354
