5
Lattice="6.387069797136045 -1.9358703377909522e-10 -7.133997734338498e-16 -1.9358703332234165e-10 6.3870697971360535 -3.505336860316734e-16 -7.130338345901625e-16 -3.5049141431117005e-16 6.3870697970566" Properties=species:S:1:pos:R:3:spacegroup_kinds:I:1:forces:R:3 spacegroup="P 1" unit_cell=conventional occupancy="_JSON {\"0\": {\"Cs\": 1.0}, \"1\": {\"Pb\": 1.0}, \"2\": {\"I\": 1.0}, \"3\": {\"I\": 1.0}, \"4\": {\"I\": 1.0}}" energy=-13.98074242735575 free_energy=-13.98074242735575 stress="2.670792698910108e-07 -1.8006043269007109e-12 9.021682557371441e-18 -1.8006043269007109e-12 2.670792699375094e-07 -5.041839875094638e-18 9.021682557371441e-18 -5.041839875094638e-18 2.6708236507891497e-07" pbc="T T T"
Cs       3.19359322       3.19347657       3.19353490        0       0.00000291      -0.00000291      -0.00000000
Pb       0.00000075      -0.00000075      -0.00000000        1       0.00000419      -0.00000419      -0.00000000
I       -0.00000362       0.00000362       3.19353490        2      -0.00000258       0.00000258       0.00000000
I        3.19353723       0.00000362       0.00000000        3      -0.00000192       0.00000258       0.00000000
I       -0.00000362       3.19353257       0.00000000        4      -0.00000258       0.00000193       0.00000000
