5
Lattice="7.025766406488838 0.0 0.0 0.0 7.025766406488837 0.0 0.0 0.0 7.025766406488837" Properties=species:S:1:pos:R:3:oxi_states:R:1 pbc="T T T"
Cs       3.51294279       3.51282362       3.51288320       1.00000000
Pb      -0.00000000      -0.00000000       0.00000000       2.00000000
I        0.00000000      -0.00000000       3.51288320      -1.00000000
I        3.51288320       0.00000000      -0.00000000      -1.00000000
I       -0.00000000       3.51288320       0.00000000      -1.00000000
