5
Lattice="6.294183164535078 -0.8469382848002208 0.675790307435527 0.6864437972205513 6.202697099177832 1.361596045365236 -0.8415942387128779 -1.2661338478817548 6.203509294963149" Properties=species:S:1:pos:R:3:spacegroup_kinds:I:1:forces:R:3 spacegroup="P 1" unit_cell=conventional occupancy="_JSON {\"0\": {\"Cs\": 1.0}, \"1\": {\"Pb\": 1.0}, \"2\": {\"I\": 1.0}, \"3\": {\"I\": 1.0}, \"4\": {\"I\": 1.0}}" energy=-13.980739845576874 free_energy=-13.980739845576874 stress="-4.562530382599392e-06 -2.5034376312976354e-06 -1.7802219434174715e-05 -2.5034376312976354e-06 5.566565605997802e-06 1.1188066335483896e-05 -1.7802219434174715e-05 1.1188066335483896e-05 6.676528351412874e-07" pbc="T T T"
Cs       3.06970848       2.04442708       4.11965827        0       0.00002102      -0.00001424      -0.00007363
Pb       0.00011122      -0.00000888       0.00013817        1      -0.00004358       0.00009399      -0.00023386
I       -0.42088023      -0.63290919       3.10168102        2      -0.00005118      -0.00003299       0.00038533
I        3.14707565      -0.42344092       0.33815237        3       0.00009604       0.00004166      -0.00001119
I        0.34323729       3.10136342       0.68125587        4      -0.00002229      -0.00008842      -0.00006665
