20
Lattice="21.677086875509655 0.0 0.0 -0.8354118886522764 9.261562699634498 0.0 0.0 0.0 8.828718559118702" Properties=species:S:1:pos:R:3 pbc="T T T"
Cs       3.97603486       6.17437601      -0.00002748
Cs       7.86735330       3.08718844      -0.00002748
K        0.92013325       0.00000088       4.41436320
In       0.92013884       0.00000088       0.00001745
I        3.54296429       2.42838588       1.76634824
I        8.30044660       6.83317857       7.06239792
I        2.84186991      -0.00000000       7.06238412
I        7.99667352      -0.00000000       1.76633444
I        0.30376021       6.83319043       1.76634144
I        0.70108152       2.42839774       7.06239113
Cs      14.81457830       6.17437601      -0.00002748
Cs      18.70589674       3.08718844      -0.00002748
K       11.75867669       0.00000088       4.41436320
In      11.75868228       0.00000088       0.00001745
I       14.38150773       2.42838588       1.76634824
I       19.13899003       6.83317857       7.06239792
I       13.68041335      -0.00000000       7.06238412
I       18.83521696      -0.00000000       1.76633444
I       11.14230365       6.83319043       1.76634144
I       11.53962496       2.42839774       7.06239113
