20
Lattice="18.406713986235484 -0.10937176830010181 -2.6042169682000926 -4.430090284745157 8.03770955890833 1.4909786110505587 1.2210326613878846 -0.9396816322499688 8.693519291080024" Properties=species:S:1:pos:R:3:spacegroup_kinds:I:1:forces:R:3 spacegroup="P 1" unit_cell=conventional occupancy="_JSON {\"0\": {\"Cs\": 1.0}, \"1\": {\"Cs\": 1.0}, \"2\": {\"K\": 1.0}, \"3\": {\"In\": 1.0}, \"4\": {\"I\": 1.0}, \"5\": {\"I\": 1.0}, \"6\": {\"I\": 1.0}, \"7\": {\"I\": 1.0}, \"8\": {\"I\": 1.0}, \"9\": {\"I\": 1.0}, \"10\": {\"Cs\": 1.0}, \"11\": {\"Cs\": 1.0}, \"12\": {\"K\": 1.0}, \"13\": {\"In\": 1.0}, \"14\": {\"I\": 1.0}, \"15\": {\"I\": 1.0}, \"16\": {\"I\": 1.0}, \"17\": {\"I\": 1.0}, \"18\": {\"I\": 1.0}, \"19\": {\"I\": 1.0}}" energy=-51.587614156069925 free_energy=-51.587614156069925 stress="-9.799479154930479e-06 7.288924466967863e-06 1.2690475313488746e-06 7.288924466967863e-06 1.2953271192019207e-05 -8.660056451856771e-07 1.2690475313488746e-06 -8.660056451856771e-07 4.148270820146143e-06" pbc="T T T"
Cs       6.41260422       1.70747708       8.21097726        0       0.00061596      -0.00022620       0.00012604
Cs       0.65977248       5.33438496       0.51908191        1      -0.00054525       0.00043718      -0.00036086
K        1.14926641      -0.47077321       4.27035546        2       0.00024430      -0.00008125       0.00067377
In       0.53926701      -0.00071683      -0.07564531        3      -0.00036199       0.00024855      -0.00086261
I        7.57335940      -0.20550175       0.70470268        4      -0.00014335      -0.00027412      -0.00024895
I       -0.50118979       7.24804613       8.02586037        5       0.00058731      -0.00053794       0.00013936
I        2.05426846       1.89179843       1.70986459        6       0.00016871       0.00020917      -0.00022618
I        5.01812289       5.15035155       7.02107695        7       0.00010995      -0.00046928      -0.00002688
I        6.69977792       5.67567263       1.46226945        8      -0.00051953       0.00024390       0.00038694
I        0.37323976       1.36579142       7.26777974        9      -0.00015626       0.00045005       0.00039955
Cs      15.61596121       1.65279120       6.90886878       10       0.00061597      -0.00022625       0.00012603
Cs       9.86312947       5.27969907      -0.78302658       11      -0.00054525       0.00043722      -0.00036085
K       10.35262340      -0.52545910       2.96824697       12       0.00024435      -0.00008127       0.00067383
In       9.74262396      -0.05540270      -1.37775373       13      -0.00036174       0.00024847      -0.00086301
I       16.77671637      -0.26018763      -0.59740577       14      -0.00014320      -0.00027413      -0.00024910
I        8.70216723       7.19336024       6.72375186       15       0.00058716      -0.00053794       0.00013950
I       11.25762545       1.83711255       0.40775610       16       0.00016872       0.00020920      -0.00022613
I       14.22147988       5.09566567       5.71896847       17       0.00010993      -0.00046932      -0.00002692
I       -2.50357907       5.73035851       2.76437793       18      -0.00051952       0.00024390       0.00038694
I        9.57659675       1.31110554       5.96567126       19      -0.00015628       0.00045005       0.00039954
