20
Lattice="17.667040509275754 0.0 0.0 -4.220521999236188 7.760043436931329 0.0 2.277005760708568 -1.706312917952812 7.889957206482416" Properties=species:S:1:pos:R:3 pbc="T T T"
Cs       7.27446150       0.88439730       7.88252420
Cs       0.65038848       5.17418396       0.00739800
K        1.65592745      -0.85073334       3.94497940
In       0.51742840       0.00242470       0.00000983
I        7.49019093      -0.33350571       1.57824852
I        0.43465592       6.39207241       6.31171611
I        2.18707890       1.69328533       1.57825203
I        5.73778311       4.36530423       6.31171963
I        6.68794483       5.38358698       1.57824710
I        1.23690503       0.67499890       6.31171470
Cs      16.10798175       0.88439730       7.88252420
Cs       9.48390874       5.17418396       0.00739800
K       10.48944771      -0.85073334       3.94497940
In       9.35094866       0.00242470       0.00000983
I       16.32371118      -0.33350571       1.57824852
I        9.26817617       6.39207241       6.31171611
I       11.02059915       1.69328533       1.57825203
I       14.57130336       4.36530423       6.31171963
I       15.52146509       5.38358698       1.57824710
I       10.07042528       0.67499890       6.31171470
