20
Lattice="18.10708761840571 -4.122895902157375 0.9950042098054799 -2.703000223064559 8.816832934540576 -1.2052001005813682 -0.22736853150307346 1.1302837495024594 8.752743854335982" Properties=species:S:1:pos:R:3:spacegroup_kinds:I:1:forces:R:3 spacegroup="P 1" unit_cell=conventional occupancy="_JSON {\"0\": {\"Cs\": 1.0}, \"1\": {\"Cs\": 1.0}, \"2\": {\"K\": 1.0}, \"3\": {\"In\": 1.0}, \"4\": {\"I\": 1.0}, \"5\": {\"I\": 1.0}, \"6\": {\"I\": 1.0}, \"7\": {\"I\": 1.0}, \"8\": {\"I\": 1.0}, \"9\": {\"I\": 1.0}, \"10\": {\"Cs\": 1.0}, \"11\": {\"Cs\": 1.0}, \"12\": {\"K\": 1.0}, \"13\": {\"In\": 1.0}, \"14\": {\"I\": 1.0}, \"15\": {\"I\": 1.0}, \"16\": {\"I\": 1.0}, \"17\": {\"I\": 1.0}, \"18\": {\"I\": 1.0}, \"19\": {\"I\": 1.0}}" energy=-51.58763338938563 free_energy=-51.58763338938563 stress="-1.1848106189623673e-06 -2.423902328425954e-06 -3.819886628466787e-06 -2.423902328425954e-06 2.7420252538940807e-06 2.10656325107595e-06 -3.819886628466787e-06 2.10656325107595e-06 -3.962177412112645e-06" pbc="T T T"
Cs       2.09793103       6.81533742       8.08279641        0       0.00018077       0.00010908       0.00004289
Cs       6.01789644       3.18911026       8.64443797        1      -0.00017542       0.00000523       0.00002187
K        0.99646580       1.05918575       4.34107501        2      -0.00010036       0.00017209       0.00002246
In       1.10992325       0.49447011      -0.03530015        3       0.00011565      -0.00009849      -0.00002182
I        2.73163130       2.49005732       1.53059239        4       0.00000201       0.00017433       0.00012920
I        5.61142051       6.38393165       6.44388626        5       0.00048276       0.00050766       0.00027794
I        3.30131938       0.85634666       7.09749023        6       0.00026573       0.00022165      -0.00019729
I        7.74475463      -0.79900110       2.08231647        7      -0.00019024      -0.00012369      -0.00013976
I       -0.93117775       7.22518316       0.82703234        8      -0.00017427      -0.00016875       0.00032752
I        0.22089657       3.71075074       6.64977985        9      -0.00000479      -0.00008781      -0.00018626
Cs      11.15145815       4.75396804       8.58030226       10      -0.00011091       0.00006398      -0.00005546
Cs      15.07127225       1.12763459       9.14212414       11       0.00006009       0.00025283      -0.00007779
K       10.04946190      -1.00167919       4.83864497       12       0.00013572      -0.00014418       0.00006525
In      10.16358778      -1.56720352       0.46229502       13      -0.00031594      -0.00018436      -0.00016648
I       11.78508550       0.42869196       2.02813732       14       0.00003620       0.00007365       0.00001371
I       14.66513247       4.32294992       6.94143859       15      -0.00031876      -0.00041056      -0.00013865
I       12.35505381      -1.20460121       7.59482282       16      -0.00033029      -0.00030015       0.00018074
I       16.79814639      -2.86049776       2.57974390       17       0.00013396       0.00000501       0.00025841
I        8.12212769       5.16371975       1.32502003       18       0.00015190       0.00001584      -0.00047202
I        9.27421375       1.64918032       7.14731685       19       0.00015620      -0.00008335       0.00011555
