5
Lattice="6.067707351058542 0.0 0.0 0.0 6.067707351058541 0.0 0.0 0.0 6.067707351058541" Properties=species:S:1:pos:R:3:oxi_states:R:1 pbc="T T T"
Cs       3.03404210       3.03366525       3.03385368       1.00000000
Pb      -0.00000000      -0.00000000       0.00000000       2.00000000
I        0.00000000      -0.00000000       3.03385368      -1.00000000
I        3.03385368       0.00000000      -0.00000000      -1.00000000
I       -0.00000000       3.03385368       0.00000000      -1.00000000
