5
Lattice="6.387059927617452 -4.540613962978901e-09 -7.30554527128086e-17 -4.5406139633356e-09 6.3870599276174955 -7.27359866329704e-17 -7.337179187093608e-17 -7.256110613033913e-17 6.3870599265509345" Properties=species:S:1:pos:R:3:spacegroup_kinds:I:1:forces:R:3 spacegroup="P 1" unit_cell=conventional occupancy="_JSON {\"0\": {\"Cs\": 1.0}, \"1\": {\"Pb\": 1.0}, \"2\": {\"I\": 1.0}, \"3\": {\"I\": 1.0}, \"4\": {\"I\": 1.0}}" energy=-13.980742428567893 free_energy=-13.980742428567893 stress="-1.957268217627757e-07 -3.6061554352036845e-11 -5.852783953631761e-18 -3.6061554352036845e-11 -1.9572682201431976e-07 -1.5515977801494738e-17 -5.852783953631761e-18 -1.5515977801494738e-17 -1.957178865978944e-07" pbc="T T T"
Cs       3.19371520       3.19334472       3.19352996        0       0.00000736      -0.00000736      -0.00000000
Pb       0.00000612      -0.00000612      -0.00000000        1       0.00000431      -0.00000431      -0.00000000
I        0.00000245      -0.00000245       3.19352996        2      -0.00001197       0.00001197      -0.00000000
I        3.19353204      -0.00000245      -0.00000000        3       0.00001228       0.00001197       0.00000000
I        0.00000245       3.19352789      -0.00000000        4      -0.00001197      -0.00001228       0.00000000
