20
Lattice="18.596884746606058 0.0 0.0 -5.297865313864431 8.006922983269448 0.0 4.704243942377011 0.17526719742962021 8.356919979161685" Properties=species:S:1:pos:R:3 pbc="T T T"
Cs      12.04247863       2.85771550       8.34896716
Cs       2.48164152       5.35175208       0.00775596
K        2.35212197       0.08763360       4.17845999
In       2.90968004       0.01363491       0.00005529
I       10.71035696       0.05422202       1.67167322
I        3.81374552       8.15516373       6.68528849
I        4.90480327       2.14554626       1.67169298
I        9.61938449       6.06396802       6.68530825
I        9.23583210       5.95324343       1.67166527
I        5.28828735       2.25625013       6.68528054
Cs      21.34092101       2.85771550       8.34896716
Cs      11.78008389       5.35175208       0.00775596
K       11.65056434       0.08763360       4.17845999
In      12.20812241       0.01363491       0.00005529
I       20.00879934       0.05422202       1.67167322
I       13.11218789       8.15516373       6.68528849
I       14.20324564       2.14554626       1.67169298
I       18.91782686       6.06396802       6.68530825
I       18.53427447       5.95324343       1.67166527
I       14.58672972       2.25625013       6.68528054
