40
Lattice="15.544796606108019 0.0 0.0 3.6736290624112127 19.002483906448198 0.0 0.16658302736574984 0.4487591129704673 8.211354561984832" Properties=species:S:1:pos:R:3 pbc="T T T"
Cs       2.44394906       2.48750046       2.05283789
Cs       7.33184679       7.46250059       6.15851666
K        4.88789797       4.97500057       4.10567738
In       0.00000005       0.00000005       0.00000001
I        2.36293819       2.54992901       6.29992021
I        7.41285778       7.40007217       1.91143449
I        6.43572531       2.31442987       1.90901705
I        3.34007067       7.63557128       6.30233764
I        3.25528531       7.39681435       1.90765170
I        6.52051064       2.55318685       6.30370299
Cs       4.28076359      11.98874241       2.05283789
Cs       9.16866132      16.96374255       6.15851666
K        6.72471250      14.47624253       4.10567738
In       1.83681458       9.50124200       0.00000001
I        4.19975273      12.05117096       6.29992021
I        9.24967231      16.90131412       1.91143449
I        8.27253984      11.81567182       1.90901705
I        5.17688520      17.13681323       6.30233764
I        5.09209984      16.89805630       1.90765170
I        8.35732517      12.05442881       6.30370299
Cs      10.21634736       2.48750046       2.05283789
Cs      15.10424510       7.46250059       6.15851666
K       12.66029627       4.97500057       4.10567738
In       7.77239835       0.00000005       0.00000001
I       10.13533650       2.54992901       6.29992021
I       15.18525608       7.40007217       1.91143449
I       14.20812361       2.31442987       1.90901705
I       11.11246897       7.63557128       6.30233764
I       11.02768361       7.39681435       1.90765170
I       14.29290894       2.55318685       6.30370299
Cs      12.05316189      11.98874241       2.05283789
Cs      16.94105963      16.96374255       6.15851666
K       14.49711080      14.47624253       4.10567738
In       9.60921288       9.50124200       0.00000001
I       11.97215103      12.05117096       6.29992021
I       17.02207061      16.90131412       1.91143449
I       16.04493814      11.81567182       1.90901705
I       12.94928350      17.13681323       6.30233764
I       12.86449814      16.89805630       1.90765170
I       16.12972348      12.05442881       6.30370299
