40
Lattice="15.879648784413842 0.0 0.0 -6.511014866673751 16.654511360746618 0.0 -0.919477027526533 -2.0065446485840472 7.346803482949632" Properties=species:S:1:pos:R:3 pbc="T T T"
Cs       2.85469356       7.03240837      -0.00006048
Cs       6.58647083       4.25665648      -0.00006048
K       -0.45973851      -1.00327232       3.67340174
In       2.37845093       1.48091489       0.00005564
I        3.42272571       3.26287591       1.46989848
I        5.09902038       6.01965456       5.87699743
I        1.34630466      -1.60510146       5.87695122
I        5.67404271      -0.40144319       1.46985227
I       -2.58586916       5.74240312       1.46985227
I       -1.58911530       0.57830791       5.87695122
Cs      -0.40081388      15.35966405      -0.00006048
Cs       3.33096340      12.58391216      -0.00006048
K       -3.71524595       7.32398336       3.67340174
In      -0.87705650       9.80817057       0.00005564
I        0.16721828      11.59013159       1.46989848
I        1.84351294      14.34691024       5.87699743
I       -1.90920278       6.72215422       5.87695122
I        2.41853528       7.92581249       1.46985227
I       -5.84137660      14.06965880       1.46985227
I       -4.84462273       8.90556360       5.87695122
Cs      10.79451795       7.03240837      -0.00006048
Cs      14.52629522       4.25665648      -0.00006048
K        7.48008588      -1.00327232       3.67340174
In      10.31827532       1.48091489       0.00005564
I       11.36255010       3.26287591       1.46989848
I       13.03884477       6.01965456       5.87699743
I        9.28612905      -1.60510146       5.87695122
I       13.61386710      -0.40144319       1.46985227
I        5.35395523       5.74240312       1.46985227
I        6.35070909       0.57830791       5.87695122
Cs       7.53901051      15.35966405      -0.00006048
Cs      11.27078779      12.58391216      -0.00006048
K        4.22457845       7.32398336       3.67340174
In       7.06276789       9.80817057       0.00005564
I        8.10704267      11.59013159       1.46989848
I        9.78333734      14.34691024       5.87699743
I        6.03062162       6.72215422       5.87695122
I       10.35835967       7.92581249       1.46985227
I        2.09844780      14.06965880       1.46985227
I        3.09520166       8.90556360       5.87695122
