80
Lattice="16.603215220930327 -0.39457490058970696 -0.9751060793811591 10.340449669076705 18.632546120496215 -1.408790877578774 14.734524727614875 10.015206310540634 11.462783027207559" Properties=species:S:1:pos:R:3:spacegroup_kinds:I:1:forces:R:3 spacegroup="P 1" unit_cell=conventional occupancy="_JSON {\"0\": {\"Cs\": 1.0}, \"1\": {\"Cs\": 1.0}, \"2\": {\"K\": 1.0}, \"3\": {\"In\": 1.0}, \"4\": {\"I\": 1.0}, \"5\": {\"I\": 1.0}, \"6\": {\"I\": 1.0}, \"7\": {\"I\": 1.0}, \"8\": {\"I\": 1.0}, \"9\": {\"I\": 1.0}, \"10\": {\"Cs\": 1.0}, \"11\": {\"Cs\": 1.0}, \"12\": {\"K\": 1.0}, \"13\": {\"In\": 1.0}, \"14\": {\"I\": 1.0}, \"15\": {\"I\": 1.0}, \"16\": {\"I\": 1.0}, \"17\": {\"I\": 1.0}, \"18\": {\"I\": 1.0}, \"19\": {\"I\": 1.0}, \"20\": {\"Cs\": 1.0}, \"21\": {\"Cs\": 1.0}, \"22\": {\"K\": 1.0}, \"23\": {\"In\": 1.0}, \"24\": {\"I\": 1.0}, \"25\": {\"I\": 1.0}, \"26\": {\"I\": 1.0}, \"27\": {\"I\": 1.0}, \"28\": {\"I\": 1.0}, \"29\": {\"I\": 1.0}, \"30\": {\"Cs\": 1.0}, \"31\": {\"Cs\": 1.0}, \"32\": {\"K\": 1.0}, \"33\": {\"In\": 1.0}, \"34\": {\"I\": 1.0}, \"35\": {\"I\": 1.0}, \"36\": {\"I\": 1.0}, \"37\": {\"I\": 1.0}, \"38\": {\"I\": 1.0}, \"39\": {\"I\": 1.0}, \"40\": {\"Cs\": 1.0}, \"41\": {\"Cs\": 1.0}, \"42\": {\"K\": 1.0}, \"43\": {\"In\": 1.0}, \"44\": {\"I\": 1.0}, \"45\": {\"I\": 1.0}, \"46\": {\"I\": 1.0}, \"47\": {\"I\": 1.0}, \"48\": {\"I\": 1.0}, \"49\": {\"I\": 1.0}, \"50\": {\"Cs\": 1.0}, \"51\": {\"Cs\": 1.0}, \"52\": {\"K\": 1.0}, \"53\": {\"In\": 1.0}, \"54\": {\"I\": 1.0}, \"55\": {\"I\": 1.0}, \"56\": {\"I\": 1.0}, \"57\": {\"I\": 1.0}, \"58\": {\"I\": 1.0}, \"59\": {\"I\": 1.0}, \"60\": {\"Cs\": 1.0}, \"61\": {\"Cs\": 1.0}, \"62\": {\"K\": 1.0}, \"63\": {\"In\": 1.0}, \"64\": {\"I\": 1.0}, \"65\": {\"I\": 1.0}, \"66\": {\"I\": 1.0}, \"67\": {\"I\": 1.0}, \"68\": {\"I\": 1.0}, \"69\": {\"I\": 1.0}, \"70\": {\"Cs\": 1.0}, \"71\": {\"Cs\": 1.0}, \"72\": {\"K\": 1.0}, \"73\": {\"In\": 1.0}, \"74\": {\"I\": 1.0}, \"75\": {\"I\": 1.0}, \"76\": {\"I\": 1.0}, \"77\": {\"I\": 1.0}, \"78\": {\"I\": 1.0}, \"79\": {\"I\": 1.0}}" energy=-203.58822611429937 free_energy=-203.58822611429937 stress="-6.582909716766338e-06 3.3404699664853174e-06 -2.1048075497054043e-06 3.3404699664853174e-06 3.592796138484046e-06 1.0115263846387125e-05 -2.1048075497054043e-06 1.0115263846387125e-05 1.1848441720212197e-06" pbc="T T T"
Cs       5.29300810       3.97174713       1.32186342        0      -0.00007101      -0.00004986      -0.00008919
Cs      15.54600524      10.15494094       3.21780022        1       0.00005505      -0.00006404      -0.00003359
K       10.41957273       7.06325944       2.26967007        2      -0.00003628       0.00007176       0.00000296
In      16.60322862      -0.39464517      -0.97509291        3       0.00014479       0.00034550      -0.00016869
I        8.62315808       4.26333735       3.17053555        4       0.00009488      -0.00003649      -0.00024833
I       12.21603673       9.86321916       1.36894812        5      -0.00011108       0.00006840       0.00001097
I       10.08594026       2.27948857      -0.40458590        6       0.00014367      -0.00001659      -0.00001795
I       10.75303261      11.84719195       4.94397892        7       0.00005411      -0.00007410       0.00000913
I        7.25258019       7.65627058       0.65086829        8       0.00009993       0.00001420       0.00012441
I       13.58651996       6.47021557       3.88844042        9      -0.00003956       0.00004763       0.00013364
Cs      12.66025507       8.97935115       7.05324802       10       0.00000955      -0.00004300      -0.00005056
Cs      22.91326769      15.16255009       8.94918911       11       0.00005649      -0.00009388      -0.00002986
K       17.78683787      12.07086303       8.00103783       12      -0.00003708       0.00007635       0.00007748
In      23.97057280       4.61299271       4.75623434       13      -0.00045829       0.00025685       0.00033799
I       15.99044932       9.27092756       8.90186260       14      -0.00008513       0.00004064       0.00015858
I       19.58327895      14.87083177       7.10038896       15       0.00005187      -0.00001040      -0.00034164
I       17.45321185       7.28709314       5.32678566       16       0.00010183      -0.00003024       0.00001346
I       18.12027723      16.85474829      10.67537281       17       0.00015042       0.00009731       0.00004063
I       14.61987123      12.66383600       6.38230997       18      -0.00012679       0.00015679      -0.00008900
I       20.95377791      11.47782677       9.61986644       19      -0.00001213       0.00001501       0.00004222
Cs      10.46321804      13.28802967       0.61745534       20       0.00002212      -0.00008670      -0.00003077
Cs      20.71623298      19.47121594       2.51341332       21       0.00005321      -0.00009407      -0.00006054
K       15.58978401      16.37951258       1.56527811       22       0.00005176       0.00014367       0.00000560
In      21.77352238       8.92176401      -1.67953035       23      -0.00026178      -0.00034101       0.00007815
I       13.79340342      13.57960774       2.46610142       24      -0.00006332      -0.00000430       0.00004123
I       17.38626551      19.17953099       0.66450663       25      -0.00007614      -0.00007909      -0.00000972
I       15.25617646      11.59577942      -1.10899918       26       0.00008164      -0.00009512       0.00000370
I       15.92325576      21.16345634       4.23958820       27       0.00006957      -0.00003813       0.00001631
I       12.42283099      16.97251305      -0.05349073       28      -0.00002720       0.00006581       0.00002566
I       18.75673169      15.78651256       3.18403927       29       0.00005672      -0.00003881       0.00017074
Cs      17.83049302      18.29563351       6.34885083       30      -0.00002363      -0.00009796      -0.00003571
Cs      28.08348494      24.47881817       8.24479590       31       0.00009838      -0.00007521      -0.00004036
K       22.95706337      21.38715618       7.29666076       32      -0.00003957      -0.00001064       0.00000745
In      29.14070464      13.92935201       4.05186317       33       0.00030615      -0.00030289       0.00005053
I       21.16064601      18.58719049       8.19754426       34       0.00005713       0.00006439      -0.00021191
I       24.75351825      24.18709034       6.39598327       35      -0.00006921       0.00004052      -0.00016990
I       22.62344161      16.60339998       4.62238650       36       0.00004305      -0.00017400       0.00000533
I       23.29052583      26.17107980       9.97097369       37       0.00000271      -0.00015023       0.00003015
I       19.79006941      21.98014015       5.67786218       38       0.00012732      -0.00001333       0.00016487
I       26.12401493      20.79408152       8.91546112       39      -0.00009598       0.00010010       0.00004705
Cs      13.59460202       3.77446407       0.83430274       40       0.00000769      -0.00006549      -0.00005974
Cs      23.84761656       9.95765160       2.73025443       41       0.00004410      -0.00008599      -0.00004731
K       18.72115830       6.86594225       1.78214591       42       0.00008057       0.00015666      -0.00006453
In       8.30167935      -0.19730880      -0.48758917       43      -0.00028223       0.00015139       0.00015652
I       16.92479952       4.06605275       2.68292510       44      -0.00012045      -0.00001192       0.00012589
I       20.51766104       9.66596188       0.88131640       45      -0.00015402      -0.00003285       0.00017270
I       18.38756927       2.08226260      -0.89215388       46      -0.00000671      -0.00028706      -0.00001286
I       19.05463446      11.64989942       4.45643663       47       0.00010216      -0.00003471      -0.00001803
I       15.55421403       7.45894196       0.16334495       48      -0.00008281       0.00015654      -0.00002065
I       21.88812348       6.27292845       3.40089787       49       0.00001422       0.00002161       0.00014074
Cs      20.96186357       8.78206963       6.56568850       50       0.00001112      -0.00008681      -0.00002808
Cs      31.21487242      14.96525893       8.46164009       51       0.00009409      -0.00008466      -0.00003600
K       26.08842639      11.87355346       7.51350913       52       0.00007122       0.00014232       0.00001640
In      15.66891628       4.81035780       5.24383652       53      -0.00005364      -0.00017675      -0.00005884
I       24.29204104       9.07364815       8.41437506       54       0.00002664      -0.00004613      -0.00018679
I       27.88492572      14.67356656       6.61270946       55      -0.00019081      -0.00002953       0.00022432
I       25.75481591       7.08981928       4.83923122       56       0.00011068      -0.00005811       0.00001875
I       26.42190459      16.65749767      10.18781978       57       0.00006877      -0.00003288       0.00001295
I       22.92148822      12.46653853       5.89476144       58      -0.00007431       0.00012692      -0.00005221
I       29.25539579      11.28053523       9.13231107       59      -0.00004928       0.00001501       0.00005787
Cs      18.76482666      13.09073434       0.12990679       60      -0.00002616      -0.00005013      -0.00005379
Cs      29.01783713      19.27392479       2.02585786       61       0.00006827      -0.00005287      -0.00005195
K       23.89139076      16.18221579       1.07772018       62       0.00004316       0.00018024       0.00002483
In      13.47184741       9.11900930      -1.19193383       63       0.00018117      -0.00016980      -0.00018222
I       22.09502177      13.38233473       1.97852118       64      -0.00005538      -0.00004801       0.00007430
I       25.68786712      18.98224363       0.17697906       65      -0.00009315      -0.00008296       0.00002080
I       23.55775723      11.39844097      -1.59652681       66       0.00026438       0.00015004      -0.00003268
I       24.22485850      20.96613874       3.75202277       67       0.00011841       0.00007152       0.00004444
I       20.72442361      16.77524403      -0.54105706       68       0.00007467       0.00000788       0.00007856
I       27.05838233      15.58916223       2.69656801       69      -0.00028816       0.00023179      -0.00017665
Cs      26.13209277      18.09833504       5.86129864       70      -0.00000902      -0.00004395      -0.00003991
Cs      36.38510086      24.28153451       7.75724468       71       0.00002767      -0.00008707      -0.00005143
K       31.25866178      21.18984608       6.80910854       72       0.00000331       0.00007542       0.00002060
In      20.83914248      14.12654604       4.53941906       73      -0.00016068       0.00022112       0.00018991
I       29.46228543      18.38991438       7.70990824       74      -0.00012302       0.00007696       0.00020599
I       33.05511563      23.98981383       5.90842276       75       0.00004635      -0.00002566      -0.00030120
I       30.92503120      16.40607791       4.13485796       76       0.00016535      -0.00001885      -0.00004392
I       31.59212639      25.97376726       9.48342347       77       0.00006076      -0.00003811       0.00003098
I       28.09169839      21.78283049       5.19032841       78      -0.00005586       0.00011424       0.00001913
I       34.42562930      20.59677954       8.42794589       79      -0.00015723       0.00016582      -0.00008741
