80
Lattice="14.584721460332885 0.0 0.0 9.418002097899759 13.927534814972583 0.0 13.741828866360251 8.03141378896661 8.644482476679277" Properties=species:S:1:pos:R:3 pbc="T T T"
Cs       4.71804614       2.74486162       1.08056128
Cs      14.15423000       8.23461249       3.24167985
K        9.43613818       5.48973712       2.16112059
In       0.00000009       0.00000017       0.00000006
I        8.28805871       4.38287978       2.92969075
I       10.58421765       6.59659434       1.39255041
I        8.74111937       2.86416940       1.01046920
I       10.13115672       8.11530467       3.31177192
I        6.90903879       6.27328327       0.99848504
I       11.96323772       4.70619140       3.32375636
Cs      11.58896057       6.76056852       5.40280251
Cs      21.02514444      12.25031939       7.56392109
K       16.30705261       9.50544401       6.48336183
In       6.87091452       4.01570707       4.32224130
I       15.15897315       8.39858667       7.25193199
I       17.45513209      10.61230123       5.71479165
I       15.61203381       6.87987629       5.33271044
I       17.00207115      12.13101157       7.63401316
I       13.77995323      10.28899017       5.32072628
I       18.83415216       8.72189829       7.64599759
Cs       9.42704719       9.70862903       1.08056128
Cs      18.86323105      15.19837990       3.24167985
K       14.14513923      12.45350453       2.16112059
In       4.70900114       6.96376758       0.00000006
I       12.99705976      11.34664718       2.92969075
I       15.29321870      13.56036174       1.39255041
I       13.45012042       9.82793681       1.01046920
I       14.84015777      15.07907208       3.31177192
I       11.61803984      13.23705068       0.99848504
I       16.67223877      11.66995881       3.32375636
Cs      16.29796162      13.72433593       5.40280251
Cs      25.73414549      19.21408680       7.56392109
K       21.01605366      16.46921142       6.48336183
In      11.57991557      10.97947448       4.32224130
I       19.86797419      15.36235408       7.25193199
I       22.16413314      17.57606864       5.71479165
I       20.32103485      13.84364370       5.33271044
I       21.71107220      19.09477897       7.63401316
I       18.48895428      17.25275757       5.32072628
I       23.54315320      15.68566570       7.64599759
Cs      12.01040687       2.74486162       1.08056128
Cs      21.44659073       8.23461249       3.24167985
K       16.72849891       5.48973712       2.16112059
In       7.29236082       0.00000017       0.00000006
I       15.58041944       4.38287978       2.92969075
I       17.87657838       6.59659434       1.39255041
I       16.03348010       2.86416940       1.01046920
I       17.42351745       8.11530467       3.31177192
I       14.20139953       6.27328327       0.99848504
I       19.25559845       4.70619140       3.32375636
Cs      18.88132130       6.76056852       5.40280251
Cs      28.31750517      12.25031939       7.56392109
K       23.59941334       9.50544401       6.48336183
In      14.16327525       4.01570707       4.32224130
I       22.45133388       8.39858667       7.25193199
I       24.74749282      10.61230123       5.71479165
I       22.90439454       6.87987629       5.33271044
I       24.29443188      12.13101157       7.63401316
I       21.07231396      10.28899017       5.32072628
I       26.12651289       8.72189829       7.64599759
Cs      16.71940792       9.70862903       1.08056128
Cs      26.15559178      15.19837990       3.24167985
K       21.43749996      12.45350453       2.16112059
In      12.00136187       6.96376758       0.00000006
I       20.28942049      11.34664718       2.92969075
I       22.58557943      13.56036174       1.39255041
I       20.74248115       9.82793681       1.01046920
I       22.13251850      15.07907208       3.31177192
I       18.91040057      13.23705068       0.99848504
I       23.96459950      11.66995881       3.32375636
Cs      23.59032235      13.72433593       5.40280251
Cs      33.02650622      19.21408680       7.56392109
K       28.30841439      16.46921142       6.48336183
In      18.87227630      10.97947448       4.32224130
I       27.16033492      15.36235408       7.25193199
I       29.45649387      17.57606864       5.71479165
I       27.61339558      13.84364370       5.33271044
I       29.00343293      19.09477897       7.63401316
I       25.78131501      17.25275757       5.32072628
I       30.83551393      15.68566570       7.64599759
