80
Lattice="22.241305323717594 -1.7891923155586071 -1.1094079220354316 -17.44171736575991 13.579140001900559 1.3428537820514554 -3.3766745338501196 -5.216782346755562 19.988236841306733" Properties=species:S:1:pos:R:3:spacegroup_kinds:I:1:forces:R:3 spacegroup="P 1" unit_cell=conventional occupancy="_JSON {\"0\": {\"Cs\": 1.0}, \"1\": {\"Cs\": 1.0}, \"2\": {\"K\": 1.0}, \"3\": {\"In\": 1.0}, \"4\": {\"I\": 1.0}, \"5\": {\"I\": 1.0}, \"6\": {\"I\": 1.0}, \"7\": {\"I\": 1.0}, \"8\": {\"I\": 1.0}, \"9\": {\"I\": 1.0}, \"10\": {\"Cs\": 1.0}, \"11\": {\"Cs\": 1.0}, \"12\": {\"K\": 1.0}, \"13\": {\"In\": 1.0}, \"14\": {\"I\": 1.0}, \"15\": {\"I\": 1.0}, \"16\": {\"I\": 1.0}, \"17\": {\"I\": 1.0}, \"18\": {\"I\": 1.0}, \"19\": {\"I\": 1.0}, \"20\": {\"Cs\": 1.0}, \"21\": {\"Cs\": 1.0}, \"22\": {\"K\": 1.0}, \"23\": {\"In\": 1.0}, \"24\": {\"I\": 1.0}, \"25\": {\"I\": 1.0}, \"26\": {\"I\": 1.0}, \"27\": {\"I\": 1.0}, \"28\": {\"I\": 1.0}, \"29\": {\"I\": 1.0}, \"30\": {\"Cs\": 1.0}, \"31\": {\"Cs\": 1.0}, \"32\": {\"K\": 1.0}, \"33\": {\"In\": 1.0}, \"34\": {\"I\": 1.0}, \"35\": {\"I\": 1.0}, \"36\": {\"I\": 1.0}, \"37\": {\"I\": 1.0}, \"38\": {\"I\": 1.0}, \"39\": {\"I\": 1.0}, \"40\": {\"Cs\": 1.0}, \"41\": {\"Cs\": 1.0}, \"42\": {\"K\": 1.0}, \"43\": {\"In\": 1.0}, \"44\": {\"I\": 1.0}, \"45\": {\"I\": 1.0}, \"46\": {\"I\": 1.0}, \"47\": {\"I\": 1.0}, \"48\": {\"I\": 1.0}, \"49\": {\"I\": 1.0}, \"50\": {\"Cs\": 1.0}, \"51\": {\"Cs\": 1.0}, \"52\": {\"K\": 1.0}, \"53\": {\"In\": 1.0}, \"54\": {\"I\": 1.0}, \"55\": {\"I\": 1.0}, \"56\": {\"I\": 1.0}, \"57\": {\"I\": 1.0}, \"58\": {\"I\": 1.0}, \"59\": {\"I\": 1.0}, \"60\": {\"Cs\": 1.0}, \"61\": {\"Cs\": 1.0}, \"62\": {\"K\": 1.0}, \"63\": {\"In\": 1.0}, \"64\": {\"I\": 1.0}, \"65\": {\"I\": 1.0}, \"66\": {\"I\": 1.0}, \"67\": {\"I\": 1.0}, \"68\": {\"I\": 1.0}, \"69\": {\"I\": 1.0}, \"70\": {\"Cs\": 1.0}, \"71\": {\"Cs\": 1.0}, \"72\": {\"K\": 1.0}, \"73\": {\"In\": 1.0}, \"74\": {\"I\": 1.0}, \"75\": {\"I\": 1.0}, \"76\": {\"I\": 1.0}, \"77\": {\"I\": 1.0}, \"78\": {\"I\": 1.0}, \"79\": {\"I\": 1.0}}" energy=-193.7420569824465 free_energy=-193.7420569824465 stress="-5.592301320031627e-07 -6.110922820811574e-07 1.2590850136724966e-06 -6.110922820811574e-07 2.543567877176861e-06 -2.719868589222157e-07 1.2590850136724966e-06 -2.719868589222157e-07 -1.4190423552213554e-06" pbc="T T T"
Cs       5.76736891      -0.53036778      10.63005149        0      -0.00004010      -0.00016612      -0.00003382
Cs       1.33237325       4.62300132      -0.69672654        1       0.00069973       0.00002618      -0.00021212
K        3.09062440      -3.32941738       4.74245690        2       0.00010826       0.00017728      -0.00005991
In       3.06127983       0.47390207       0.99233970        3       0.00002888      -0.00023020       0.00036490
I       11.03655701       0.82415700       0.65082409        4      -0.00021725       0.00055437      -0.00020566
I       -4.09509039       3.31673723       8.72199633        5      -0.00018820      -0.00020202       0.00005244
I        4.04097623       3.48992468       1.84090716        6       0.00039608       0.00033659      -0.00000352
I        3.44972593      -0.76626965       7.34572255        7       0.00009426      -0.00014744      -0.00014126
I        7.86068297       5.30767933       3.12210403        8      -0.00016636      -0.00024587      -0.00022844
I       -0.01577381      -4.06894090       6.44969050        9       0.00014054       0.00023991       0.00008559
Cs       4.06876683      -3.13957029      20.62227506       10       0.00010023       0.00017064      -0.00020162
Cs      -0.34464070       2.01880636       9.29271147       11      -0.00004048       0.00015757       0.00015987
K        1.40079679      -5.93122115      14.73311484       12      -0.00001168      -0.00053829       0.00030049
In       1.38426971      -2.13227502      10.97885767       13      -0.00004418       0.00028020       0.00032841
I        9.35955899      -1.78112310      10.63424925       14      -0.00016098       0.00019052       0.00024397
I       -5.79341548       0.70715301      18.71420614       15       0.00010702       0.00000759       0.00005834
I        2.36305918       0.88373735      11.82902495       16      -0.00007018       0.00011245       0.00000022
I        1.75280701      -3.37487388      17.34118237       17       0.00003556       0.00002604      -0.00051145
I        6.17785335       2.70548609      13.11622425       18      -0.00019176      -0.00033238       0.00016771
I       -1.70595451      -6.67036807      16.44627231       19      -0.00035049      -0.00027916       0.00033264
Cs      -2.95365133       6.25883328      11.30010028       20       0.00003832      -0.00016475      -0.00016040
Cs      -7.38443981      11.41350556      -0.02773545       21       0.00014531       0.00012071       0.00011611
K       -5.62927268       3.46108587       5.41364880       22       0.00011765      -0.00003105       0.00002830
In      -5.65887029       7.26262986       1.66251483       23       0.00003905      -0.00014385       0.00028401
I        2.31693478       7.61646208       1.31587436       24      -0.00003041       0.00027640      -0.00005873
I        4.62630607      -3.47314562       8.05042554       25      -0.00009503      -0.00023572      -0.00010285
I       -4.67812060      10.27820653       2.51102059       26       0.00014627      -0.00000417       0.00003219
I       -5.27026457       6.02388017       8.01566411       27      -0.00003070      -0.00013823       0.00017438
I       -0.86123481      12.09719777       3.79357794       28       0.00041649      -0.00023079       0.00021360
I       -8.73362249       2.72152019       7.12514187       29      -0.00027393       0.00015076       0.00001191
Cs      -4.65124555       3.64975110      21.29108424       30      -0.00005957       0.00033988      -0.00006175
Cs      -9.06473078       8.80599884       9.96157361       31      -0.00051082      -0.00008417      -0.00008605
K       -7.33015088       0.85129439      15.40909220       32       0.00041248      -0.00014005       0.00014440
In      -7.33652468       4.65624120      11.65216155       33      -0.00050461       0.00011643       0.00019824
I        0.63903449       5.01034116      11.30830288       34      -0.00029531      -0.00009657       0.00002534
I        2.93107169      -6.08184871      18.04295144       35      -0.00003774       0.00007848       0.00001367
I       -6.35816540       7.67317995      12.49859873       36      -0.00001351      -0.00003641       0.00010093
I       -6.96814900       3.41558341      18.01067276       37      -0.00002638      -0.00012855      -0.00048716
I       -2.54461233       9.49227999      13.78820208       38      -0.00035308      -0.00016906      -0.00019733
I      -10.43585734       0.11286851      17.12073756       39       0.00003914       0.00002643       0.00019648
Cs      16.88997309      -1.42870411      10.07257954       40      -0.00030415       0.00015668      -0.00004885
Cs      12.45541880       3.72416120      -1.25720645       41       0.00009926       0.00007268      -0.00012087
K       14.20799312      -4.23204008       4.19019360       42      -0.00019943       0.00029648       0.00000664
In      14.18028662      -0.42069651       0.44329385       43       0.00028814      -0.00025085      -0.00058836
I       -0.08410592       1.71508141       1.19844481       44       0.00062993      -0.00026314       0.00008558
I        7.02600545       2.41732217       8.16525204       45       0.00014532       0.00019724      -0.00041629
I       15.16371634       2.59586697       1.28137523       46       0.00002514      -0.00001791      -0.00015885
I       -7.66597694       0.12424343       7.89709014       47      -0.00000204       0.00026787       0.00036433
I       -3.26161344       6.19748543       3.67624405       48       0.00035824       0.00053145       0.00001517
I       11.10171496      -4.95881140       5.89945414       49      -0.00008528      -0.00021154      -0.00007771
Cs      15.18973729      -4.03778232      20.06300000       50       0.00009630      -0.00014314       0.00006309
Cs      10.77789015       1.12106812       8.73085591       51      -0.00013185      -0.00013985      -0.00010070
K       12.51189540      -6.83860405      14.18422912       52      -0.00039660      -0.00012215      -0.00012645
In      12.50342627      -3.02779736      10.42859761       53       0.00006862       0.00033505      -0.00013986
I       -1.75922119      -0.89022524      11.18790191       54      -0.00032962       0.00006040       0.00005011
I        5.32868280      -0.18931208      18.15729582       55       0.00012984       0.00001799       0.00021247
I       13.48513799      -0.01106219      11.26754405       56      -0.00016224      -0.00015464       0.00001315
I       -9.36410886      -2.48416025      17.88993637       57      -0.00012199      -0.00001068       0.00025488
I       -4.94601741       3.59405355      13.67218555       58      -0.00010931       0.00006668       0.00008566
I        9.40517836      -7.56529973      15.89787909       59       0.00017975      -0.00001143      -0.00034412
Cs       8.16863022       5.36159953      10.74043277       60      -0.00005147      -0.00015750       0.00021640
Cs       3.74006466      10.51469923      -0.59161436       61       0.00009458       0.00005369       0.00019244
K        5.48468219       2.55741246       4.86249501       62      -0.00014327       0.00020873       0.00023086
In       5.46038977       6.36861078       1.11300422       63       0.00055452      -0.00017032      -0.00008742
I       -8.80343657       8.50657054       1.86721293       64       0.00022385      -0.00027737       0.00021215
I       15.74849188      -4.37291344       7.49307646       65      -0.00009740       0.00015972      -0.00011704
I        6.44354707       9.38512869       1.95203158       66      -0.00001282      -0.00026887      -0.00011104
I      -16.38897740       6.91392313       8.56696779       67      -0.00013372       0.00006616       0.00036139
I      -11.98326358      12.98795392       4.34896750       68       0.00021196       0.00053280      -0.00018466
I        2.37893893       1.82991630       6.57335096       69       0.00020135      -0.00005536      -0.00038012
Cs       6.46980695       2.75316203      20.73430107       70       0.00026249      -0.00008798       0.00023212
Cs       2.05739029       7.91016488       9.40115388       71      -0.00045439      -0.00039430      -0.00016740
K        3.78558602      -0.05100267      14.85939921       72       0.00008578       0.00000038      -0.00045291
In       3.78346042       3.76236867      11.10233259       73      -0.00037178       0.00003600      -0.00030259
I      -10.48136137       5.89991886      11.86043797       74       0.00023059      -0.00010365      -0.00031167
I       14.05398129      -6.98095419      17.48341761       75       0.00004711       0.00012795       0.00047545
I        4.76531421       6.77961167      11.93639442       76      -0.00039919       0.00004651       0.00017868
I      -18.08353202       4.30954354      18.56053125       77       0.00031163      -0.00006549      -0.00006077
I      -13.66792609      10.38288114      14.34477357       78      -0.00009056      -0.00013295       0.00012964
I        0.68017832      -0.77806384      16.57164287       79       0.00000020       0.00016111       0.00003536
