40
Lattice="15.879648784413842 0.0 0.0 -7.859870611371969 16.062020334683183 0.0 -0.1300962861343195 2.1080138474873524 7.075402547459653" Properties=species:S:1:pos:R:3 pbc="T T T"
Cs       1.67317458       6.37920002      -0.00004187
Cs       5.62976114       3.70219663      -0.00004187
K        1.58148402       2.07919144       3.53771560
In       1.64654216       1.02520038       0.00003852
I        2.67191001       3.55267431       1.41558592
I        4.50097007       8.63674330       5.65988062
I        1.97775643       1.68627003       5.65984863
I        5.83197167       0.42174382       1.41555392
I       -2.92553284       6.34702028       1.41555392
I       -1.13449875       3.79200373       5.65984863
Cs      -2.25676073      14.41021019      -0.00004187
Cs       1.69982584      11.73320680      -0.00004187
K       -2.34845129      10.11020161       3.53771560
In      -2.28339315       9.05621055       0.00003852
I       -1.25802529      11.58368448       1.41558592
I        0.57103477      16.66775347       5.65988062
I       -1.95217887       9.71728020       5.65984863
I        1.90203637       8.45275398       1.41555392
I       -6.85546815      14.37803045       1.41555392
I       -5.06443405      11.82301390       5.65984863
Cs       9.61299897       6.37920002      -0.00004187
Cs      13.56958553       3.70219663      -0.00004187
K        9.52130841       2.07919144       3.53771560
In       9.58636655       1.02520038       0.00003852
I       10.61173441       3.55267431       1.41558592
I       12.44079446       8.63674330       5.65988062
I        9.91758082       1.68627003       5.65984863
I       13.77179607       0.42174382       1.41555392
I        5.01429155       6.34702028       1.41555392
I        6.80532564       3.79200373       5.65984863
Cs       5.68306366      14.41021019      -0.00004187
Cs       9.63965023      11.73320680      -0.00004187
K        5.59137311      10.11020161       3.53771560
In       5.65643124       9.05621055       0.00003852
I        6.68179910      11.58368448       1.41558592
I        8.51085916      16.66775347       5.65988062
I        5.98764552       9.71728020       5.65984863
I        9.84186076       8.45275398       1.41555392
I        1.08435624      14.37803045       1.41555392
I        2.87539034      11.82301390       5.65984863
