80
Lattice="17.32349682880178 -0.3507634338913363 7.44217518500761e-12 0.37061334702637305 18.305537828772113 -9.801775356100834e-14 5.336599042186311e-12 -3.913582072962227e-13 12.637312355980809" Properties=species:S:1:pos:R:3:spacegroup_kinds:I:1:forces:R:3 spacegroup="P 1" unit_cell=conventional occupancy="_JSON {\"0\": {\"Cs\": 1.0}, \"1\": {\"Cs\": 1.0}, \"2\": {\"Cs\": 1.0}, \"3\": {\"Cs\": 1.0}, \"4\": {\"Pb\": 1.0}, \"5\": {\"Pb\": 1.0}, \"6\": {\"Pb\": 1.0}, \"7\": {\"Pb\": 1.0}, \"8\": {\"I\": 1.0}, \"9\": {\"I\": 1.0}, \"10\": {\"I\": 1.0}, \"11\": {\"I\": 1.0}, \"12\": {\"I\": 1.0}, \"13\": {\"I\": 1.0}, \"14\": {\"I\": 1.0}, \"15\": {\"I\": 1.0}, \"16\": {\"I\": 1.0}, \"17\": {\"I\": 1.0}, \"18\": {\"I\": 1.0}, \"19\": {\"I\": 1.0}, \"20\": {\"Cs\": 1.0}, \"21\": {\"Cs\": 1.0}, \"22\": {\"Cs\": 1.0}, \"23\": {\"Cs\": 1.0}, \"24\": {\"Pb\": 1.0}, \"25\": {\"Pb\": 1.0}, \"26\": {\"Pb\": 1.0}, \"27\": {\"Pb\": 1.0}, \"28\": {\"I\": 1.0}, \"29\": {\"I\": 1.0}, \"30\": {\"I\": 1.0}, \"31\": {\"I\": 1.0}, \"32\": {\"I\": 1.0}, \"33\": {\"I\": 1.0}, \"34\": {\"I\": 1.0}, \"35\": {\"I\": 1.0}, \"36\": {\"I\": 1.0}, \"37\": {\"I\": 1.0}, \"38\": {\"I\": 1.0}, \"39\": {\"I\": 1.0}, \"40\": {\"Cs\": 1.0}, \"41\": {\"Cs\": 1.0}, \"42\": {\"Cs\": 1.0}, \"43\": {\"Cs\": 1.0}, \"44\": {\"Pb\": 1.0}, \"45\": {\"Pb\": 1.0}, \"46\": {\"Pb\": 1.0}, \"47\": {\"Pb\": 1.0}, \"48\": {\"I\": 1.0}, \"49\": {\"I\": 1.0}, \"50\": {\"I\": 1.0}, \"51\": {\"I\": 1.0}, \"52\": {\"I\": 1.0}, \"53\": {\"I\": 1.0}, \"54\": {\"I\": 1.0}, \"55\": {\"I\": 1.0}, \"56\": {\"I\": 1.0}, \"57\": {\"I\": 1.0}, \"58\": {\"I\": 1.0}, \"59\": {\"I\": 1.0}, \"60\": {\"Cs\": 1.0}, \"61\": {\"Cs\": 1.0}, \"62\": {\"Cs\": 1.0}, \"63\": {\"Cs\": 1.0}, \"64\": {\"Pb\": 1.0}, \"65\": {\"Pb\": 1.0}, \"66\": {\"Pb\": 1.0}, \"67\": {\"Pb\": 1.0}, \"68\": {\"I\": 1.0}, \"69\": {\"I\": 1.0}, \"70\": {\"I\": 1.0}, \"71\": {\"I\": 1.0}, \"72\": {\"I\": 1.0}, \"73\": {\"I\": 1.0}, \"74\": {\"I\": 1.0}, \"75\": {\"I\": 1.0}, \"76\": {\"I\": 1.0}, \"77\": {\"I\": 1.0}, \"78\": {\"I\": 1.0}, \"79\": {\"I\": 1.0}}" energy=-226.03210475576515 free_energy=-226.03210475576515 stress="-2.1372261890169908e-07 3.3048192665042075e-07 2.9009209980641307e-12 3.3048192665042075e-07 9.081045320695462e-09 2.931536531946213e-14 2.9009209980641307e-12 2.931536531946213e-14 -1.983034741468605e-05" pbc="T T T"
Cs       5.27235591       8.91826467       3.15932805        0       0.00020312      -0.00023252      -0.00000000
Cs       1.32122211       4.42054261       3.15932805        1       0.00044359      -0.00053248       0.00000001
Cs       5.59007857       1.17760925       9.47798422        2      -0.00018285       0.00017481       0.00000000
Cs       9.54121636       5.67522290       9.47798422        3      -0.00042875       0.00057036      -0.00000000
Pb       1.00769244       0.55922592      12.63730184        4       0.00001743      -0.00002858       0.00003204
Pb       5.43122215       5.04791823      12.63730037        5      -0.00001048       0.00001604       0.00007827
Pb       1.00769245       0.55922591       6.31866661        6       0.00001742      -0.00002853      -0.00003203
Pb       5.43122215       5.04791822       6.31866808        7      -0.00001050       0.00001605      -0.00007828
I        2.81301427       6.92203164       0.52594419        8       0.00006917       0.00003263       0.00017170
I        3.69922189       2.32622225       0.52638971        9       0.00006025      -0.00009176       0.00001009
I        8.93669517       0.48630063       3.15932804       10       0.00001686      -0.00045505       0.00000003
I        8.04942990       3.17377740      12.11138821       11      -0.00006179      -0.00002738      -0.00019228
I        7.16323548       7.76960018      12.11092394       12      -0.00007217       0.00010580      -0.00003875
I        6.16642285       5.12080377       3.15932805       13       0.00024236      -0.00039658      -0.00000002
I        2.81301427       6.92203164       5.79271191       14       0.00006918       0.00003263      -0.00017171
I        3.69922189       2.32622225       5.79226638       15       0.00006024      -0.00009177      -0.00001009
I        1.92577079       9.60948775       9.47798422       16      -0.00001741       0.00045396       0.00000002
I        8.04942989       3.17377740       6.84458024       17      -0.00006176      -0.00002741       0.00019228
I        7.16323548       7.76960018       6.84504451       18      -0.00007215       0.00010582       0.00003875
I        4.69605673       4.97504236       9.47798422       19      -0.00028178       0.00040391       0.00000002
Cs       5.45766258      18.07103359       3.15932805       20       0.00020312      -0.00023255      -0.00000000
Cs       1.50652879      13.57331152       3.15932805       21       0.00044359      -0.00053245      -0.00000000
Cs       5.77538524      10.33037816       9.47798422       22      -0.00018285       0.00017484       0.00000000
Cs       9.72652303      14.82799181       9.47798422       23      -0.00042874       0.00057038       0.00000001
Pb       1.19299912       9.71199480      12.63730184       24       0.00001745      -0.00002844       0.00003204
Pb       5.61652882      14.20068713      12.63730037       25      -0.00001049       0.00001612       0.00007827
Pb       1.19299912       9.71199481       6.31866661       26       0.00001742      -0.00002848      -0.00003204
Pb       5.61652883      14.20068713       6.31866808       27      -0.00001052       0.00001611      -0.00007828
I        2.99832095      16.07480055       0.52594419       28       0.00006915       0.00003265       0.00017170
I        3.88452857      11.47899118       0.52638971       29       0.00006018      -0.00009185       0.00001010
I        9.12200184       9.63906955       3.15932804       30       0.00001686      -0.00045507       0.00000002
I        8.23473656      12.32654633      12.11138821       31      -0.00006172      -0.00002747      -0.00019227
I        7.34854215      16.92236909      12.11092394       32      -0.00007214       0.00010583      -0.00003875
I        6.35172952      14.27357268       3.15932804       33       0.00024237      -0.00039658       0.00000005
I        2.99832094      16.07480055       5.79271191       34       0.00006918       0.00003263      -0.00017170
I        3.88452856      11.47899117       5.79226638       35       0.00006021      -0.00009182      -0.00001010
I        1.74046412       0.45671883       9.47798422       36      -0.00001740       0.00045397       0.00000001
I        8.23473656      12.32654633       6.84458024       37      -0.00006173      -0.00002746       0.00019227
I        7.34854215      16.92236909       6.84504451       38      -0.00007215       0.00010582       0.00003875
I        4.88136340      14.12781127       9.47798423       39      -0.00028178       0.00040390      -0.00000004
Cs      13.93410432       8.74288295       3.15932805       40       0.00020311      -0.00023252       0.00000000
Cs       9.98297053       4.24516090       3.15932805       41       0.00044359      -0.00053248       0.00000000
Cs      14.25182698       1.00222753       9.47798423       42      -0.00018286       0.00017481      -0.00000000
Cs       0.87946794       5.85060462       9.47798423       43      -0.00042874       0.00057036      -0.00000001
Pb       9.66944086       0.38384420      12.63730184       44       0.00001740      -0.00002857       0.00003203
Pb      14.09297057       4.87253651      12.63730037       45      -0.00001054       0.00001604       0.00007828
Pb       9.66944086       0.38384419       6.31866661       46       0.00001743      -0.00002854      -0.00003204
Pb      14.09297057       4.87253651       6.31866808       47      -0.00001052       0.00001605      -0.00007828
I       11.47476268       6.74664993       0.52594419       48       0.00006921       0.00003260       0.00017170
I       12.36097029       2.15084053       0.52638971       49       0.00006028      -0.00009174       0.00001009
I        0.27494675       0.66168235       3.15932805       50       0.00001686      -0.00045505      -0.00000001
I       16.71117831       2.99839568      12.11138821       51      -0.00006178      -0.00002739      -0.00019228
I       15.82498390       7.59421846      12.11092394       52      -0.00007216       0.00010581      -0.00003875
I       14.82817126       4.94542205       3.15932806       53       0.00024236      -0.00039658      -0.00000006
I       11.47476268       6.74664992       5.79271191       54       0.00006917       0.00003263      -0.00017171
I       12.36097030       2.15084053       5.79226638       55       0.00006024      -0.00009178      -0.00001009
I       10.58751920       9.43410603       9.47798423       56      -0.00001740       0.00045396      -0.00000002
I       16.71117830       2.99839569       6.84458024       57      -0.00006176      -0.00002741       0.00019228
I       15.82498389       7.59421846       6.84504451       58      -0.00007214       0.00010582       0.00003875
I       13.35780514       4.79966064       9.47798421       59      -0.00028177       0.00040391       0.00000005
Cs      14.11941100      17.89565187       3.15932805       60       0.00020311      -0.00023255       0.00000000
Cs      10.16827720      13.39792981       3.15932805       61       0.00044359      -0.00053245      -0.00000001
Cs      14.43713366      10.15499644       9.47798423       62      -0.00018286       0.00017484      -0.00000000
Cs       1.06477462      15.00337353       9.47798422       63      -0.00042874       0.00057038       0.00000000
Pb       9.85474754       9.53661309      12.63730184       64       0.00001742      -0.00002844       0.00003204
Pb      14.27827725      14.02530541      12.63730037       65      -0.00001055       0.00001612       0.00007828
Pb       9.85474753       9.53661310       6.31866661       66       0.00001743      -0.00002848      -0.00003204
Pb      14.27827724      14.02530541       6.31866808       67      -0.00001053       0.00001611      -0.00007827
I       11.66006935      15.89941884       0.52594419       68       0.00006919       0.00003262       0.00017170
I       12.54627698      11.30360946       0.52638971       69       0.00006022      -0.00009183       0.00001010
I        0.46025342       9.81445127       3.15932805       70       0.00001686      -0.00045507      -0.00000002
I       16.89648497      12.15116461      12.11138821       71      -0.00006171      -0.00002748      -0.00019227
I       16.01029057      16.74698737      12.11092394       72      -0.00007213       0.00010583      -0.00003875
I       15.01347793      14.09819097       3.15932804       73       0.00024237      -0.00039658       0.00000001
I       11.66006936      15.89941884       5.79271191       74       0.00006918       0.00003263      -0.00017170
I       12.54627698      11.30360946       5.79226638       75       0.00006021      -0.00009183      -0.00001010
I       10.40221253       0.28133711       9.47798423       76      -0.00001740       0.00045397      -0.00000003
I       16.89648497      12.15116461       6.84458024       77      -0.00006173      -0.00002746       0.00019227
I       16.01029057      16.74698737       6.84504451       78      -0.00007214       0.00010582       0.00003875
I       13.54311181      13.95242956       9.47798423       79      -0.00028177       0.00040390      -0.00000001
