40
Lattice="16.745048400771793 3.708663943334202 1.728807726262701 -11.762722503874299 12.554476114947592 1.0672484107660356 -0.6037534354981821 -1.299404308832927 8.632310318540002" Properties=species:S:1:pos:R:3:spacegroup_kinds:I:1:forces:R:3 spacegroup="P 1" unit_cell=conventional occupancy="_JSON {\"0\": {\"Cs\": 1.0}, \"1\": {\"Cs\": 1.0}, \"2\": {\"K\": 1.0}, \"3\": {\"In\": 1.0}, \"4\": {\"I\": 1.0}, \"5\": {\"I\": 1.0}, \"6\": {\"I\": 1.0}, \"7\": {\"I\": 1.0}, \"8\": {\"I\": 1.0}, \"9\": {\"I\": 1.0}, \"10\": {\"Cs\": 1.0}, \"11\": {\"Cs\": 1.0}, \"12\": {\"K\": 1.0}, \"13\": {\"In\": 1.0}, \"14\": {\"I\": 1.0}, \"15\": {\"I\": 1.0}, \"16\": {\"I\": 1.0}, \"17\": {\"I\": 1.0}, \"18\": {\"I\": 1.0}, \"19\": {\"I\": 1.0}, \"20\": {\"Cs\": 1.0}, \"21\": {\"Cs\": 1.0}, \"22\": {\"K\": 1.0}, \"23\": {\"In\": 1.0}, \"24\": {\"I\": 1.0}, \"25\": {\"I\": 1.0}, \"26\": {\"I\": 1.0}, \"27\": {\"I\": 1.0}, \"28\": {\"I\": 1.0}, \"29\": {\"I\": 1.0}, \"30\": {\"Cs\": 1.0}, \"31\": {\"Cs\": 1.0}, \"32\": {\"K\": 1.0}, \"33\": {\"In\": 1.0}, \"34\": {\"I\": 1.0}, \"35\": {\"I\": 1.0}, \"36\": {\"I\": 1.0}, \"37\": {\"I\": 1.0}, \"38\": {\"I\": 1.0}, \"39\": {\"I\": 1.0}}" energy=-103.1031244423194 free_energy=-103.1031244423194 stress="-1.9619141515209286e-06 -6.098584112173435e-07 8.254244598674391e-08 -6.098584112173435e-07 -2.301333890577929e-06 5.717855972042597e-08 8.254244598674391e-08 5.717855972042597e-08 -7.739381446515764e-07" pbc="T T T"
Cs       5.62968028       2.79589612       8.43353591        0      -0.00036445       0.00012706      -0.00012080
Cs       1.31220400       5.20340265       2.12585220        1      -0.00039629      -0.00001468       0.00004837
K        2.22440985      -0.06598825       4.58067924        2       0.00036375      -0.00020703      -0.00013408
In       2.52679933       0.58364337       0.26446835        3      -0.00019005      -0.00008872       0.00005998
I        8.56600880       3.17759285       2.84488384        4      -0.00001242      -0.00006476       0.00030280
I       -1.62526682       4.82196592       7.71432980        5       0.00023306      -0.00011564      -0.00023590
I        5.15170419       6.06623595       3.04102783        6      -0.00025576      -0.00002482       0.00024841
I        1.78962298       1.93313351       7.51805826        7      -0.00012458       0.00038172       0.00003163
I        6.85619631       9.84772735       3.72977073        8       0.00040058       0.00020438      -0.00005252
I        0.08419551      -1.84830642       6.82974904        9       0.00027972       0.00005256      -0.00004068
Cs      -0.25168035       9.07314874       8.96716323       10      -0.00035290       0.00009878      -0.00011630
Cs      -4.56915592      11.48064964       2.65948101       11      -0.00039527      -0.00003006       0.00003213
K       -3.65694815       6.21125529       5.11430916       12       0.00034326      -0.00021038      -0.00016243
In      -3.35454640       6.86086614       0.79807736       13      -0.00036261      -0.00005724       0.00014725
I        2.68464542       9.45486598       3.37852661       14       0.00005906      -0.00012487       0.00022783
I        4.25609410      -1.45532377       7.18068408       15       0.00017350      -0.00002822      -0.00017588
I       -0.72965719      12.34347838       3.57465099       16      -0.00025253      -0.00003934       0.00025671
I       -4.09173840       8.21034191       8.05167616       17      -0.00015596       0.00044340       0.00002848
I        0.97483188      16.12495367       4.26339090       18       0.00042434       0.00023666      -0.00003699
I       -5.79718250       4.42887756       7.36334570       19       0.00036751       0.00013720       0.00005346
Cs      14.00220834       4.65027043       9.29795602       20      -0.00035134       0.00005445      -0.00015213
Cs       9.68473459       7.05773761       2.99025889       21      -0.00044311      -0.00001888       0.00003381
K       10.59691974       1.78829772       5.44505469       22       0.00042596      -0.00016557      -0.00003815
In      10.89928304       2.43804103       1.12890733       23       0.00024865      -0.00020467      -0.00013396
I        0.19347803       1.32335254       1.98052723       24       0.00016993      -0.00022876       0.00011188
I        6.74727207       6.67620926       8.57868809       25      -0.00001114       0.00004249      -0.00005867
I       13.52422771       7.92055761       3.90541428       26      -0.00027072      -0.00000484       0.00032545
I       -6.58289923       0.07888291       6.65367581       27      -0.00003734       0.00022862       0.00003553
I       -1.51631998       7.99342735       2.86537593       28       0.00034026       0.00011457      -0.00007760
I        8.45676582       0.00618251       7.69422591       29       0.00004132      -0.00021005      -0.00026895
Cs       8.12084726      10.92752313       9.83158284       30      -0.00033571       0.00002365      -0.00014504
Cs       3.80337427      13.33498496       3.52388744       31      -0.00043794      -0.00003703       0.00001917
K        4.71556072       8.06553938       5.97868336       32       0.00041321      -0.00016825      -0.00006479
In       5.01793255       8.71526772       1.66251739       33       0.00012979      -0.00018803      -0.00004450
I       -5.68788612       7.60063477       2.51417440       34       0.00026043      -0.00030519       0.00001997
I       12.62863232       0.39892878       8.04504677       35      -0.00005243       0.00011481      -0.00001549
I        7.64286654      14.19780308       4.43903874       36      -0.00026580      -0.00002033       0.00033084
I      -12.46426078       6.35609012       7.18729365       37      -0.00006745       0.00030103       0.00003026
I       -7.39768203      14.27066019       3.39900009       38       0.00034910       0.00013617      -0.00007807
I        2.57539021       6.28337384       8.22782632       39       0.00011234      -0.00014019      -0.00019103
