10
Lattice="11.845193360113335 0.0 0.0 0.7652446644557525 6.580299407493494 0.0 2.099687577992392 1.810464081908632 6.3830057193318765" Properties=species:S:1:pos:R:3:oxi_states:R:1 pbc="T T T"
Cs       4.39380277       4.19534343       3.19150286       1.00000000
Pb      -0.00000000      -0.00000000       0.00000000       2.00000000
I        1.04984379       0.90523204       3.19150286      -1.00000000
I        2.96129834       0.00000000      -0.00000000      -1.00000000
I        0.38262233       3.29014970       0.00000000      -1.00000000
Cs      10.31639945       4.19534343       3.19150286       1.00000000
Pb       5.92259668      -0.00000000       0.00000000       2.00000000
I        6.97244047       0.90523204       3.19150286      -1.00000000
I        8.88389502       0.00000000      -0.00000000      -1.00000000
I        6.30521901       3.29014970       0.00000000      -1.00000000
