40
Lattice="19.75330983613186 -0.4913977880603262 0.7724003872015249 -6.790732562717236 15.420701239975386 -1.1102098793142914 2.0529892702734975 1.508884300911064 8.400563261071131" Properties=species:S:1:pos:R:3:spacegroup_kinds:I:1:forces:R:3 spacegroup="P 1" unit_cell=conventional occupancy="_JSON {\"0\": {\"Cs\": 1.0}, \"1\": {\"Cs\": 1.0}, \"2\": {\"K\": 1.0}, \"3\": {\"In\": 1.0}, \"4\": {\"I\": 1.0}, \"5\": {\"I\": 1.0}, \"6\": {\"I\": 1.0}, \"7\": {\"I\": 1.0}, \"8\": {\"I\": 1.0}, \"9\": {\"I\": 1.0}, \"10\": {\"Cs\": 1.0}, \"11\": {\"Cs\": 1.0}, \"12\": {\"K\": 1.0}, \"13\": {\"In\": 1.0}, \"14\": {\"I\": 1.0}, \"15\": {\"I\": 1.0}, \"16\": {\"I\": 1.0}, \"17\": {\"I\": 1.0}, \"18\": {\"I\": 1.0}, \"19\": {\"I\": 1.0}, \"20\": {\"Cs\": 1.0}, \"21\": {\"Cs\": 1.0}, \"22\": {\"K\": 1.0}, \"23\": {\"In\": 1.0}, \"24\": {\"I\": 1.0}, \"25\": {\"I\": 1.0}, \"26\": {\"I\": 1.0}, \"27\": {\"I\": 1.0}, \"28\": {\"I\": 1.0}, \"29\": {\"I\": 1.0}, \"30\": {\"Cs\": 1.0}, \"31\": {\"Cs\": 1.0}, \"32\": {\"K\": 1.0}, \"33\": {\"In\": 1.0}, \"34\": {\"I\": 1.0}, \"35\": {\"I\": 1.0}, \"36\": {\"I\": 1.0}, \"37\": {\"I\": 1.0}, \"38\": {\"I\": 1.0}, \"39\": {\"I\": 1.0}}" energy=-102.75047859618753 free_energy=-102.75047859618753 stress="-2.43395068404753e-08 -2.942740027950222e-08 4.6176652120714416e-08 -2.942740027950222e-08 -2.825659957118104e-07 4.155875436729379e-08 4.6176652120714416e-08 4.155875436729379e-08 -7.310383849249538e-07" pbc="T T T"
Cs      10.59819471       3.24275163       7.96321530        0       0.00006133      -0.00019885       0.00008946
Cs       3.15374764       4.05411108       0.55785239        1       0.00014565       0.00004167       0.00016849
K       -3.15548692      15.33654787       3.23496121        2       0.00013091      -0.00000545       0.00002940
In      -4.18161603      14.58201980      -0.96538334        3       0.00002543       0.00000515      -0.00017323
I        4.22943304      16.12428725       1.29095510        4       0.00005173       0.00002627      -0.00019700
I        2.73249969       6.59316179       6.11996189        5      -0.00041601      -0.00065253       0.00017220
I        5.24222894       0.39299926       1.15082589        6      -0.00041400       0.00003212      -0.00004789
I        8.51059619       6.90270203       7.37072480        7      -0.00047413       0.00006353      -0.00003960
I        9.31279494       4.58024199       2.12207159        8       0.00022084      -0.00038738       0.00016542
I        4.43895544       2.71623717       6.39956348        9       0.00027017      -0.00001392      -0.00062697
Cs       7.20290606      10.95308979       7.40821326       10      -0.00033682      -0.00016572       0.00006096
Cs      -0.24162349      11.76456153       0.00305124       11       0.00032479      -0.00028733      -0.00019649
K        0.23983739       7.62636495       3.79010799       12       0.00017151      -0.00023058      -0.00010472
In      -0.78644468       6.87146958      -0.41026635       13       0.00039783       0.00042321       0.00017878
I        7.62480788       8.41396811       1.84589300       14      -0.00013472       0.00014973       0.00033829
I       -0.66291781      14.30299382       5.56508029       15      -0.00057255       0.00045058      -0.00012774
I        1.84641725       8.10313074       0.59559176       16       0.00055957       0.00036254       0.00003879
I        5.11510005      14.61293530       6.81543581       17       0.00013030       0.00043060       0.00027880
I        5.91748371      12.29032071       1.56707124       18       0.00012898       0.00031319      -0.00016699
I        1.04383939      10.42640053       5.84398548       19      -0.00021082       0.00019360       0.00060583
Cs      20.47475261       2.99689826       8.34956933       20       0.00012561       0.00010021      -0.00007757
Cs      13.03051635       3.80848632       0.94415233       21      -0.00007443      -0.00015488       0.00012423
K        6.72119681      15.09081331       3.62119358       22       0.00008258       0.00005476       0.00002812
In       5.69509485      14.33648265      -0.57913030       23      -0.00052774      -0.00016543      -0.00004931
I       14.10598490      15.87865785       1.67684377       24       0.00030316      -0.00021221       0.00043592
I       12.60883909       6.34715528       6.50627360       25       0.00012800       0.00000577      -0.00001639
I       15.11888404       0.14730112       1.53706482       26      -0.00042816      -0.00000438      -0.00007608
I       18.38710642       6.65709400       7.75711729       27      -0.00018705      -0.00009440      -0.00017637
I       -0.56376718       4.82556734       1.73625070       28      -0.00000501       0.00036151      -0.00065829
I       14.31574636       2.47079581       6.78553148       29       0.00011718      -0.00052052       0.00018752
Cs      17.07941593      10.70728747       7.79450362       30       0.00020366      -0.00012721      -0.00013645
Cs       9.63506811      11.51872228       0.38920223       31       0.00011692       0.00001709       0.00000885
K       10.11655925       7.38040554       4.17632818       32       0.00007216       0.00008403      -0.00009805
In       9.09035600       6.62612738      -0.02410246       33       0.00002407      -0.00047818       0.00019322
I       17.50160567       8.16827233       2.23215451       34      -0.00039261      -0.00000389      -0.00002333
I        9.21343020      14.05749312       5.95123561       35       0.00023637       0.00006082      -0.00004159
I       11.72340527       7.85755135       0.98184205       36      -0.00000909       0.00022954       0.00006180
I       14.99170471      14.36734902       7.20183282       37      -0.00002607       0.00006022      -0.00010764
I       -3.95912782      12.53611720       1.18061328       38       0.00005234      -0.00016210       0.00061819
I       10.92035118      10.18087160       6.23059576       39       0.00012811       0.00039882      -0.00064257
