40
Lattice="22.20172427257022 0.0 0.0 -7.248901306341686 13.328159174959863 0.0 1.9981761877035924 1.7390887894498674 6.8670690546524185" Properties=species:S:1:pos:R:3 pbc="T T T"
Cs      11.10160497       3.28268755       6.86051097
Cs       4.19874722       3.76822764       0.00635017
K        3.91197887       0.19341083       3.43353412
In       2.91291311      -0.67613506       0.00005051
I       11.50386001      -0.32366307       1.37364479
I        3.79647325       7.37449443       5.49344518
I        5.27822782       1.41693405       1.37367050
I       10.02219222       5.63402325       5.49347090
I       11.73295574       4.58604064       1.37364731
I        3.56739746       2.46489827       5.49344770
Cs       7.47715431       9.94676713       6.86051097
Cs       0.57429657      10.43230723       0.00635017
K        0.28752822       6.85749042       3.43353412
In      -0.71153755       5.98794453       0.00005051
I        7.87940936       6.34041651       1.37364479
I        0.17202260      14.03857402       5.49344518
I        1.65377717       8.08101364       1.37367050
I        6.39774157      12.29810283       5.49347090
I        8.10850509      11.25012023       1.37364731
I       -0.05705320       9.12897786       5.49344770
Cs      22.20246710       3.28268755       6.86051097
Cs      15.29960936       3.76822764       0.00635017
K       15.01284101       0.19341083       3.43353412
In      14.01377524      -0.67613506       0.00005051
I       22.60472215      -0.32366307       1.37364479
I       14.89733539       7.37449443       5.49344518
I       16.37908996       1.41693405       1.37367050
I       21.12305436       5.63402325       5.49347090
I       22.83381788       4.58604064       1.37364731
I       14.66825959       2.46489827       5.49344770
Cs      18.57801645       9.94676713       6.86051097
Cs      11.67515870      10.43230723       0.00635017
K       11.38839035       6.85749042       3.43353412
In      10.38932459       5.98794453       0.00005051
I       18.98027150       6.34041651       1.37364479
I       11.27288474      14.03857402       5.49344518
I       12.75463930       8.08101364       1.37367050
I       17.49860370      12.29810283       5.49347090
I       19.20936723      11.25012023       1.37364731
I       11.04380894       9.12897786       5.49344770
