10
Lattice="12.773817897441822 -1.331674016906244e-09 2.1947978694015393e-17 -6.658370099465538e-10 6.38690894872091 -2.0434311033373995e-17 1.1088575122167828e-17 -2.061944034087896e-17 6.386908948632582" Properties=species:S:1:pos:R:3:spacegroup_kinds:I:1:forces:R:3 spacegroup="P 1" unit_cell=conventional occupancy="_JSON {\"0\": {\"Cs\": 1.0}, \"1\": {\"Pb\": 1.0}, \"2\": {\"I\": 1.0}, \"3\": {\"I\": 1.0}, \"4\": {\"I\": 1.0}, \"5\": {\"Cs\": 1.0}, \"6\": {\"Pb\": 1.0}, \"7\": {\"I\": 1.0}, \"8\": {\"I\": 1.0}, \"9\": {\"I\": 1.0}}" energy=-27.961484716331896 free_energy=-27.961484716331896 stress="-7.275829795942481e-06 -6.020836108186259e-12 -1.4907889247930374e-17 -6.020836108186259e-12 -7.2758297959703834e-06 -9.530328806022694e-19 -1.4907889247930374e-17 -9.530328806022694e-19 -7.2758313172711275e-06" pbc="T T T"
Cs       3.19349715       3.19341180       3.19345447        0       0.00000071      -0.00000071      -0.00000000
Pb       0.00000270      -0.00000270      -0.00000000        1       0.00000039      -0.00000039      -0.00000000
I        0.00000935      -0.00000935       3.19345447        2      -0.00000371       0.00000371      -0.00000000
I        3.19345661      -0.00000935      -0.00000000        3       0.00000631       0.00000371       0.00000000
I        0.00000935       3.19345233      -0.00000000        4      -0.00000371      -0.00000631       0.00000000
Cs       9.58040609       3.19341180       3.19345447        5       0.00000071      -0.00000071      -0.00000000
Pb       6.38691165      -0.00000270      -0.00000000        6       0.00000039      -0.00000039      -0.00000000
I        6.38691829      -0.00000935       3.19345447        7      -0.00000371       0.00000371      -0.00000000
I        9.58036556      -0.00000935      -0.00000000        8       0.00000631       0.00000371       0.00000000
I        6.38691829       3.19345233      -0.00000000        9      -0.00000371      -0.00000631       0.00000000
