80
Lattice="17.768534529119023 0.38365561950167754 -1.228712052681715 -4.731176248435073 15.860408204659674 -0.5566804159447101 -5.978395913833757 -5.3293877944091355 16.47580321146432" Properties=species:S:1:pos:R:3:spacegroup_kinds:I:1:forces:R:3 spacegroup="P 1" unit_cell=conventional occupancy="_JSON {\"0\": {\"Cs\": 1.0}, \"1\": {\"Cs\": 1.0}, \"2\": {\"K\": 1.0}, \"3\": {\"In\": 1.0}, \"4\": {\"I\": 1.0}, \"5\": {\"I\": 1.0}, \"6\": {\"I\": 1.0}, \"7\": {\"I\": 1.0}, \"8\": {\"I\": 1.0}, \"9\": {\"I\": 1.0}, \"10\": {\"Cs\": 1.0}, \"11\": {\"Cs\": 1.0}, \"12\": {\"K\": 1.0}, \"13\": {\"In\": 1.0}, \"14\": {\"I\": 1.0}, \"15\": {\"I\": 1.0}, \"16\": {\"I\": 1.0}, \"17\": {\"I\": 1.0}, \"18\": {\"I\": 1.0}, \"19\": {\"I\": 1.0}, \"20\": {\"Cs\": 1.0}, \"21\": {\"Cs\": 1.0}, \"22\": {\"K\": 1.0}, \"23\": {\"In\": 1.0}, \"24\": {\"I\": 1.0}, \"25\": {\"I\": 1.0}, \"26\": {\"I\": 1.0}, \"27\": {\"I\": 1.0}, \"28\": {\"I\": 1.0}, \"29\": {\"I\": 1.0}, \"30\": {\"Cs\": 1.0}, \"31\": {\"Cs\": 1.0}, \"32\": {\"K\": 1.0}, \"33\": {\"In\": 1.0}, \"34\": {\"I\": 1.0}, \"35\": {\"I\": 1.0}, \"36\": {\"I\": 1.0}, \"37\": {\"I\": 1.0}, \"38\": {\"I\": 1.0}, \"39\": {\"I\": 1.0}, \"40\": {\"Cs\": 1.0}, \"41\": {\"Cs\": 1.0}, \"42\": {\"K\": 1.0}, \"43\": {\"In\": 1.0}, \"44\": {\"I\": 1.0}, \"45\": {\"I\": 1.0}, \"46\": {\"I\": 1.0}, \"47\": {\"I\": 1.0}, \"48\": {\"I\": 1.0}, \"49\": {\"I\": 1.0}, \"50\": {\"Cs\": 1.0}, \"51\": {\"Cs\": 1.0}, \"52\": {\"K\": 1.0}, \"53\": {\"In\": 1.0}, \"54\": {\"I\": 1.0}, \"55\": {\"I\": 1.0}, \"56\": {\"I\": 1.0}, \"57\": {\"I\": 1.0}, \"58\": {\"I\": 1.0}, \"59\": {\"I\": 1.0}, \"60\": {\"Cs\": 1.0}, \"61\": {\"Cs\": 1.0}, \"62\": {\"K\": 1.0}, \"63\": {\"In\": 1.0}, \"64\": {\"I\": 1.0}, \"65\": {\"I\": 1.0}, \"66\": {\"I\": 1.0}, \"67\": {\"I\": 1.0}, \"68\": {\"I\": 1.0}, \"69\": {\"I\": 1.0}, \"70\": {\"Cs\": 1.0}, \"71\": {\"Cs\": 1.0}, \"72\": {\"K\": 1.0}, \"73\": {\"In\": 1.0}, \"74\": {\"I\": 1.0}, \"75\": {\"I\": 1.0}, \"76\": {\"I\": 1.0}, \"77\": {\"I\": 1.0}, \"78\": {\"I\": 1.0}, \"79\": {\"I\": 1.0}}" energy=-203.8048609498819 free_energy=-203.8048609498819 stress="-7.953395144845428e-07 -5.750968764461436e-07 1.957480800711815e-06 -5.750968764461436e-07 1.843832410290834e-06 -4.5129443766125915e-07 1.957480800711815e-06 -4.5129443766125915e-07 2.341409059211317e-06" pbc="T T T"
Cs       4.33631426       3.84718016      -2.24720341        0       0.00010891       0.00027047      -0.00003036
Cs      -2.32419590       2.11985737       9.54620018        1      -0.00022789       0.00020122      -0.00016809
K       -0.60363740      -2.67918097       4.45262449        2       0.00017687      -0.00007104      -0.00033370
In      16.92371521       0.64538344      -1.18214285        3       0.00022276      -0.00057018       0.00003981
I       15.36176449       2.76934189       0.12218728        4      -0.00029693      -0.00003155       0.00016716
I        4.25886131       3.59863087       6.01764378        5       0.00001780       0.00010661       0.00008968
I       -2.31398416      -0.40380973       6.61372936        6      -0.00020090       0.00031447       0.00013034
I        4.12033894       6.28427487       0.70194955        7      -0.00017671      -0.00041541       0.00043134
I       -1.20925806       8.23082581       1.96396740        8      -0.00018125      -0.00005632      -0.00022748
I        2.88023106      -2.53045345       5.47606698        9      -0.00014332      -0.00011025      -0.00002419
Cs       1.34808240       1.18235478       5.99076405       10      -0.00035759       0.00007165      -0.00001415
Cs      -5.31328277      -0.54453397      17.78405141       11      -0.00021053      -0.00010362       0.00014712
K       -3.59284294      -5.34344897      12.69027347       12      -0.00008025      -0.00007779       0.00027095
In      13.93518553      -2.02012511       7.05564230       13      -0.00022766      -0.00004900       0.00037836
I       12.37287332       0.10397693       8.36049775       14      -0.00018810      -0.00004523      -0.00022120
I        1.26924243       0.93414431      14.25495469       15       0.00000283      -0.00009056      -0.00004324
I       -5.30329381      -3.06769959      14.85188089       16       0.00013760      -0.00046915      -0.00013280
I        1.13103561       3.61957364       8.94006131       17       0.00009243      -0.00003826      -0.00014621
I       -4.19940216       5.56632513      10.20174143       18       0.00000917       0.00006509       0.00012653
I       -0.11040949      -5.19579971      13.71452548       19       0.00023011       0.00035903       0.00003452
Cs       1.96903415      11.77811860      -2.52585930       20       0.00029490       0.00005556       0.00024480
Cs      -4.69051037      10.05064259       9.26834986       21       0.00030523      -0.00014532       0.00004309
K       14.80067952       5.63605448       2.94657371       22      -0.00033468      -0.00015034      -0.00015759
In      14.55899094       8.57439247      -1.46049036       23      -0.00033128       0.00032631       0.00042306
I       12.99610861      10.69813087      -0.15574307       24       0.00007628       0.00011163      -0.00017165
I        1.89340835      11.52846346       5.73933425       25      -0.00009308       0.00017944       0.00002942
I       -4.67926149       7.52776307       6.33613797       26      -0.00009970      -0.00045780      -0.00019162
I        1.75431211      14.21461177       0.42449252       27       0.00020666       0.00005634       0.00002983
I        1.15553087       0.30087453       2.24231261       28      -0.00000707      -0.00004643      -0.00010361
I        0.51467887       5.40082491       5.19765719       29      -0.00004997      -0.00028326      -0.00009405
Cs      -1.01937397       9.11450227       5.71235477       30       0.00021178      -0.00028311      -0.00004511
Cs      -7.68012375       7.38563188      17.50547205       31       0.00019709      -0.00004477      -0.00012877
K       -5.95826588       2.58537638      12.41111380       32      -0.00000374       0.00035069       0.00013386
In      11.56895877       5.91113216       6.77731255       33       0.00016265      -0.00037996      -0.00005154
I       10.00622739       8.03483987       8.08148122       34       0.00008632       0.00011544       0.00011610
I       -1.09697882       8.86386027      13.97728673       35       0.00030887      -0.00030767      -0.00022631
I       -7.66904999       4.86129109      14.57319066       36       0.00005471       0.00039498      -0.00001098
I       -1.23463810      11.55003743       8.66229012       37       0.00011111      -0.00010714       0.00020105
I       -1.83299577      -2.36386995      10.48000985       38      -0.00032271      -0.00001984      -0.00003030
I       -2.47533394       2.73541580      13.43530718       39      -0.00000483      -0.00009240      -0.00014165
Cs      13.21949708       4.03987334      -2.86149178       40       0.00010609      -0.00007209      -0.00004717
Cs       6.55972542       2.31199703       8.93230962       41       0.00003030       0.00010634      -0.00020525
K        8.28091083      -2.48680133       3.83856379       42      -0.00006499      -0.00007073      -0.00002890
In       8.03952775       0.45290149      -0.56759456       43      -0.00014580       0.00060577       0.00011362
I        6.47745967       2.57725950       0.73705827       44       0.00005339      -0.00050650      -0.00022483
I       13.14289361       3.79113434       5.40325698       45       0.00003638      -0.00005924      -0.00013529
I        6.57093356      -0.21163193       6.00028121       46      -0.00007869      -0.00011313      -0.00018010
I       13.00521832       6.47553029       0.08860439       47       0.00012248       0.00043136      -0.00030260
I        7.67429142       8.42286211       1.34910996       48       0.00011049       0.00018601       0.00027514
I       11.76382911      -2.33881887       4.86174325       49       0.00013751       0.00012567       0.00009479
Cs      10.23221295       1.37461171       5.37624203       50      -0.00029508       0.00034300       0.00014297
Cs       3.57090038      -0.35248553      17.16920644       51      -0.00040130      -0.00016553       0.00005638
K        5.29188421      -5.15245250      12.07641099       52      -0.00020332       0.00008781      -0.00005084
In       5.05125115      -2.21199128       7.67048270       53      -0.00011577       0.00022229      -0.00012187
I        3.48882753      -0.08815088       8.97487704       54      -0.00041483       0.00038801       0.00007284
I       10.15389643       1.12503025      13.64081750       55      -0.00021489       0.00009576       0.00032142
I        3.57999171      -2.87645609      14.23683550       56      -0.00007549      -0.00025596       0.00028026
I       10.01458412       3.81218349       8.32546694       57       0.00021818      -0.00035002      -0.00010133
I        4.68515521       5.75855143       9.58759208       58      -0.00003028      -0.00019846       0.00000638
I        8.77456115      -5.00238145      13.09952294       59       0.00009740      -0.00011508       0.00013055
Cs      10.85485429      11.96987286      -3.13965387       60      -0.00012968      -0.00014613       0.00021286
Cs       4.19384075      10.24191733       8.65365766       61       0.00019336      -0.00017335       0.00017856
K        5.91563085       5.44243442       3.55958267       62      -0.00009416       0.00033517       0.00004252
In       5.67390588       8.38326531      -0.84641569       63       0.00043582      -0.00007174      -0.00066937
I        4.11104589      10.50666246       0.45775212       64      -0.00010913       0.00069024       0.00042998
I       10.77709311      11.72000557       5.12494114       65      -0.00022884       0.00003438      -0.00018020
I        4.20450929       7.71872456       5.72117897       66       0.00010152      -0.00037222      -0.00010344
I       10.63819121      14.40679152      -0.19037891       67       0.00041546      -0.00000475       0.00009415
I       10.04030964       0.49310660       1.62758922       68      -0.00016518      -0.00009470       0.00012550
I        9.39864959       5.59290969       4.58286261       69       0.00010555      -0.00008919      -0.00003889
Cs       7.86374779       9.30571220       5.09769900       70       0.00055463       0.00001956      -0.00005181
Cs       1.20414932       7.57718347      16.89157465       71       0.00028231       0.00004669      -0.00026115
K        2.92631352       2.77944348      11.79786597       72      -0.00005497      -0.00027111       0.00004158
In       2.68496699       5.71861590       7.39178652       73      -0.00004681       0.00061232       0.00008985
I        1.12225982       7.84255376       8.69639304       74       0.00008719      -0.00022528      -0.00025659
I        7.78752300       9.05621361      13.36249275       75       0.00011207       0.00024686       0.00025746
I        1.21516570       5.05420629      13.95899076       76      -0.00003479       0.00008299       0.00007367
I        7.64925680      11.74177956       8.04771598       77       0.00040291       0.00048102      -0.00027152
I        7.05129519      -2.17247663       9.86624354       78      -0.00005064      -0.00011212      -0.00021775
I        6.40931954       2.92670838      12.82155703       79      -0.00012429      -0.00020645       0.00006600
