20
Lattice="18.583456283052186 -0.7096111159759049 0.0009846933954165925 -4.337238599696644 8.225120218321111 -0.000687485743252066 -0.0006665686574333933 -5.323508790202835e-06 8.828510027283421" Properties=species:S:1:pos:R:3:spacegroup_kinds:I:1:forces:R:3 spacegroup="P 1" unit_cell=conventional occupancy="_JSON {\"0\": {\"Cs\": 1.0}, \"1\": {\"Cs\": 1.0}, \"2\": {\"K\": 1.0}, \"3\": {\"In\": 1.0}, \"4\": {\"I\": 1.0}, \"5\": {\"I\": 1.0}, \"6\": {\"I\": 1.0}, \"7\": {\"I\": 1.0}, \"8\": {\"I\": 1.0}, \"9\": {\"I\": 1.0}, \"10\": {\"Cs\": 1.0}, \"11\": {\"Cs\": 1.0}, \"12\": {\"K\": 1.0}, \"13\": {\"In\": 1.0}, \"14\": {\"I\": 1.0}, \"15\": {\"I\": 1.0}, \"16\": {\"I\": 1.0}, \"17\": {\"I\": 1.0}, \"18\": {\"I\": 1.0}, \"19\": {\"I\": 1.0}}" energy=-51.58763282800048 free_energy=-51.58763282800048 stress="-1.7466115116892634e-07 9.435339025922258e-08 -2.558856699660364e-06 9.435339025922258e-08 1.6608084794164528e-06 -1.5419669688854378e-07 -2.558856699660364e-06 -1.5419669688854378e-07 -1.3975384343957728e-06" pbc="T T T"
Cs       5.85249088       2.46429777       8.84731753        0       0.00022334       0.00004413      -0.00035413
Cs       1.31108457       5.32417387      -0.01868069        1      -0.00017226       0.00002285      -0.00023063
K        1.10454030      -0.04087795       4.41441846        2      -0.00002007      -0.00006906      -0.00032960
In       1.10496450      -0.04092867       0.00022243        3      -0.00038143      -0.00011639      -0.00057113
I        7.95933253      -0.31423535       1.76676585        4       0.00068479      -0.00022562      -0.00005035
I       -0.79603220       8.10293241       7.06156389        5       0.00024345      -0.00010319       0.00033910
I        2.39350714       2.02884833       1.76642916        6       0.00023383      -0.00004845       0.00037833
I        4.77008850       5.75986183       7.06181642        7      -0.00031608      -0.00045496       0.00029982
I        7.20715164       5.67792339       1.76602571        8      -0.00022207       0.00063629       0.00044517
I       -0.04336366       2.11015034       7.06222528        9      -0.00027348       0.00031440       0.00007341
Cs      15.14421902       2.10949221       8.84780987       10       0.00022334       0.00004413      -0.00035413
Cs      10.60281271       4.96936831      -0.01818835       11      -0.00017226       0.00002285      -0.00023063
K       10.39626844      -0.39568351       4.41491080       12      -0.00002007      -0.00006906      -0.00032960
In      10.39669264      -0.39573422       0.00071477       13      -0.00038143      -0.00011639      -0.00057113
I       17.25106068      -0.66904091       1.76725820       14       0.00068479      -0.00022562      -0.00005035
I        8.49569594       7.74812686       7.06205624       15       0.00024345      -0.00010319       0.00033910
I       11.68523528       1.67404277       1.76692151       16       0.00023383      -0.00004845       0.00037833
I       14.06181664       5.40505627       7.06230877       17      -0.00031608      -0.00045496       0.00029982
I       -2.08457650       6.03272895       1.76553337       18      -0.00022207       0.00063629       0.00044517
I        9.24836448       1.75534478       7.06271762       19      -0.00027348       0.00031440       0.00007341
