20
Lattice="21.236834312270776 0.0 0.0 -4.649221186651513 8.05268731090609 0.0 0.0 0.0 8.828792216278693" Properties=species:S:1:pos:R:3 pbc="T T T"
Cs       6.79188669       2.68551024       8.82045158
Cs       1.70267391       5.36973934       0.00825513
K        1.26268619       0.00127568       4.41439801
In       1.26269554       0.00127946       0.00002396
I        9.09715006       0.00686035       1.76605094
I       -0.60259714       8.04835371       7.06275925
I        2.83326954       2.11010100       1.76605955
I        5.66132040       5.94516882       7.06276786
I        8.44525116       5.93956735       1.76604756
I        0.04930915       2.11569349       7.06275587
Cs      17.41030385       2.68551024       8.82045158
Cs      12.32109107       5.36973934       0.00825513
K       11.88110334       0.00127568       4.41439801
In      11.88111269       0.00127946       0.00002396
I       19.71556722       0.00686035       1.76605094
I       10.01582002       8.04835371       7.06275925
I       13.45168670       2.11010100       1.76605955
I       16.27973756       5.94516882       7.06276786
I       19.06366831       5.93956735       1.76604756
I       10.66772631       2.11569349       7.06275587
