80
Lattice="18.32689550598222 0.023921038280738955 0.001561951748739025 9.176209297833434 16.054776017805207 -0.09221484504943528 9.173186287573634 5.285946681583699 13.852581729969138" Properties=species:S:1:pos:R:3:spacegroup_kinds:I:1:forces:R:3 spacegroup="P 1" unit_cell=conventional occupancy="_JSON {\"0\": {\"Cs\": 1.0}, \"1\": {\"Cs\": 1.0}, \"2\": {\"K\": 1.0}, \"3\": {\"In\": 1.0}, \"4\": {\"I\": 1.0}, \"5\": {\"I\": 1.0}, \"6\": {\"I\": 1.0}, \"7\": {\"I\": 1.0}, \"8\": {\"I\": 1.0}, \"9\": {\"I\": 1.0}, \"10\": {\"Cs\": 1.0}, \"11\": {\"Cs\": 1.0}, \"12\": {\"K\": 1.0}, \"13\": {\"In\": 1.0}, \"14\": {\"I\": 1.0}, \"15\": {\"I\": 1.0}, \"16\": {\"I\": 1.0}, \"17\": {\"I\": 1.0}, \"18\": {\"I\": 1.0}, \"19\": {\"I\": 1.0}, \"20\": {\"Cs\": 1.0}, \"21\": {\"Cs\": 1.0}, \"22\": {\"K\": 1.0}, \"23\": {\"In\": 1.0}, \"24\": {\"I\": 1.0}, \"25\": {\"I\": 1.0}, \"26\": {\"I\": 1.0}, \"27\": {\"I\": 1.0}, \"28\": {\"I\": 1.0}, \"29\": {\"I\": 1.0}, \"30\": {\"Cs\": 1.0}, \"31\": {\"Cs\": 1.0}, \"32\": {\"K\": 1.0}, \"33\": {\"In\": 1.0}, \"34\": {\"I\": 1.0}, \"35\": {\"I\": 1.0}, \"36\": {\"I\": 1.0}, \"37\": {\"I\": 1.0}, \"38\": {\"I\": 1.0}, \"39\": {\"I\": 1.0}, \"40\": {\"Cs\": 1.0}, \"41\": {\"Cs\": 1.0}, \"42\": {\"K\": 1.0}, \"43\": {\"In\": 1.0}, \"44\": {\"I\": 1.0}, \"45\": {\"I\": 1.0}, \"46\": {\"I\": 1.0}, \"47\": {\"I\": 1.0}, \"48\": {\"I\": 1.0}, \"49\": {\"I\": 1.0}, \"50\": {\"Cs\": 1.0}, \"51\": {\"Cs\": 1.0}, \"52\": {\"K\": 1.0}, \"53\": {\"In\": 1.0}, \"54\": {\"I\": 1.0}, \"55\": {\"I\": 1.0}, \"56\": {\"I\": 1.0}, \"57\": {\"I\": 1.0}, \"58\": {\"I\": 1.0}, \"59\": {\"I\": 1.0}, \"60\": {\"Cs\": 1.0}, \"61\": {\"Cs\": 1.0}, \"62\": {\"K\": 1.0}, \"63\": {\"In\": 1.0}, \"64\": {\"I\": 1.0}, \"65\": {\"I\": 1.0}, \"66\": {\"I\": 1.0}, \"67\": {\"I\": 1.0}, \"68\": {\"I\": 1.0}, \"69\": {\"I\": 1.0}, \"70\": {\"Cs\": 1.0}, \"71\": {\"Cs\": 1.0}, \"72\": {\"K\": 1.0}, \"73\": {\"In\": 1.0}, \"74\": {\"I\": 1.0}, \"75\": {\"I\": 1.0}, \"76\": {\"I\": 1.0}, \"77\": {\"I\": 1.0}, \"78\": {\"I\": 1.0}, \"79\": {\"I\": 1.0}}" energy=-205.1914091743012 free_energy=-205.1914091743012 stress="-1.5151482442037438e-05 -3.3967488153314175e-06 -1.8890660995289026e-06 -3.3967488153314175e-06 1.5903424781930117e-05 -9.000705715950603e-06 -1.8890660995289026e-06 -9.000705715950603e-06 2.843087515606241e-06" pbc="T T T"
Cs       4.56246064       2.65691354       1.91014407        0      -0.00002562      -0.00001537      -0.00003098
Cs      13.77567942       8.02546837       4.97075609        1       0.00006377      -0.00004866       0.00005344
K        9.16906636       5.34107114       3.44049801        2      -0.00006592       0.00008922       0.00000030
In      18.32703320       0.02388854       0.00155702        3      -0.00049183      -0.00007052       0.00004016
I        8.46919686       2.31542515       1.74511656        4      -0.00009469       0.00019120       0.00023163
I        9.86912558       8.36688817       5.13571970        5      -0.00024288       0.00005668       0.00009553
I       12.08855603       6.23166890       1.64637074        6       0.00036315       0.00013609      -0.00033096
I       24.57629098       4.47459780       5.23622196        7      -0.00002415      -0.00009178       0.00006438
I        6.96774235       7.44105088       1.64122025        8      -0.00016317      -0.00025084      -0.00004796
I       11.37042715       3.24137038       5.23985794        9       0.00004833       0.00011043      -0.00012783
Cs       9.14909332       5.29988620       8.83642466       10      -0.00005854       0.00000129      -0.00000915
Cs      18.36233649      10.66839388      11.89704853       11      -0.00005106       0.00007475       0.00004653
K       13.75561669       7.98409816      10.36680628       12       0.00011449       0.00001430      -0.00002705
In      22.91352191       2.66693859       6.92792440       13      -0.00002703      -0.00022479      -0.00007984
I       13.05565117       4.95840837       8.67151805       14       0.00015853       0.00009730      -0.00003752
I       14.45564444      11.00988361      12.06198495       15      -0.00000136      -0.00012652       0.00007332
I       16.67524982       8.87464847       8.57259428       16       0.00008847       0.00002461      -0.00007839
I       29.16304121       7.11759403      12.16245943       17      -0.00024743      -0.00017663       0.00026541
I       11.55435717      10.08385659       8.56751083       18      -0.00025868       0.00011298      -0.00010137
I       15.95696161       5.88433175      12.16611225       19       0.00010184       0.00000948      -0.00003219
Cs       9.15054444      10.68426660       1.86403584       20      -0.00000736       0.00010109      -0.00003832
Cs      18.36385718      16.05287024       4.92465007       21      -0.00003374      -0.00007399       0.00007034
K       13.75714005      13.36848799       3.39440414       22       0.00007134       0.00001972      -0.00002452
In      22.91493900       8.05115308      -0.04458547       23       0.00031053       0.00044293       0.00014762
I       13.05736411      10.34280295       1.69907651       24      -0.00015647       0.00000688      -0.00005295
I       14.45699233      16.39428481       5.08963755       25       0.00022187      -0.00009386      -0.00002993
I       16.67677636      14.25919826       1.60009200       26      -0.00001945      -0.00027156       0.00024771
I       29.16450698      12.50182690       5.19020784       27      -0.00009575       0.00020302      -0.00008645
I       11.55567869      15.46823961       1.59505626       28       0.00023582       0.00005911       0.00017323
I       15.95858369      11.26881385       5.19376755       29      -0.00011815      -0.00004385      -0.00016902
Cs      13.73715170      13.32734607       8.79032044       30       0.00001332      -0.00008098       0.00001711
Cs      22.95039390      18.69575801      11.85094478       31       0.00004066      -0.00000627      -0.00000509
K       18.34375210      16.01144977      10.32068149       32      -0.00003734       0.00003525       0.00001545
In      27.50156635      10.69429937       6.88170638       33      -0.00007519      -0.00001668       0.00004758
I       17.64386242      12.98589282       8.62542693       34      -0.00008562      -0.00016994      -0.00011083
I       19.04377323      19.03719716      12.01584036       35      -0.00008079       0.00014570       0.00020898
I       21.26332395      16.90209564       8.52644249       36       0.00012908      -0.00003711      -0.00004128
I       33.75097127      15.14494146      12.11652745       37       0.00009682      -0.00000798      -0.00016966
I       16.14248371      18.11127780       8.52137368       38      -0.00026748       0.00013172      -0.00011966
I       20.54503821      13.91179400      12.12000875       39       0.00044539      -0.00019165       0.00013776
Cs      13.72593794       2.66888927       1.91089447       40      -0.00005348      -0.00004701       0.00004744
Cs      22.93917154       8.03737943       4.97154997       41       0.00001987       0.00008351      -0.00000703
K       18.33249587       5.35305943       3.44129518       42       0.00004968       0.00003985      -0.00001827
In       9.16348866       0.01191039       0.00083751       43       0.00014281      -0.00015946      -0.00014072
I       17.63250016       2.32742060       1.74599046       44       0.00022674      -0.00001667      -0.00010848
I       19.03256574       8.37883217       5.13648354       45      -0.00016658      -0.00005853       0.00005753
I        2.92516058       6.21982205       1.64553789       46       0.00007768      -0.00029642      -0.00001808
I       15.41300606       4.46251605       5.23539128       47      -0.00020256       0.00015386       0.00021417
I       16.13112135       7.45300502       1.64196775       48       0.00000062      -0.00022233       0.00004436
I       20.53387257       3.25321507       5.24064383       49       0.00003229       0.00020437      -0.00007004
Cs      18.31254831       5.31189699       8.83719466       50      -0.00013009      -0.00012938      -0.00000053
Cs      27.52570676      10.68034441      11.89785677       51       0.00013913       0.00004736       0.00001394
K       22.91909405       7.99602853      10.36756457       52      -0.00003009       0.00003893       0.00001853
In      13.75005932       2.65504940       6.92710458       53       0.00010545      -0.00055697      -0.00007671
I       22.21922331       4.97049090       8.67226216       54      -0.00003362      -0.00009418       0.00001094
I       23.61910145      11.02177624      12.06278452       55      -0.00008529      -0.00004928       0.00002507
I        7.51185745       8.86276377       8.57178568       56      -0.00003382      -0.00005449      -0.00005723
I       19.99931685       7.10555969      12.16182013       57       0.00032657       0.00004431      -0.00018327
I       20.71765253      10.09593703       8.56815519       58       0.00024320      -0.00020164       0.00036161
I       25.12057032       5.89629633      12.16702886       59      -0.00007288       0.00011584      -0.00034717
Cs      18.31395847      10.69625787       1.86482710       60       0.00012789       0.00004110      -0.00003997
Cs      27.52727693      16.06481664       4.92541041       61      -0.00010285      -0.00010003       0.00007182
K       22.92062783      13.38040999       3.39517525       62      -0.00007954       0.00008441       0.00000386
In      13.75158261       8.03920149      -0.04539712       63      -0.00027311       0.00050839       0.00017164
I       22.22079737      10.35468990       1.69980230       64      -0.00024537       0.00023404       0.00018496
I       23.62061297      16.40631322       5.09039598       65      -0.00008292      -0.00000355       0.00010252
I        7.51313266      14.24716933       1.59944465       66       0.00051113       0.00007143      -0.00030568
I       20.00100239      12.48992845       5.18942622       67      -0.00006094       0.00013200      -0.00010828
I       20.71946750      15.48025499       1.59600035       68      -0.00064013       0.00011345      -0.00045883
I       25.12178084      11.28085214       5.19438856       69       0.00071526      -0.00028216       0.00042590
Cs      22.90059455      13.33919445       8.79112806       70      -0.00000194       0.00013332      -0.00006811
Cs      32.11391900      18.70779936      11.85170814       71      -0.00009254      -0.00006414       0.00010209
K       27.50716965      16.02344850      10.32147573       72       0.00008998       0.00000749      -0.00002084
In      18.33809578      10.68228509       6.88096377       73       0.00004707       0.00015380       0.00003922
I       26.80733042      12.99780040       8.62622862       74      -0.00005502      -0.00016229      -0.00019954
I       28.20704128      19.04916933      12.01662661       75       0.00022414       0.00015475       0.00024557
I       12.09994238      16.89000449       8.52563735       76       0.00011513       0.00022370       0.00006165
I       24.58765636      15.13306867      12.11568249       77      -0.00026449      -0.00032083       0.00008523
I       25.30585331      18.12307146       8.52217140       78      -0.00018549       0.00035635      -0.00009404
I       29.70857328      13.92379960      12.12081666       79      -0.00007561      -0.00018768      -0.00015075
