80
Lattice="17.133301979449154 -1.4372620744894917 1.221363329195113 -7.274323293744428 15.579481345577676 -1.2290951586855565 -1.1761782756444654 0.8266064143501999 17.440855036335975" Properties=species:S:1:pos:R:3:spacegroup_kinds:I:1:forces:R:3 spacegroup="P 1" unit_cell=conventional occupancy="_JSON {\"0\": {\"Cs\": 1.0}, \"1\": {\"Cs\": 1.0}, \"2\": {\"K\": 1.0}, \"3\": {\"In\": 1.0}, \"4\": {\"I\": 1.0}, \"5\": {\"I\": 1.0}, \"6\": {\"I\": 1.0}, \"7\": {\"I\": 1.0}, \"8\": {\"I\": 1.0}, \"9\": {\"I\": 1.0}, \"10\": {\"Cs\": 1.0}, \"11\": {\"Cs\": 1.0}, \"12\": {\"K\": 1.0}, \"13\": {\"In\": 1.0}, \"14\": {\"I\": 1.0}, \"15\": {\"I\": 1.0}, \"16\": {\"I\": 1.0}, \"17\": {\"I\": 1.0}, \"18\": {\"I\": 1.0}, \"19\": {\"I\": 1.0}, \"20\": {\"Cs\": 1.0}, \"21\": {\"Cs\": 1.0}, \"22\": {\"K\": 1.0}, \"23\": {\"In\": 1.0}, \"24\": {\"I\": 1.0}, \"25\": {\"I\": 1.0}, \"26\": {\"I\": 1.0}, \"27\": {\"I\": 1.0}, \"28\": {\"I\": 1.0}, \"29\": {\"I\": 1.0}, \"30\": {\"Cs\": 1.0}, \"31\": {\"Cs\": 1.0}, \"32\": {\"K\": 1.0}, \"33\": {\"In\": 1.0}, \"34\": {\"I\": 1.0}, \"35\": {\"I\": 1.0}, \"36\": {\"I\": 1.0}, \"37\": {\"I\": 1.0}, \"38\": {\"I\": 1.0}, \"39\": {\"I\": 1.0}, \"40\": {\"Cs\": 1.0}, \"41\": {\"Cs\": 1.0}, \"42\": {\"K\": 1.0}, \"43\": {\"In\": 1.0}, \"44\": {\"I\": 1.0}, \"45\": {\"I\": 1.0}, \"46\": {\"I\": 1.0}, \"47\": {\"I\": 1.0}, \"48\": {\"I\": 1.0}, \"49\": {\"I\": 1.0}, \"50\": {\"Cs\": 1.0}, \"51\": {\"Cs\": 1.0}, \"52\": {\"K\": 1.0}, \"53\": {\"In\": 1.0}, \"54\": {\"I\": 1.0}, \"55\": {\"I\": 1.0}, \"56\": {\"I\": 1.0}, \"57\": {\"I\": 1.0}, \"58\": {\"I\": 1.0}, \"59\": {\"I\": 1.0}, \"60\": {\"Cs\": 1.0}, \"61\": {\"Cs\": 1.0}, \"62\": {\"K\": 1.0}, \"63\": {\"In\": 1.0}, \"64\": {\"I\": 1.0}, \"65\": {\"I\": 1.0}, \"66\": {\"I\": 1.0}, \"67\": {\"I\": 1.0}, \"68\": {\"I\": 1.0}, \"69\": {\"I\": 1.0}, \"70\": {\"Cs\": 1.0}, \"71\": {\"Cs\": 1.0}, \"72\": {\"K\": 1.0}, \"73\": {\"In\": 1.0}, \"74\": {\"I\": 1.0}, \"75\": {\"I\": 1.0}, \"76\": {\"I\": 1.0}, \"77\": {\"I\": 1.0}, \"78\": {\"I\": 1.0}, \"79\": {\"I\": 1.0}}" energy=-206.2062507274796 free_energy=-206.2062507274796 stress="8.636783447387503e-08 1.3466523683647648e-06 -2.053041986197227e-06 1.3466523683647648e-06 1.9940348487516995e-06 -1.084624337499649e-06 -2.053041986197227e-06 -1.084624337499649e-06 -1.639453357229729e-06" pbc="T T T"
Cs      -0.11021873       5.75043179      16.04074164        0      -0.00002024       0.00000068      -0.00006234
Cs       3.79217466       3.03165058      18.90878949        1       0.00006740       0.00003442      -0.00001010
K        0.25840261       0.23562292       4.39604965        2      -0.00000399      -0.00009606      -0.00002616
In       0.55247234       0.02892355       0.03582510        3       0.00005733      -0.00016540      -0.00020932
I        0.94399671       2.48389404       1.69587396        4      -0.00000903       0.00013496       0.00002979
I        4.50235324       5.05828779       7.09241838        5      -0.00002319      -0.00003835      -0.00019137
I        2.38694536       1.11144173       7.13780558        6      -0.00010301       0.00005475       0.00003471
I        6.69658284      -1.35900656       2.26485850        7       0.00001199      -0.00009284       0.00008225
I       -1.40541281       6.28027602       1.35747751        8       0.00003385      -0.00007659       0.00002647
I       -1.71482108       1.98064106       6.82011781        9      -0.00013176       0.00000369      -0.00007241
Cs       0.47784192       5.33708470       7.32030327       10       0.00005870       0.00009471      -0.00003669
Cs       4.38029361       2.61830076      10.18836857       11       0.00000060       0.00010777      -0.00002371
K       -0.32967361       0.64888289      13.11644311       12      -0.00005232      -0.00000046       0.00005776
In      -0.03560987       0.44215803       8.75624856       13      -0.00007606       0.00011950      -0.00017975
I        0.35591860       2.89729335      10.41631600       14      -0.00008672      -0.00019823      -0.00010771
I        3.91424986       5.47164308      15.81275215       15      -0.00001772      -0.00013397      -0.00000319
I       -5.47548109      17.10426332      14.62912288       16      -0.00006136       0.00002537       0.00003257
I        6.10850701      -0.94568276      10.98517237       17      -0.00012605      -0.00013106       0.00034554
I       -1.99353789       6.69364290      10.07791115       18       0.00014569      -0.00019844      -0.00012533
I       -2.30294205       2.39395736      15.54051265       19      -0.00005296       0.00000140      -0.00006002
Cs      -3.74739166      13.54015852      15.42619664       20      -0.00000729       0.00003255      -0.00008418
Cs       0.15502573      10.82137728      18.29424110       21       0.00004361       0.00003371       0.00000100
K       -3.37874818       8.02528775       3.78149608       22      -0.00003268       0.00003283       0.00000538
In      -3.08469841       7.81868230      -0.57870613       23      -0.00001033      -0.00024678      -0.00032807
I       -2.69315447      10.27360900       1.08125326       24      -0.00002867       0.00025838       0.00019499
I        0.86518345      12.84805033       6.47778616       25      -0.00001240       0.00002413       0.00003191
I       -1.25014141       8.90139337       6.52307185       26      -0.00041863      -0.00030451       0.00036589
I        3.05941151       6.43069768       1.65029970       27       0.00001165      -0.00001542       0.00011199
I       -5.04257936      14.07000270       0.74288732       28       0.00003473      -0.00004848       0.00009147
I       -5.35197998       9.77043581       6.20564599       29      -0.00002967      -0.00022679      -0.00007078
Cs      -3.15930988      13.12690277       6.70579994       30       0.00003982      -0.00005103      -0.00016120
Cs       0.74310448      10.40812946       9.57383045       31       0.00004597      -0.00007564      -0.00004083
K       -3.96683046       8.43863181      12.50187364       32      -0.00008175       0.00001741       0.00010886
In      -3.67272314       8.23181502       8.14166300       33      -0.00024792       0.00039443      -0.00001500
I       -3.28128376      10.68696632       9.80170765       34       0.00002504      -0.00007713      -0.00002139
I        0.27707946      13.26136918      15.19821389       35       0.00000999      -0.00015883      -0.00009671
I       -1.83834555       9.31450671      15.24370411       36       0.00005561       0.00005816      -0.00004809
I        2.47128885       6.84389351      10.37082436       37       0.00023923       0.00020076      -0.00007172
I       -5.63068255      14.48340833       9.46329021       38       0.00012500      -0.00024607       0.00017280
I       -5.94011441      10.18374059      14.92591466       39      -0.00000930      -0.00007395       0.00005304
Cs       8.45640868       5.03183060      16.65142094       40       0.00005127      -0.00003516      -0.00006455
Cs      12.35882991       2.31300605      19.51946884       41       0.00003382       0.00005916      -0.00000176
K        8.82507831      -0.48304797       5.00673716       42      -0.00009561       0.00002445       0.00000332
In       9.11913799      -0.68981314       0.64645235       43      -0.00002050       0.00033999       0.00010618
I        9.51063951       1.76521687       2.30650037       44       0.00000120       0.00010139       0.00005640
I       13.06897158       4.33956204       7.70290834       45       0.00008752       0.00022829       0.00024781
I       10.95356689       0.39276544       7.74853479       46      -0.00003052       0.00013218      -0.00001709
I       15.26324690      -2.07767816       2.87550697       47      -0.00004025      -0.00001334       0.00018019
I        7.16126390       5.56164277       1.96816265       48      -0.00006793      -0.00005639      -0.00001108
I        6.85169311       1.26219166       7.43065248       49       0.00044758      -0.00046233       0.00035010
Cs       9.04449943       4.61846028       7.93094452       50       0.00001866       0.00007681       0.00002073
Cs      12.94692810       1.89969257      10.79902844       51       0.00003613       0.00006076       0.00002200
K        8.23696227      -0.06973418      13.72710633       52      -0.00000231      -0.00000277       0.00008496
In       8.53105318      -0.27649326       9.36700943       53      -0.00012322       0.00037434      -0.00065015
I        8.92255618       2.17854588      11.02698142       54       0.00000777       0.00004286      -0.00002083
I       12.48089586       4.75296963      16.42346111       55       0.00004093       0.00006122       0.00001347
I        3.09117527      16.38566213      15.23985325       56      -0.00005368      -0.00005415      -0.00009315
I       14.67510044      -1.66435213      11.59601069       57       0.00017889      -0.00001321      -0.00002808
I        6.57313240       5.97490484      10.68850934       58      -0.00000391       0.00008307       0.00004577
I        6.26367522       1.67541038      16.15119568       59       0.00007030      -0.00017790      -0.00005114
Cs       4.81925296      12.82151193      16.03687844       60       0.00005003       0.00004946      -0.00007587
Cs       8.72166338      10.10276596      18.90491957       61       0.00005880       0.00001840      -0.00001078
K        5.18789758       7.30670871       4.39211829       62      -0.00000637      -0.00006030       0.00008125
In       5.48194615       7.09999688       0.03192493       63       0.00010655      -0.00001739       0.00003169
I        5.87348959       9.55499595       1.69192751       64      -0.00003763       0.00012666       0.00010886
I        9.43182650      12.12932241       7.08833234       65       0.00002255       0.00025654       0.00029753
I        7.31647761       8.18263264       7.13378548       66      -0.00032096      -0.00006343       0.00032520
I       11.62609889       5.71203203       2.26095570       67      -0.00007970       0.00002821       0.00019488
I        3.52410764      13.35136085       1.35364001       68      -0.00005401      -0.00007496      -0.00004977
I        3.21465398       9.05174215       6.81621134       69      -0.00007966       0.00001830       0.00003435
Cs       5.40732262      12.40831081       7.31643598       70       0.00009890      -0.00011921      -0.00005041
Cs       9.30976733       9.68947425      10.18451216       71      -0.00000339      -0.00002346      -0.00005538
K        4.59980275       7.72004587      13.11264510       72       0.00000107      -0.00006615      -0.00017241
In       4.89386112       7.51327636       8.75232812       73       0.00016620       0.00027295       0.00021302
I        5.28539354       9.96838847      10.41249393       74      -0.00006551      -0.00033035      -0.00026289
I        8.84373479      12.54265984      15.80892046       75       0.00003628       0.00013892      -0.00001921
I        6.72833584       8.59585664      15.85440711       76       0.00000015       0.00007105      -0.00006319
I       11.03788255       6.12536788      10.98167104       77       0.00044736      -0.00000577      -0.00046952
I        2.93605814      13.76459325      10.07403904       78      -0.00014936       0.00004010       0.00009745
I        2.62653951       9.46510332      15.53663208       79      -0.00009062      -0.00000243      -0.00004825
