80
Lattice="21.31048584981503 0.0 0.0 -7.8395644075695445 13.578523863119063 0.0 -2.448022904074537 1.510660117092328 16.549498281028892" Properties=species:S:1:pos:R:3 pbc="T T T"
Cs       1.70880924       4.60201353      -0.00002246
Cs       6.56715095       2.33892622      -0.00002246
K        0.15824815       0.45350329       4.13737840
In       0.77025855       0.07583943       0.00001515
I        2.29141523       2.00710259       1.65551558
I        4.76055253       5.68916774       6.61925775
I        1.81468119       0.60421351       6.61924565
I        8.38679885       0.22694565       1.65551048
I       -2.36664972       5.23608056       1.65550930
I       -1.23664714       2.46020934       6.61925146
Cs       0.48479779       5.35734359       8.27472668
Cs       5.34313950       3.09425628       8.27472668
K       -1.06576330       1.20883335      12.41212754
In      -0.45375290       0.83116949       8.27476429
I        1.06740378       2.76243265       9.93026472
I        3.53654107       6.44449779      14.89400689
I        0.59066974       1.35954357      14.89399479
I        7.16278740       0.98227571       9.93025962
I       -3.59066117       5.99141062       9.93025844
I       -2.46065860       3.21553939      14.89400061
Cs      -2.21097296      11.39127546      -0.00002246
Cs       2.64736875       9.12818815      -0.00002246
K       -3.76153406       7.24276522       4.13737840
In      -3.14952365       6.86510137       0.00001515
I       -1.62836697       8.79636453       1.65551558
I        0.84077032      12.47842967       6.61925775
I       -2.10510101       7.39347544       6.61924565
I        4.46701664       7.01620758       1.65551048
I       -6.28643192      12.02534249       1.65550930
I       -5.15642935       9.24947127       6.61925146
Cs      -3.43498441      12.14660552       8.27472668
Cs       1.42335730       9.88351821       8.27472668
K       -4.98554551       7.99809528      12.41212754
In      -4.37353511       7.62043142       8.27476429
I       -2.85237842       9.55169458       9.93026472
I       -0.38324113      13.23375973      14.89400689
I       -3.32911247       8.14880550      14.89399479
I        3.24300519       7.77153764       9.93025962
I       -7.51044337      12.78067255       9.93025844
I       -6.38044080      10.00480133      14.89400061
Cs      12.36405217       4.60201353      -0.00002246
Cs      17.22239388       2.33892622      -0.00002246
K       10.81349107       0.45350329       4.13737840
In      11.42550148       0.07583943       0.00001515
I       12.94665816       2.00710259       1.65551558
I       15.41579545       5.68916774       6.61925775
I       12.46992412       0.60421351       6.61924565
I       19.04204177       0.22694565       1.65551048
I        8.28859321       5.23608056       1.65550930
I        9.41859578       2.46020934       6.61925146
Cs      11.14004071       5.35734359       8.27472668
Cs      15.99838242       3.09425628       8.27472668
K        9.58947962       1.20883335      12.41212754
In      10.20149002       0.83116949       8.27476429
I       11.72264671       2.76243265       9.93026472
I       14.19178400       6.44449779      14.89400689
I       11.24591266       1.35954357      14.89399479
I       17.81803032       0.98227571       9.93025962
I        7.06458176       5.99141062       9.93025844
I        8.19458433       3.21553939      14.89400061
Cs       8.44426996      11.39127546      -0.00002246
Cs      13.30261167       9.12818815      -0.00002246
K        6.89370887       7.24276522       4.13737840
In       7.50571927       6.86510137       0.00001515
I        9.02687596       8.79636453       1.65551558
I       11.49601325      12.47842967       6.61925775
I        8.55014191       7.39347544       6.61924565
I       15.12225957       7.01620758       1.65551048
I        4.36881100      12.02534249       1.65550930
I        5.49881358       9.24947127       6.61925146
Cs       7.22025851      12.14660552       8.27472668
Cs      12.07860022       9.88351821       8.27472668
K        5.66969742       7.99809528      12.41212754
In       6.28170782       7.62043142       8.27476429
I        7.80286450       9.55169458       9.93026472
I       10.27200179      13.23375973      14.89400689
I        7.32613046       8.14880550      14.89399479
I       13.89824812       7.77153764       9.93025962
I        3.14479955      12.78067255       9.93025844
I        4.27480213      10.00480133      14.89400061
