20
Lattice="16.980678933520558 -4.551207410106509 6.064736373346051 -2.347533638162218 8.945419276532753 -0.9711057611723892 5.5531960122371675 -2.1428016550913194 11.35698906396201" Properties=species:S:1:pos:R:3:spacegroup_kinds:I:1:forces:R:3 spacegroup="P 1" unit_cell=conventional occupancy="_JSON {\"0\": {\"Cs\": 1.0}, \"1\": {\"Cs\": 1.0}, \"2\": {\"K\": 1.0}, \"3\": {\"In\": 1.0}, \"4\": {\"I\": 1.0}, \"5\": {\"I\": 1.0}, \"6\": {\"I\": 1.0}, \"7\": {\"I\": 1.0}, \"8\": {\"I\": 1.0}, \"9\": {\"I\": 1.0}, \"10\": {\"Cs\": 1.0}, \"11\": {\"Cs\": 1.0}, \"12\": {\"K\": 1.0}, \"13\": {\"In\": 1.0}, \"14\": {\"I\": 1.0}, \"15\": {\"I\": 1.0}, \"16\": {\"I\": 1.0}, \"17\": {\"I\": 1.0}, \"18\": {\"I\": 1.0}, \"19\": {\"I\": 1.0}}" energy=-51.58762909046987 free_energy=-51.58762909046987 stress="-1.510428441246523e-06 -4.900015372759264e-07 2.3022045380124197e-08 -4.900015372759264e-07 1.096005461193534e-06 1.2494435392481108e-07 2.3022045380124197e-08 1.2494435392481108e-07 -1.0176417435292712e-06" pbc="T T T"
Cs       1.77905097       2.32680310       0.61982880        0      -0.00023907      -0.00012282      -0.00017212
Cs      20.71671172      -0.62827536      16.66033990        1       0.00019974      -0.00014217      -0.00034782
K        3.93434502      -1.34738842       6.09126404        2      -0.00016549      -0.00011427       0.00024905
In      13.89048285      -3.69079641       4.96081009        3       0.00008819       0.00022156      -0.00009946
I       12.70051729      -1.31441762       6.37582396        4      -0.00009450       0.00001790       0.00007999
I        9.79426611       3.01201033      10.89780445        5      -0.00029234       0.00005964       0.00018604
I       21.65290958      -4.12183032      15.19825806        6       0.00062437       0.00056016      -0.00035054
I        0.84481112       5.82103458       2.07934758        7       0.00026551      -0.00027622      -0.00000567
I       15.52425028      -4.27608618       7.42105290        8       0.00043270       0.00038187      -0.00011455
I        9.31812262      -2.97078785      10.82684962        9      -0.00029075      -0.00020145      -0.00025400
Cs      10.27092859       0.05060938       3.64707791       10       0.00041028       0.00004211       0.00004130
Cs      12.22784474       1.64736693      13.62293132       11      -0.00010577       0.00026030       0.00034777
K       12.41971248      -3.62373370       9.12192629       12       0.00035852      -0.00012598       0.00029469
In       5.40150348      -1.41371480       1.92830515       13      -0.00053342      -0.00025381       0.00000655
I        4.21343282       0.96262505       3.34490618       14       0.00017453       0.00017378       0.00000336
I       18.28666210       0.73621076      13.93119804       15       0.00018250      -0.00005923      -0.00023181
I       13.16327803      -1.84589708      12.16256606       16      -0.00034614      -0.00026614       0.00020761
I        9.33365878       3.54319084       5.10982147       17      -0.00009997       0.00000334      -0.00014613
I        7.03737225      -1.99926976       4.38725469       18      -0.00055985      -0.00034359       0.00000860
I       17.81020756      -5.24825672      13.85725573       19      -0.00000904       0.00018502       0.00029714
