10
Lattice="8.964772550039587 -2.4013555745389747 0.5716178688890912 -2.359735055812424 8.915869922394114 -1.205247397741536 -0.25773588322690205 1.1171078763761217 8.751806417874873" Properties=species:S:1:pos:R:3:spacegroup_kinds:I:1:forces:R:3 spacegroup="P 1" unit_cell=conventional occupancy="_JSON {\"0\": {\"Cs\": 1.0}, \"1\": {\"Cs\": 1.0}, \"2\": {\"K\": 1.0}, \"3\": {\"In\": 1.0}, \"4\": {\"I\": 1.0}, \"5\": {\"I\": 1.0}, \"6\": {\"I\": 1.0}, \"7\": {\"I\": 1.0}, \"8\": {\"I\": 1.0}, \"9\": {\"I\": 1.0}}" energy=-25.79380305880583 free_energy=-25.79380305880583 stress="-1.3635469137426058e-06 -4.357761106050188e-06 8.526102399015754e-07 -4.357761106050188e-06 6.804821072302225e-06 1.747821030816253e-06 8.526102399015754e-07 1.747821030816253e-06 -1.7468222386202663e-05" pbc="T T T"
Cs       4.24438936       2.19095316      -0.10779467        0      -0.00045389      -0.00050734      -0.00046088
Cs       0.21379294       7.06754246       7.96307997        1      -0.00026470       0.00046561       0.00028764
K        7.88980753      -1.02966755       4.81580790        2       0.00067578       0.00018692       0.00009817
In       8.02002542      -1.58798348       0.43993840        3       0.00026050       0.00040384       0.00025407
I        7.37661429       0.97969381       1.87490553        4       0.00006445      -0.00014733       0.00003333
I        6.04571661       5.87750008       6.55173093        5       0.00002673      -0.00027680      -0.00019339
I        0.60121157       3.39518414       6.70559749        6      -0.00034846       0.00031309      -0.00004926
I        3.85648473       5.86264946       1.14918024        7       0.00024657       0.00026944       0.00001983
I        1.34692330       0.38009063       1.77210809        8      -0.00035321      -0.00013478       0.00039905
I        5.47032104      -0.03679330       7.28829248        9       0.00014622      -0.00057267      -0.00038857
