80
Lattice="20.73983813589926 0.0 0.0 4.0400305777781504 15.607013075901685 0.0 10.915756656616223 8.517669499847079 5.85137770287289" Properties=species:S:1:pos:R:3 pbc="T T T"
Cs       4.46177508       3.01553180       0.73144528
Cs      13.38603725       9.04680809       2.19424267
K        8.92390605       6.03116980       1.46284378
In       0.00000027       0.00000102       0.00000043
I        8.83103396       2.59042695      -0.66125670
I        9.01677816       9.47191179       3.58694432
I       13.55092511       4.65271406       1.39441625
I        4.29688466       7.40962477       1.53127090
I        5.55908214       6.33766596      -0.03485921
I       12.28873112       5.72467770       2.96054928
Cs       9.91965341       7.27436655       3.65713413
Cs      18.84391558      13.30564284       5.11993152
K       14.38178438      10.29000455       4.38853263
In       5.45787860       4.25883577       2.92568928
I       14.28891229       6.84926170       2.26443215
I       14.47465649      13.73074654       6.51263317
I       19.00880344       8.91154881       4.32010510
I        9.75476298      11.66845952       4.45695975
I       11.01696047      10.59650071       2.89082965
I       17.74660945       9.98351245       5.88623813
Cs       6.48179037      10.81903834       0.73144528
Cs      15.40605254      16.85031463       2.19424267
K       10.94392134      13.83467634       1.46284378
In       2.02001556       7.80350756       0.00000043
I       10.85104925      10.39393349      -0.66125670
I       11.03679345      17.27541832       3.58694432
I       15.57094040      12.45622060       1.39441625
I        6.31689994      15.21313131       1.53127090
I        7.57909743      14.14117250      -0.03485921
I       14.30874641      13.52818423       2.96054928
Cs      11.93966870      15.07787309       3.65713413
Cs      20.86393087      21.10914938       5.11993152
K       16.40179967      18.09351109       4.38853263
In       7.47789389      12.06234231       2.92568928
I       16.30892758      14.65276824       2.26443215
I       16.49467177      21.53425307       6.51263317
I       21.02881873      16.71505535       4.32010510
I       11.77477827      19.47196606       4.45695975
I       13.03697576      18.40000725       2.89082965
I       19.76662474      17.78701898       5.88623813
Cs      14.83169415       3.01553180       0.73144528
Cs      23.75595632       9.04680809       2.19424267
K       19.29382512       6.03116980       1.46284378
In      10.36991934       0.00000102       0.00000043
I       19.20095303       2.59042695      -0.66125670
I       19.38669723       9.47191179       3.58694432
I       23.92084418       4.65271406       1.39441625
I       14.66680372       7.40962477       1.53127090
I       15.92900121       6.33766596      -0.03485921
I       22.65865019       5.72467770       2.96054928
Cs      20.28957248       7.27436655       3.65713413
Cs      29.21383465      13.30564284       5.11993152
K       24.75170345      10.29000455       4.38853263
In      15.82779767       4.25883577       2.92568928
I       24.65883136       6.84926170       2.26443215
I       24.84457555      13.73074654       6.51263317
I       29.37872251       8.91154881       4.32010510
I       20.12468205      11.66845952       4.45695975
I       21.38687954      10.59650071       2.89082965
I       28.11652852       9.98351245       5.88623813
Cs      16.85170944      10.81903834       0.73144528
Cs      25.77597161      16.85031463       2.19424267
K       21.31384041      13.83467634       1.46284378
In      12.38993463       7.80350756       0.00000043
I       21.22096832      10.39393349      -0.66125670
I       21.40671251      17.27541832       3.58694432
I       25.94085947      12.45622060       1.39441625
I       16.68681901      15.21313131       1.53127090
I       17.94901650      14.14117250      -0.03485921
I       24.67866548      13.52818423       2.96054928
Cs      22.30958777      15.07787309       3.65713413
Cs      31.23384994      21.10914938       5.11993152
K       26.77171873      18.09351109       4.38853263
In      17.84781296      12.06234231       2.92568928
I       26.67884665      14.65276824       2.26443215
I       26.86459084      21.53425307       6.51263317
I       31.39873779      16.71505535       4.32010510
I       22.14469734      19.47196606       4.45695975
I       23.40689483      18.40000725       2.89082965
I       30.13654380      17.78701898       5.88623813
