160
Lattice="16.83768090108115 1.4373261182396668 -1.1700653375409448e-07 9.6523817823236 19.552459978744523 -1.805261450008496e-07 -1.8533575826314223e-07 -2.422955805117256e-07 24.74253832118067" Properties=species:S:1:pos:R:3:spacegroup_kinds:I:1:forces:R:3 spacegroup="P 1" unit_cell=conventional occupancy="_JSON {\"0\": {\"Cs\": 1.0}, \"1\": {\"Cs\": 1.0}, \"2\": {\"Cs\": 1.0}, \"3\": {\"Cs\": 1.0}, \"4\": {\"Pb\": 1.0}, \"5\": {\"Pb\": 1.0}, \"6\": {\"Pb\": 1.0}, \"7\": {\"Pb\": 1.0}, \"8\": {\"I\": 1.0}, \"9\": {\"I\": 1.0}, \"10\": {\"I\": 1.0}, \"11\": {\"I\": 1.0}, \"12\": {\"I\": 1.0}, \"13\": {\"I\": 1.0}, \"14\": {\"I\": 1.0}, \"15\": {\"I\": 1.0}, \"16\": {\"I\": 1.0}, \"17\": {\"I\": 1.0}, \"18\": {\"I\": 1.0}, \"19\": {\"I\": 1.0}, \"20\": {\"Cs\": 1.0}, \"21\": {\"Cs\": 1.0}, \"22\": {\"Cs\": 1.0}, \"23\": {\"Cs\": 1.0}, \"24\": {\"Pb\": 1.0}, \"25\": {\"Pb\": 1.0}, \"26\": {\"Pb\": 1.0}, \"27\": {\"Pb\": 1.0}, \"28\": {\"I\": 1.0}, \"29\": {\"I\": 1.0}, \"30\": {\"I\": 1.0}, \"31\": {\"I\": 1.0}, \"32\": {\"I\": 1.0}, \"33\": {\"I\": 1.0}, \"34\": {\"I\": 1.0}, \"35\": {\"I\": 1.0}, \"36\": {\"I\": 1.0}, \"37\": {\"I\": 1.0}, \"38\": {\"I\": 1.0}, \"39\": {\"I\": 1.0}, \"40\": {\"Cs\": 1.0}, \"41\": {\"Cs\": 1.0}, \"42\": {\"Cs\": 1.0}, \"43\": {\"Cs\": 1.0}, \"44\": {\"Pb\": 1.0}, \"45\": {\"Pb\": 1.0}, \"46\": {\"Pb\": 1.0}, \"47\": {\"Pb\": 1.0}, \"48\": {\"I\": 1.0}, \"49\": {\"I\": 1.0}, \"50\": {\"I\": 1.0}, \"51\": {\"I\": 1.0}, \"52\": {\"I\": 1.0}, \"53\": {\"I\": 1.0}, \"54\": {\"I\": 1.0}, \"55\": {\"I\": 1.0}, \"56\": {\"I\": 1.0}, \"57\": {\"I\": 1.0}, \"58\": {\"I\": 1.0}, \"59\": {\"I\": 1.0}, \"60\": {\"Cs\": 1.0}, \"61\": {\"Cs\": 1.0}, \"62\": {\"Cs\": 1.0}, \"63\": {\"Cs\": 1.0}, \"64\": {\"Pb\": 1.0}, \"65\": {\"Pb\": 1.0}, \"66\": {\"Pb\": 1.0}, \"67\": {\"Pb\": 1.0}, \"68\": {\"I\": 1.0}, \"69\": {\"I\": 1.0}, \"70\": {\"I\": 1.0}, \"71\": {\"I\": 1.0}, \"72\": {\"I\": 1.0}, \"73\": {\"I\": 1.0}, \"74\": {\"I\": 1.0}, \"75\": {\"I\": 1.0}, \"76\": {\"I\": 1.0}, \"77\": {\"I\": 1.0}, \"78\": {\"I\": 1.0}, \"79\": {\"I\": 1.0}, \"80\": {\"Cs\": 1.0}, \"81\": {\"Cs\": 1.0}, \"82\": {\"Cs\": 1.0}, \"83\": {\"Cs\": 1.0}, \"84\": {\"Pb\": 1.0}, \"85\": {\"Pb\": 1.0}, \"86\": {\"Pb\": 1.0}, \"87\": {\"Pb\": 1.0}, \"88\": {\"I\": 1.0}, \"89\": {\"I\": 1.0}, \"90\": {\"I\": 1.0}, \"91\": {\"I\": 1.0}, \"92\": {\"I\": 1.0}, \"93\": {\"I\": 1.0}, \"94\": {\"I\": 1.0}, \"95\": {\"I\": 1.0}, \"96\": {\"I\": 1.0}, \"97\": {\"I\": 1.0}, \"98\": {\"I\": 1.0}, \"99\": {\"I\": 1.0}, \"100\": {\"Cs\": 1.0}, \"101\": {\"Cs\": 1.0}, \"102\": {\"Cs\": 1.0}, \"103\": {\"Cs\": 1.0}, \"104\": {\"Pb\": 1.0}, \"105\": {\"Pb\": 1.0}, \"106\": {\"Pb\": 1.0}, \"107\": {\"Pb\": 1.0}, \"108\": {\"I\": 1.0}, \"109\": {\"I\": 1.0}, \"110\": {\"I\": 1.0}, \"111\": {\"I\": 1.0}, \"112\": {\"I\": 1.0}, \"113\": {\"I\": 1.0}, \"114\": {\"I\": 1.0}, \"115\": {\"I\": 1.0}, \"116\": {\"I\": 1.0}, \"117\": {\"I\": 1.0}, \"118\": {\"I\": 1.0}, \"119\": {\"I\": 1.0}, \"120\": {\"Cs\": 1.0}, \"121\": {\"Cs\": 1.0}, \"122\": {\"Cs\": 1.0}, \"123\": {\"Cs\": 1.0}, \"124\": {\"Pb\": 1.0}, \"125\": {\"Pb\": 1.0}, \"126\": {\"Pb\": 1.0}, \"127\": {\"Pb\": 1.0}, \"128\": {\"I\": 1.0}, \"129\": {\"I\": 1.0}, \"130\": {\"I\": 1.0}, \"131\": {\"I\": 1.0}, \"132\": {\"I\": 1.0}, \"133\": {\"I\": 1.0}, \"134\": {\"I\": 1.0}, \"135\": {\"I\": 1.0}, \"136\": {\"I\": 1.0}, \"137\": {\"I\": 1.0}, \"138\": {\"I\": 1.0}, \"139\": {\"I\": 1.0}, \"140\": {\"Cs\": 1.0}, \"141\": {\"Cs\": 1.0}, \"142\": {\"Cs\": 1.0}, \"143\": {\"Cs\": 1.0}, \"144\": {\"Pb\": 1.0}, \"145\": {\"Pb\": 1.0}, \"146\": {\"Pb\": 1.0}, \"147\": {\"Pb\": 1.0}, \"148\": {\"I\": 1.0}, \"149\": {\"I\": 1.0}, \"150\": {\"I\": 1.0}, \"151\": {\"I\": 1.0}, \"152\": {\"I\": 1.0}, \"153\": {\"I\": 1.0}, \"154\": {\"I\": 1.0}, \"155\": {\"I\": 1.0}, \"156\": {\"I\": 1.0}, \"157\": {\"I\": 1.0}, \"158\": {\"I\": 1.0}, \"159\": {\"I\": 1.0}}" energy=-452.95974960739744 free_energy=-452.95974960739744 stress="-4.2013643429495263e-07 -5.569449348173859e-07 -5.108951175498315e-08 -5.569449348173859e-07 1.8197218408606142e-06 -9.021053741550411e-08 -5.108951175498315e-08 -9.021053741550411e-08 -4.241122861128966e-06" pbc="T T T"
Cs      10.03245516       9.04297012       3.09281410        0       0.00012002      -0.00014818       0.00001539
Cs       3.41030555       3.79525711       3.09281787        1       0.00029701      -0.00007077      -0.00000157
Cs       4.35687071       1.55056038       9.27844255        2      -0.00009374      -0.00021671       0.00006820
Cs      10.97939213       6.79752593       9.27845523        3       0.00032953      -0.00010953      -0.00002371
Pb       0.57237083       0.04852502       0.00000199        4      -0.00034979       0.00006605      -0.00010656
Pb       7.19501833       5.29596763      24.74277628        5       0.00025129       0.00052788      -0.00024203
Pb       0.57236708       0.04853192       6.18563942        6      -0.00031148       0.00004115       0.00005799
Pb       7.19501897       5.29594778       6.18539517        7       0.00022591       0.00061266       0.00024919
I        4.28723377       6.76380383       0.54479532        8       0.00010710      -0.00022622      -0.00010778
I        6.08364001       2.23470416       0.54453698        9      -0.00016341       0.00005558       0.00006386
I        9.89472800       1.12636075       3.09282523       10       0.00008821      -0.00011556      -0.00002621
I       10.10237708       3.82907756      11.82697414       11       0.00004703      -0.00027736      -0.00018783
I        8.30604103       8.35753829      11.82655478       12      -0.00011190       0.00012493       0.00009892
I        8.09973925       5.65472845       3.09280644       13      -0.00069504       0.00002016       0.00002883
I        4.28724271       6.76381769       5.64084338       14       0.00008450      -0.00027348       0.00008744
I        6.08366575       2.23475945       5.64110465       15      -0.00023773      -0.00008219      -0.00009075
I        4.49419516       9.46685242       9.27842090       16       0.00006197      -0.00015572       0.00019232
I       10.10237450       3.82908326       6.72993293       17       0.00004307      -0.00032118       0.00015436
I        8.30604082       8.35753769       6.73034304       18      -0.00015677       0.00001849      -0.00007991
I        6.29199786       4.93783836       9.27847316       19      -0.00088714      -0.00005689      -0.00010316
Cs      10.03245459       9.04298848      15.46408243       20       0.00013571      -0.00024428       0.00001980
Cs       3.41030562       3.79527244      15.46408850       21       0.00030792      -0.00015061      -0.00001124
Cs       4.35687045       1.55056118      21.64973258       22      -0.00009036      -0.00022139      -0.00007158
Cs      10.97939216       6.79752996      21.64972021       23       0.00033094      -0.00013077       0.00000347
Pb       0.57232277       0.04845341      12.37124416       24      -0.00006768       0.00037868       0.00009800
Pb       7.19505895       5.29604429      12.37148568       25       0.00003410       0.00018700      -0.00009479
Pb       0.57234442       0.04847693      18.55692779       26      -0.00019646       0.00029334      -0.00008631
Pb       7.19503898       5.29603166      18.55668225       27       0.00015746       0.00021590       0.00012667
I        4.28721207       6.76375382      12.91607034       28       0.00021775       0.00000316      -0.00015093
I        6.08361395       2.23467717      12.91581616       29      -0.00000096       0.00015871      -0.00000676
I        9.89472615       1.12636177      15.46410124       30       0.00010397      -0.00012327      -0.00007435
I       10.10238903       3.82909177      24.19823473       31      -0.00002453      -0.00033894      -0.00012882
I        8.30606092       8.35758070      24.19782323       32      -0.00021526      -0.00006946       0.00010477
I        8.09973153       5.65471320      15.46407580       33      -0.00065462       0.00008632       0.00002652
I        4.28722966       6.76376534      18.01210617       34       0.00013056      -0.00002356       0.00013406
I        6.08364607       2.23473124      18.01236593       35      -0.00012234       0.00003382      -0.00003541
I        4.49419708       9.46685311      21.64973069       36       0.00004676      -0.00015864      -0.00010354
I       10.10237618       3.82907133      19.10119817       37       0.00002144      -0.00025886       0.00018278
I        8.30602991       8.35749202      19.10161370       38      -0.00011873       0.00023589      -0.00008888
I        6.29199938       4.93783782      21.64972232       39      -0.00089874      -0.00005361       0.00003754
Cs      14.85864657      18.81921356       3.09281533       40       0.00012050      -0.00021565       0.00000665
Cs       8.23649559      13.57151995       3.09281710       41       0.00033749      -0.00024534       0.00000172
Cs       9.18306421      11.32680855       9.27846461       42      -0.00008686      -0.00030655      -0.00008325
Cs      15.80557964      16.57377239       9.27844926       43       0.00035915      -0.00019539       0.00001628
Pb       5.39846499       9.82468516      -0.00003818       44       0.00034501       0.00034778       0.00017395
Pb      12.02131717      15.07238005      24.74277768       45      -0.00041876      -0.00031219      -0.00024662
Pb       5.39846676       9.82469390       6.18566569       46       0.00033014       0.00031156      -0.00012495
Pb      12.02131741      15.07238228       6.18539588       47      -0.00040873      -0.00033159       0.00024157
I        9.11338605      16.53996652       0.54480574       48       0.00034380       0.00010212      -0.00018506
I       10.90976902      12.01085324       0.54455448       49       0.00021884       0.00043251      -0.00006154
I       14.72089527      10.90256922       3.09283076       50       0.00024426      -0.00002637      -0.00006716
I       14.92855375      13.60526154      11.82697094       51       0.00015535      -0.00005558      -0.00017695
I       13.13221959      18.13377221      11.82655944       52       0.00003292       0.00008716       0.00005397
I       12.92590064      15.43092358       3.09280596       53      -0.00051370       0.00017435       0.00003128
I        9.11339510      16.53997108       5.64083041       54       0.00030683       0.00009840       0.00018004
I       10.90979210      12.01089879       5.64108715       55       0.00014804       0.00033471       0.00003188
I        9.32037144      19.24307345       9.27846079       56       0.00015738      -0.00012705      -0.00009842
I       14.92853070      13.60523358       6.72992130       57       0.00025503       0.00004975       0.00024385
I       13.13218101      18.13368055       6.73033692       58       0.00017693       0.00040699      -0.00002717
I       11.11816725      14.71404112       9.27845206       59      -0.00075016       0.00005489       0.00004239
Cs      14.85864545      18.81919397      15.46408509       60       0.00010666      -0.00011837       0.00000268
Cs       8.23649487      13.57150327      15.46408491       61       0.00032688      -0.00016427       0.00001123
Cs       9.18306452      11.32680760      21.64971443       62      -0.00009046      -0.00030215       0.00005462
Cs      15.80557922      16.57376781      21.64972185       63       0.00035801      -0.00017371      -0.00001013
Pb       5.39851242       9.82475610      12.37125794       64       0.00006269       0.00003643      -0.00003111
Pb      12.02127691      15.07230479      12.37152997       65      -0.00020162       0.00002511      -0.00039429
Pb       5.39848869       9.82474791      18.55691568       66       0.00021399       0.00006138       0.00002007
Pb      12.02129746      15.07229931      18.55664750       67      -0.00034097       0.00006190       0.00036347
I        9.11340885      16.54001887      12.91606867       68       0.00022936      -0.00013339      -0.00014044
I       10.90979590      12.01088123      12.91581309       69       0.00005378       0.00032612       0.00001026
I       14.72089753      10.90256816      15.46409329       70       0.00022843      -0.00001904      -0.00001926
I       14.92854139      13.60524776      24.19824852       71       0.00022699       0.00000457      -0.00023585
I       13.13220078      18.13373246      24.19782947       72       0.00013304       0.00027535       0.00004916
I       12.92590808      15.43093812      15.46407493       73      -0.00055414       0.00010809       0.00003339
I        9.11340928      16.54002566      18.01210642       74       0.00025671      -0.00015717       0.00013196
I       10.90981329      12.01092934      18.01236479       75       0.00002862       0.00021220      -0.00002510
I        9.32036918      19.24307238      21.64968930       76       0.00017266      -0.00012409       0.00019826
I       14.92852904      13.60524508      19.10119436       77       0.00027708      -0.00001264       0.00021548
I       13.13218962      18.13372168      19.10160443       78       0.00014437       0.00019910      -0.00001610
I       11.11816563      14.71404148      21.64974165       79      -0.00073867       0.00005152      -0.00009816
Cs      18.45129533       9.76163329       3.09281329       80       0.00010959      -0.00015158       0.00002100
Cs      11.82914517       4.51391845       3.09281831       81       0.00030819      -0.00006545      -0.00000674
Cs      12.77571515       2.26922589       9.27845107       82      -0.00010767      -0.00022018       0.00001501
Cs       2.56054846       6.07886260       9.27844714       83       0.00034256      -0.00010839       0.00002875
Pb       8.99111766       0.76711640      -0.00001123       84       0.00031417       0.00036159      -0.00002461
Pb      15.61395223       6.01470100      24.74278992       85      -0.00041362       0.00023715      -0.00032678
Pb       8.99111765       0.76712553       6.18564930       86       0.00031393       0.00032137      -0.00000261
Pb      15.61394915       6.01467879       6.18538509       87      -0.00040006       0.00033741       0.00031117
I       12.70603204       7.48243825       0.54480515       88       0.00040559      -0.00009282      -0.00017928
I       14.50243781       2.95334348       0.54454635       89       0.00013772       0.00017438      -0.00000621
I       18.31354645       1.84500744       3.09282348       90       0.00023786      -0.00005245      -0.00001434
I       18.52121004       4.54772929      11.82697539       91       0.00013195      -0.00022949      -0.00020847
I       16.72487699       9.07618767      11.82655599       92      -0.00003577       0.00018057       0.00007929
I       16.51855685       6.37337631       3.09280485       93      -0.00054413       0.00008245       0.00003976
I       12.70604137       7.48245220       5.64083237       94       0.00037535      -0.00014269       0.00016548
I       14.50246339       2.95339813       5.64109391       95       0.00005704       0.00003536      -0.00001368
I       12.91301910      10.18550300       9.27842260       96       0.00016932      -0.00011027       0.00018158
I       18.52117919       4.54771372       6.72992740       97       0.00030180      -0.00019480       0.00019914
I       16.72484685       9.07616368       6.73033798       98       0.00009665       0.00015765      -0.00003532
I       14.71082192       5.65648771       9.27847423       99      -0.00077943      -0.00001024      -0.00011128
Cs      18.45129531       9.76165268      15.46408736      100       0.00013120      -0.00024904      -0.00001224
Cs      11.82914664       4.51393382      15.46408344      101       0.00031098      -0.00014496       0.00002092
Cs      12.77571499       2.26922653      21.64972827      102      -0.00010750      -0.00022462      -0.00004496
Cs       2.56054841       6.07886633      21.64972420      103       0.00034688      -0.00012909      -0.00002273
Pb       8.99114423       0.76710188      12.37122319      104       0.00012407       0.00046085       0.00022895
Pb      15.61391875       6.01472026      12.37150710      105      -0.00015877       0.00011071      -0.00022768
Pb       8.99112198       0.76709174      18.55693993      106       0.00026144       0.00049564      -0.00016307
Pb      15.61394288       6.01474144      18.55666924      107      -0.00030201       0.00001918       0.00020640
I       12.70604449       7.48241657      12.91607135      108       0.00029588       0.00002898      -0.00016050
I       14.50244554       2.95334597      12.91581706      109       0.00008015       0.00016835      -0.00001509
I       18.31355305       1.84501490      15.46410119      110       0.00019293      -0.00008508      -0.00007566
I       18.52119065       4.54772022      24.19824201      111       0.00026095      -0.00020056      -0.00018810
I       16.72486345       9.07620426      24.19783020      112       0.00006582       0.00008246       0.00004525
I       16.51855818       6.37336869      15.46407658      113      -0.00056452       0.00012321       0.00002243
I       12.70604441       7.48241269      18.01210240      114       0.00031703       0.00005619       0.00016129
I       14.50245933       2.95338342      18.01236219      115       0.00006818       0.00009963      -0.00000892
I       12.91301686      10.18550072      21.64972821      116       0.00018298      -0.00010124      -0.00008550
I       18.52118659       4.54770539      19.10119044      117       0.00023912      -0.00014724       0.00024405
I       16.72484422       9.07612553      19.10160643      118       0.00008762       0.00035168      -0.00002976
I       14.71081909       5.65648421      21.64971901      119      -0.00076222       0.00000493       0.00005828
Cs      23.27748517      19.53787482       3.09281578      120       0.00013337      -0.00020968       0.00000141
Cs      16.65533799      14.29018500       3.09281648      121       0.00032453      -0.00025078       0.00000701
Cs      17.60190265      12.04547067       9.27845733      122      -0.00007584      -0.00030491      -0.00003189
Cs       7.38674260      15.85511007       9.27845646      123       0.00034613      -0.00019717      -0.00003512
Pb      13.81739729      10.54341742      -0.00002438      124      -0.00031736       0.00005974       0.00008949
Pb      20.44006375      15.79097284      24.74276387      125       0.00024641      -0.00002103      -0.00016183
Pb      13.81739488      10.54342338       6.18565491      126      -0.00029285       0.00004015      -0.00006136
Pb      20.44006788      15.79097752       6.18540588      127       0.00021719      -0.00005615       0.00017946
I       17.53226960      17.25865954       0.54479563      128       0.00004174      -0.00003350      -0.00011249
I       19.32865496      12.72954532       0.54454424      129      -0.00008932       0.00030150       0.00001154
I       23.13975845      11.62124845       3.09283251      130       0.00009434      -0.00009010      -0.00007952
I       23.34739880      14.32393251      11.82696978      131       0.00007804      -0.00009639      -0.00015904
I       21.55106409      18.85244881      11.82655886      132      -0.00004179       0.00003271       0.00007257
I       21.34476375      16.14960123       3.09280762      133      -0.00066516       0.00011190       0.00001933
I       17.53227842      17.25866443       5.64084153      134       0.00001172      -0.00003533       0.00010068
I       19.32867856      12.72959226       5.64109848      135      -0.00015445       0.00020331      -0.00004853
I       17.73922804      19.96174875       9.27845880      136       0.00004983      -0.00017220      -0.00008702
I       23.34740544      14.32392672       6.72992619      137       0.00000158      -0.00007195       0.00020125
I       21.55105287      18.85237482       6.73034122      138      -0.00006920       0.00028144      -0.00006855
I       19.53702414      15.43271876       9.27845124      139      -0.00085784       0.00000825       0.00005058
Cs      23.27748635      19.53785567      15.46408041      140       0.00011029      -0.00011312       0.00003425
Cs      16.65533636      14.29016940      15.46408974      141       0.00032186      -0.00017102      -0.00002084
Cs      17.60190231      12.04546945      21.64971716      142      -0.00007570      -0.00030026       0.00002986
Cs       7.38674247      15.85510573      21.64971882      143       0.00034181      -0.00017608       0.00001509
Pb      13.81737115      10.54343225      12.37127962      144      -0.00012769      -0.00004126      -0.00016423
Pb      20.44009732      15.79095279      12.37150837      145      -0.00000884       0.00010884      -0.00026043
Pb      13.81739132      10.54345835      18.55690251      146      -0.00024138      -0.00013832       0.00009911
Pb      20.44007382      15.79091364      18.55666056      147       0.00011800       0.00026523       0.00028252
I       17.53225653      17.25868057      12.91606776      148       0.00015284      -0.00015464      -0.00013144
I       19.32864643      12.72954215      12.91581226      149      -0.00003055       0.00030886       0.00001990
I       23.13975097      11.62124010      15.46409325      150       0.00013965      -0.00005705      -0.00001837
I       23.34741926      14.32394316      24.19824164      151      -0.00005383      -0.00012960      -0.00017857
I       21.55107653      18.85242988      24.19782284      152      -0.00014170       0.00013508       0.00010595
I       21.34476205      16.14960884      15.46407423      153      -0.00064423       0.00007133       0.00003713
I       17.53227433      17.25870172      18.01210975      154       0.00007287      -0.00023017       0.00010575
I       19.32868111      12.72960511      18.01236824      155      -0.00016272       0.00014283      -0.00005216
I       17.73923018      19.96175075      21.64969209      156       0.00003609      -0.00018136       0.00017831
I       23.34739666      14.32393367      19.10120162      157       0.00006704      -0.00011685       0.00015720
I       21.55105674      18.85241559      19.10161122      158      -0.00006346       0.00008115      -0.00007528
I       19.53702670      15.43272177      21.64974410      159      -0.00087509      -0.00000691      -0.00011747
