160
Lattice="17.32439128126397 0.0 0.0 8.627719679916149 16.14906823783315 0.0 0.0 0.0 25.2785628225796" Properties=species:S:1:pos:R:3 pbc="T T T"
Cs       8.66139551       7.44599158       3.15982037
Cs       2.64686442       3.40891443       3.15982037
Cs       5.49253472       0.62835250       9.47946108
Cs      11.50706581       4.66580947       9.47946108
Pb       0.58892071       0.00004883       0.00000268
Pb       7.07694845       4.03721811      -0.00000264
Pb       0.58892071       0.00004883       6.31963807
Pb       7.07694845       4.03721811       6.31964339
I        5.27997768       5.64299530       0.52523808
I        4.10163934       1.60571299       0.52541742
I        8.55810050       0.07624222       3.15982037
I        8.87393863       2.43155394      12.11386403
I       10.05227697       6.46880576      12.11404338
I        7.85130117       4.11331485       3.15982037
I        5.27997768       5.64299530       5.79440267
I        4.10163934       1.60571299       5.79422333
I        5.59577151       7.99848621       9.47946108
I        8.87393863       2.43155394       6.84505813
I       10.05227697       6.46880576       6.84487878
I        6.30257084       3.96102471       9.47946108
Cs       8.66139551       7.44599158      15.79910179
Cs       2.64686442       3.40891443      15.79910179
Cs       5.49253472       0.62835250      22.11874249
Cs      11.50706581       4.66580947      22.11874249
Pb       0.58892071       0.00004883      12.63928409
Pb       7.07694845       4.03721811      12.63927877
Pb       0.58892071       0.00004883      18.95891948
Pb       7.07694845       4.03721811      18.95892480
I        5.27997768       5.64299530      13.16451949
I        4.10163934       1.60571299      13.16469883
I        8.55810050       0.07624222      15.79910179
I        8.87393863       2.43155394      24.75314544
I       10.05227697       6.46880576      24.75332479
I        7.85130117       4.11331485      15.79910179
I        5.27997768       5.64299530      18.43368408
I        4.10163934       1.60571299      18.43350474
I        5.59577151       7.99848621      22.11874249
I        8.87393863       2.43155394      19.48433954
I       10.05227697       6.46880576      19.48416019
I        6.30257084       3.96102471      22.11874249
Cs      12.97525535      15.52052570       3.15982037
Cs       6.96072426      11.48344855       3.15982037
Cs       9.80639456       8.70288662       9.47946108
Cs      15.82092565      12.74034359       9.47946108
Pb       4.90278055       8.07458295       0.00000268
Pb      11.39080829      12.11175223      -0.00000264
Pb       4.90278055       8.07458295       6.31963807
Pb      11.39080829      12.11175223       6.31964339
I        9.59383752      13.71752942       0.52523808
I        8.41549918       9.68024711       0.52541742
I       12.87196034       8.15077634       3.15982037
I       13.18779847      10.50608806      12.11386403
I       14.36613681      14.54333988      12.11404338
I       12.16516101      12.18784897       3.15982037
I        9.59383752      13.71752942       5.79440267
I        8.41549918       9.68024711       5.79422333
I        9.90963135      16.07302032       9.47946108
I       13.18779847      10.50608806       6.84505813
I       14.36613681      14.54333988       6.84487878
I       10.61643068      12.03555883       9.47946108
Cs      12.97525535      15.52052570      15.79910179
Cs       6.96072426      11.48344855      15.79910179
Cs       9.80639456       8.70288662      22.11874249
Cs      15.82092565      12.74034359      22.11874249
Pb       4.90278055       8.07458295      12.63928409
Pb      11.39080829      12.11175223      12.63927877
Pb       4.90278055       8.07458295      18.95891948
Pb      11.39080829      12.11175223      18.95892480
I        9.59383752      13.71752942      13.16451949
I        8.41549918       9.68024711      13.16469883
I       12.87196034       8.15077634      15.79910179
I       13.18779847      10.50608806      24.75314544
I       14.36613681      14.54333988      24.75332479
I       12.16516101      12.18784897      15.79910179
I        9.59383752      13.71752942      18.43368408
I        8.41549918       9.68024711      18.43350474
I        9.90963135      16.07302032      22.11874249
I       13.18779847      10.50608806      19.48433954
I       14.36613681      14.54333988      19.48416019
I       10.61643068      12.03555883      22.11874249
Cs      17.32359115       7.44599158       3.15982037
Cs      11.30906006       3.40891443       3.15982037
Cs      14.15473036       0.62835250       9.47946108
Cs      20.16926145       4.66580947       9.47946108
Pb       9.25111635       0.00004883       0.00000268
Pb      15.73914409       4.03721811      -0.00000264
Pb       9.25111635       0.00004883       6.31963807
Pb      15.73914409       4.03721811       6.31964339
I       13.94217332       5.64299530       0.52523808
I       12.76383498       1.60571299       0.52541742
I       17.22029614       0.07624222       3.15982037
I       17.53613427       2.43155394      12.11386403
I       18.71447261       6.46880576      12.11404338
I       16.51349681       4.11331485       3.15982037
I       13.94217332       5.64299530       5.79440267
I       12.76383498       1.60571299       5.79422333
I       14.25796715       7.99848621       9.47946108
I       17.53613427       2.43155394       6.84505813
I       18.71447261       6.46880576       6.84487878
I       14.96476648       3.96102471       9.47946108
Cs      17.32359115       7.44599158      15.79910179
Cs      11.30906006       3.40891443      15.79910179
Cs      14.15473036       0.62835250      22.11874249
Cs      20.16926145       4.66580947      22.11874249
Pb       9.25111635       0.00004883      12.63928409
Pb      15.73914409       4.03721811      12.63927877
Pb       9.25111635       0.00004883      18.95891948
Pb      15.73914409       4.03721811      18.95892480
I       13.94217332       5.64299530      13.16451949
I       12.76383498       1.60571299      13.16469883
I       17.22029614       0.07624222      15.79910179
I       17.53613427       2.43155394      24.75314544
I       18.71447261       6.46880576      24.75332479
I       16.51349681       4.11331485      15.79910179
I       13.94217332       5.64299530      18.43368408
I       12.76383498       1.60571299      18.43350474
I       14.25796715       7.99848621      22.11874249
I       17.53613427       2.43155394      19.48433954
I       18.71447261       6.46880576      19.48416019
I       14.96476648       3.96102471      22.11874249
Cs      21.63745099      15.52052570       3.15982037
Cs      15.62291990      11.48344855       3.15982037
Cs      18.46859020       8.70288662       9.47946108
Cs      24.48312129      12.74034359       9.47946108
Pb      13.56497619       8.07458295       0.00000268
Pb      20.05300393      12.11175223      -0.00000264
Pb      13.56497619       8.07458295       6.31963807
Pb      20.05300393      12.11175223       6.31964339
I       18.25603316      13.71752942       0.52523808
I       17.07769482       9.68024711       0.52541742
I       21.53415598       8.15077634       3.15982037
I       21.84999411      10.50608806      12.11386403
I       23.02833245      14.54333988      12.11404338
I       20.82735665      12.18784897       3.15982037
I       18.25603316      13.71752942       5.79440267
I       17.07769482       9.68024711       5.79422333
I       18.57182699      16.07302032       9.47946108
I       21.84999411      10.50608806       6.84505813
I       23.02833245      14.54333988       6.84487878
I       19.27862632      12.03555883       9.47946108
Cs      21.63745099      15.52052570      15.79910179
Cs      15.62291990      11.48344855      15.79910179
Cs      18.46859020       8.70288662      22.11874249
Cs      24.48312129      12.74034359      22.11874249
Pb      13.56497619       8.07458295      12.63928409
Pb      20.05300393      12.11175223      12.63927877
Pb      13.56497619       8.07458295      18.95891948
Pb      20.05300393      12.11175223      18.95892480
I       18.25603316      13.71752942      13.16451949
I       17.07769482       9.68024711      13.16469883
I       21.53415598       8.15077634      15.79910179
I       21.84999411      10.50608806      24.75314544
I       23.02833245      14.54333988      24.75332479
I       20.82735665      12.18784897      15.79910179
I       18.25603316      13.71752942      18.43368408
I       17.07769482       9.68024711      18.43350474
I       18.57182699      16.07302032      22.11874249
I       21.84999411      10.50608806      19.48433954
I       23.02833245      14.54333988      19.48416019
I       19.27862632      12.03555883      22.11874249
