80
Lattice="17.444290787175206 -0.5494172764404764 -0.370839059121488 8.254700165936843 15.343904349044362 -0.3503683506301626 8.273498108293492 4.76666686986501 14.762939836319529" Properties=species:S:1:pos:R:3:spacegroup_kinds:I:1:forces:R:3 spacegroup="P 1" unit_cell=conventional occupancy="_JSON {\"0\": {\"Cs\": 1.0}, \"1\": {\"Cs\": 1.0}, \"2\": {\"K\": 1.0}, \"3\": {\"In\": 1.0}, \"4\": {\"I\": 1.0}, \"5\": {\"I\": 1.0}, \"6\": {\"I\": 1.0}, \"7\": {\"I\": 1.0}, \"8\": {\"I\": 1.0}, \"9\": {\"I\": 1.0}, \"10\": {\"Cs\": 1.0}, \"11\": {\"Cs\": 1.0}, \"12\": {\"K\": 1.0}, \"13\": {\"In\": 1.0}, \"14\": {\"I\": 1.0}, \"15\": {\"I\": 1.0}, \"16\": {\"I\": 1.0}, \"17\": {\"I\": 1.0}, \"18\": {\"I\": 1.0}, \"19\": {\"I\": 1.0}, \"20\": {\"Cs\": 1.0}, \"21\": {\"Cs\": 1.0}, \"22\": {\"K\": 1.0}, \"23\": {\"In\": 1.0}, \"24\": {\"I\": 1.0}, \"25\": {\"I\": 1.0}, \"26\": {\"I\": 1.0}, \"27\": {\"I\": 1.0}, \"28\": {\"I\": 1.0}, \"29\": {\"I\": 1.0}, \"30\": {\"Cs\": 1.0}, \"31\": {\"Cs\": 1.0}, \"32\": {\"K\": 1.0}, \"33\": {\"In\": 1.0}, \"34\": {\"I\": 1.0}, \"35\": {\"I\": 1.0}, \"36\": {\"I\": 1.0}, \"37\": {\"I\": 1.0}, \"38\": {\"I\": 1.0}, \"39\": {\"I\": 1.0}, \"40\": {\"Cs\": 1.0}, \"41\": {\"Cs\": 1.0}, \"42\": {\"K\": 1.0}, \"43\": {\"In\": 1.0}, \"44\": {\"I\": 1.0}, \"45\": {\"I\": 1.0}, \"46\": {\"I\": 1.0}, \"47\": {\"I\": 1.0}, \"48\": {\"I\": 1.0}, \"49\": {\"I\": 1.0}, \"50\": {\"Cs\": 1.0}, \"51\": {\"Cs\": 1.0}, \"52\": {\"K\": 1.0}, \"53\": {\"In\": 1.0}, \"54\": {\"I\": 1.0}, \"55\": {\"I\": 1.0}, \"56\": {\"I\": 1.0}, \"57\": {\"I\": 1.0}, \"58\": {\"I\": 1.0}, \"59\": {\"I\": 1.0}, \"60\": {\"Cs\": 1.0}, \"61\": {\"Cs\": 1.0}, \"62\": {\"K\": 1.0}, \"63\": {\"In\": 1.0}, \"64\": {\"I\": 1.0}, \"65\": {\"I\": 1.0}, \"66\": {\"I\": 1.0}, \"67\": {\"I\": 1.0}, \"68\": {\"I\": 1.0}, \"69\": {\"I\": 1.0}, \"70\": {\"Cs\": 1.0}, \"71\": {\"Cs\": 1.0}, \"72\": {\"K\": 1.0}, \"73\": {\"In\": 1.0}, \"74\": {\"I\": 1.0}, \"75\": {\"I\": 1.0}, \"76\": {\"I\": 1.0}, \"77\": {\"I\": 1.0}, \"78\": {\"I\": 1.0}, \"79\": {\"I\": 1.0}}" energy=-205.1915613592446 free_energy=-205.1915613592446 stress="6.122581595273319e-07 -9.017485486550971e-07 -2.309940180222973e-08 -9.017485486550971e-07 -5.959114590884818e-07 -1.2448676549341386e-07 -2.309940180222973e-08 -1.2448676549341386e-07 1.1843676185919038e-06" pbc="T T T"
Cs       4.10079338       2.34266724       1.68041720        0       0.00029562       0.00051636       0.00003989
Cs      12.88310543       7.43961187       5.33801209        1       0.00019992      -0.00059065       0.00030367
K        8.49265895       4.89013387       3.51153943        2       0.00010693      -0.00011020      -0.00012463
In      17.44387163      -0.54975322      -0.37111316        3      -0.00013614      -0.00049275       0.00028627
I        8.75744063       1.66426439       2.07810055        4       0.00018961      -0.00026954      -0.00026504
I        8.22870579       8.11697141       4.94283575        5      -0.00002977       0.00043662       0.00033335
I       11.10972596       5.59360999       1.23764777        6      -0.00006813       0.00050275      -0.00003657
I       23.31830698       3.63910415       5.41187927        7       0.00036723       0.00048884       0.00015211
I        6.53093101       6.31043545       0.93421193        8      -0.00035813      -0.00020706      -0.00003810
I       10.45557887       3.47093055       6.08822210        9      -0.00002696      -0.00019480      -0.00021823
Cs       8.23836237       4.72970537       9.06358967       10       0.00019602      -0.00007817       0.00022029
Cs      17.02031485       9.81834727      12.72060083       11       0.00000722      -0.00015023       0.00017599
K       12.62979551       7.27307543      10.89235598       12       0.00009455      -0.00008480      -0.00018478
In      21.58071543       1.83377267       7.01065779       13      -0.00042137      -0.00023985       0.00021252
I       12.89302375       4.04520416       9.46204424       14       0.00021068      -0.00010331      -0.00055278
I       12.36659373      10.50051430      12.32418435       15      -0.00013387      -0.00029412       0.00018444
I       15.24730116       7.97522183       8.61789538       16      -0.00028142       0.00037362      -0.00017080
I       27.45296088       6.02314389      12.79126324       17       0.00053037       0.00016210       0.00053660
I       10.66583126       8.69145461       8.31691841       18      -0.00016897       0.00008361      -0.00033765
I       14.59352522       5.85494308      13.46788358       19      -0.00012364      -0.00042082      -0.00014848
Cs       8.23017031      10.01417918       1.50383335       20       0.00000591       0.00038042       0.00013427
Cs      17.01208342      15.10697335       5.16453621       21      -0.00003650       0.00017585      -0.00003043
K       12.61978451      12.56269853       3.33480850       22       0.00010695       0.00031948       0.00001052
In      21.57191502       7.12251130      -0.54544344       23       0.00009814      -0.00002429      -0.00050552
I       12.88482780       9.33810391       1.90048659       24      -0.00029023      -0.00001994       0.00044005
I       12.35466079      15.78783389       4.76799915       25       0.00046383       0.00047412      -0.00022985
I       15.23756858      13.26431953       1.06289133       26       0.00030954       0.00000419      -0.00010335
I       27.44908076      11.31024948       5.23828950       27      -0.00001019       0.00004315       0.00007202
I       10.65856486      13.98335917       0.75799589       28      -0.00086072       0.00005979       0.00000154
I       14.58550654      11.14486726       5.90975902       29       0.00010126      -0.00047440      -0.00006764
Cs      12.36859099      12.40046494       8.88676042       30      -0.00028933       0.00000732       0.00014131
Cs      21.14788443      17.48678996      12.54696791       31       0.00011806       0.00045168       0.00002221
K       16.75679079      14.94538553      10.71561698       32      -0.00003545       0.00028265       0.00000996
In      25.70898208       9.50605226       6.83590942       33      -0.00024340       0.00044015      -0.00045327
I       17.02059112      11.71922280       9.28425374       34       0.00010213       0.00017762       0.00022460
I       16.49271373      18.17065110      12.14973629       35       0.00000390      -0.00001776      -0.00031971
I       19.37586237      15.64478296       8.44286986       36       0.00054341       0.00018846      -0.00010891
I       31.58305263      13.69557279      12.61889608       37      -0.00001639      -0.00041622      -0.00008041
I       14.79385747      16.36475571       8.14011285       38      -0.00034558      -0.00009594      -0.00027938
I       18.72272851      13.52756487      13.28990029       39      -0.00020024      -0.00020170       0.00012241
Cs      12.82320091       2.07152520       1.49413966       40       0.00001551       0.00041448       0.00020464
Cs      21.60550502       7.16156223       5.15492456       41      -0.00001250      -0.00000186       0.00009673
K       17.21485804       4.61547435       3.32603043       42       0.00028713      -0.00018628       0.00002660
In       8.72173859      -0.27479799      -0.18514924       43       0.00000610       0.00033458      -0.00022118
I       17.47854046       1.38972106       1.89170467       44       0.00025564      -0.00009942       0.00010808
I       16.95229547       7.84264736       4.75706974       45      -0.00023646       0.00002405      -0.00005237
I        2.39026963       5.86520169       1.42347448       46      -0.00040028       0.00023534       0.00024782
I       14.59559425       3.91720440       5.59932626       47      -0.00019220      -0.00014501       0.00015828
I       15.25094478       6.03501436       0.75132383       48      -0.00012660      -0.00036132      -0.00056132
I       19.17819865       3.19610954       5.90157190       49      -0.00032363       0.00008645       0.00014106
Cs      16.95900707       4.45249753       8.87693412       50       0.00026296       0.00037427       0.00024347
Cs      25.74384480       9.54665035      12.53749512       51      -0.00044856      -0.00011335       0.00020968
K       21.35188265       6.99815449      10.70654990       52       0.00018472      -0.00016186       0.00006747
In      12.85879411       2.10874082       7.19635251       53      -0.00039970       0.00046221       0.00002042
I       21.61696118       3.77239074       9.27436913       54      -0.00030210      -0.00041673      -0.00034543
I       21.08789102      10.22370739      12.13993841       55       0.00014548       0.00018716       0.00024971
I        6.52443043       8.25129869       8.80387882       56      -0.00036425      -0.00043960       0.00024791
I       18.73398100       6.29674273      12.97896381       57      -0.00025411       0.00002843       0.00027522
I       19.38839986       8.41874682       8.13159230       58       0.00012214      -0.00051540      -0.00004039
I       23.31344626       5.57708342      13.28327473       59      -0.00021360       0.00012437      -0.00033856
Cs      16.95276892       9.74397435       1.32073249       60      -0.00007279      -0.00000364       0.00011068
Cs      25.73264644      14.83028385       4.97747155       61       0.00005616       0.00027329       0.00032554
K       21.34335888      12.28834182       3.15000733       62      -0.00012302       0.00003790      -0.00016816
In      12.84972233       7.39719557      -0.36100832       63       0.00042904      -0.00052505       0.00009995
I       21.60631595       9.06102193       1.71811568       64       0.00030428       0.00025653      -0.00019269
I       21.07925647      15.51593113       4.58060974       65      -0.00009709      -0.00019126       0.00020540
I        6.51845520      13.53672346       1.24939314       66       0.00037011       0.00046928      -0.00034185
I       18.72635012      11.58636988       5.42354667       67      -0.00010532      -0.00020550      -0.00005728
I       19.37829806      13.70588482       0.57424648       68      -0.00001944       0.00015414       0.00018519
I       23.30804379      10.87110826       5.72556188       69       0.00051860      -0.00066622       0.00017378
Cs      21.09025191      12.12443443       8.70288423       70      -0.00020402      -0.00004200       0.00018668
Cs      29.86994993      17.21621513      12.36120914       71      -0.00004747       0.00000302       0.00020437
K       25.48040014      14.67108362      10.53096287       72      -0.00009997       0.00014759      -0.00024743
In      16.98661263       9.78088059       7.02064167       73       0.00008057       0.00002314       0.00007254
I       25.74471293      11.44466879       9.09956361       74       0.00016133      -0.00042324      -0.00040274
I       25.21428417      17.89673418      11.96421630       75       0.00001288      -0.00003837       0.00002336
I       10.65292822      15.92144769       8.62927068       76       0.00047988      -0.00006356       0.00003620
I       22.86389518      13.96709960      12.80358224       77      -0.00011356      -0.00007354      -0.00036562
I       23.51662027      16.09017611       7.95392779       78      -0.00017086      -0.00009234       0.00025009
I       27.44231145      13.25119830      13.10842853       79       0.00066019       0.00004708      -0.00020436
