80
Lattice="16.090571817430074 -0.43451747336100766 1.6289387961531974 -8.781861415911445 18.534244710030144 -3.9596501956094214 -6.180906338257808 2.148858953271559 13.987478393001004" Properties=species:S:1:pos:R:3:spacegroup_kinds:I:1:forces:R:3 spacegroup="P 1" unit_cell=conventional occupancy="_JSON {\"0\": {\"Cs\": 1.0}, \"1\": {\"Cs\": 1.0}, \"2\": {\"Cs\": 1.0}, \"3\": {\"Cs\": 1.0}, \"4\": {\"Pb\": 1.0}, \"5\": {\"Pb\": 1.0}, \"6\": {\"Pb\": 1.0}, \"7\": {\"Pb\": 1.0}, \"8\": {\"I\": 1.0}, \"9\": {\"I\": 1.0}, \"10\": {\"I\": 1.0}, \"11\": {\"I\": 1.0}, \"12\": {\"I\": 1.0}, \"13\": {\"I\": 1.0}, \"14\": {\"I\": 1.0}, \"15\": {\"I\": 1.0}, \"16\": {\"I\": 1.0}, \"17\": {\"I\": 1.0}, \"18\": {\"I\": 1.0}, \"19\": {\"I\": 1.0}, \"20\": {\"Cs\": 1.0}, \"21\": {\"Cs\": 1.0}, \"22\": {\"Cs\": 1.0}, \"23\": {\"Cs\": 1.0}, \"24\": {\"Pb\": 1.0}, \"25\": {\"Pb\": 1.0}, \"26\": {\"Pb\": 1.0}, \"27\": {\"Pb\": 1.0}, \"28\": {\"I\": 1.0}, \"29\": {\"I\": 1.0}, \"30\": {\"I\": 1.0}, \"31\": {\"I\": 1.0}, \"32\": {\"I\": 1.0}, \"33\": {\"I\": 1.0}, \"34\": {\"I\": 1.0}, \"35\": {\"I\": 1.0}, \"36\": {\"I\": 1.0}, \"37\": {\"I\": 1.0}, \"38\": {\"I\": 1.0}, \"39\": {\"I\": 1.0}, \"40\": {\"Cs\": 1.0}, \"41\": {\"Cs\": 1.0}, \"42\": {\"Cs\": 1.0}, \"43\": {\"Cs\": 1.0}, \"44\": {\"Pb\": 1.0}, \"45\": {\"Pb\": 1.0}, \"46\": {\"Pb\": 1.0}, \"47\": {\"Pb\": 1.0}, \"48\": {\"I\": 1.0}, \"49\": {\"I\": 1.0}, \"50\": {\"I\": 1.0}, \"51\": {\"I\": 1.0}, \"52\": {\"I\": 1.0}, \"53\": {\"I\": 1.0}, \"54\": {\"I\": 1.0}, \"55\": {\"I\": 1.0}, \"56\": {\"I\": 1.0}, \"57\": {\"I\": 1.0}, \"58\": {\"I\": 1.0}, \"59\": {\"I\": 1.0}, \"60\": {\"Cs\": 1.0}, \"61\": {\"Cs\": 1.0}, \"62\": {\"Cs\": 1.0}, \"63\": {\"Cs\": 1.0}, \"64\": {\"Pb\": 1.0}, \"65\": {\"Pb\": 1.0}, \"66\": {\"Pb\": 1.0}, \"67\": {\"Pb\": 1.0}, \"68\": {\"I\": 1.0}, \"69\": {\"I\": 1.0}, \"70\": {\"I\": 1.0}, \"71\": {\"I\": 1.0}, \"72\": {\"I\": 1.0}, \"73\": {\"I\": 1.0}, \"74\": {\"I\": 1.0}, \"75\": {\"I\": 1.0}, \"76\": {\"I\": 1.0}, \"77\": {\"I\": 1.0}, \"78\": {\"I\": 1.0}, \"79\": {\"I\": 1.0}}" energy=-222.6358629043242 free_energy=-222.6358629043242 stress="-7.223817990604648e-06 1.3257468850585323e-05 4.595048361525793e-06 1.3257468850585323e-05 6.748984172714643e-06 -8.267438071225947e-06 4.595048361525793e-06 -8.267438071225947e-06 -9.186984229067284e-06" pbc="T T T"
Cs      -1.06049059       8.21905340       1.46037587        0       0.00018456      -0.00021862       0.00018060
Cs      -3.00976735       3.77162252       2.14364452        1       0.00003663       0.00015003       0.00004761
Cs      -1.32376391       2.38411676      10.98856482        2       0.00013402       0.00003441      -0.00014017
Cs       0.34560369       7.02333988      10.50926018        3      -0.00006955      -0.00004383       0.00011764
Pb      -0.11359992      -0.15672365       0.01608728        4       0.00020406      -0.00006687       0.00029601
Pb       1.88605893       4.22399188      -0.88669867        5       0.00027747       0.00004243      -0.00033161
Pb      11.42140574       1.19778066       9.31418493        6      -0.00033512       0.00017730      -0.00038848
Pb      -0.43323287       5.82369804       6.00955124        7      -0.00007049      -0.00015186       0.00043256
I       -3.44712839       6.17601629      -0.92623279        8      -0.00032623      -0.00000764       0.00002130
I        2.78932881       1.37893217       0.44434441        9       0.00008284      -0.00018202      -0.00006232
I        6.96878432       0.30164752       3.63425536       10       0.00001324       0.00006393      -0.00006713
I        0.83482232       4.67956620      13.63003035       11       0.00020620       0.00006822       0.00008072
I       -5.38940260       9.29935608      12.15652212       12       0.00010956      -0.00033500       0.00005139
I        0.60349087       5.12343944       3.21942903       13      -0.00005750       0.00005576      -0.00030685
I       -6.69978677       8.89950597       6.27130212       14       0.00015799      -0.00020148       0.00007271
I        0.94156427       3.88070800       8.19808981       15      -0.00000505       0.00013744      -0.00009745
I       -9.84609212      10.49394598       8.67679342       16      -0.00001329       0.00002602      -0.00038048
I        5.10459369       3.76839038       6.77331616       17       0.00009175       0.00009749       0.00001918
I       -2.43303536       8.33188847       5.07948097       18      -0.00001490       0.00017108      -0.00010303
I       -3.38231156       5.66209754      10.33331677       19      -0.00014731       0.00003740       0.00018698
Cs      -5.45135897      17.48599033      -0.51917746       20       0.00010915       0.00002457      -0.00018387
Cs      -7.40063016      13.03877581       0.16397786       21      -0.00006109       0.00002725      -0.00025204
Cs      -5.71472556      11.65129140       9.00868381       22       0.00012938      -0.00002597      -0.00009751
Cs      -4.04536460      16.29041977       8.52939358       23      -0.00003903       0.00009286       0.00019009
Pb      -4.50446327       9.11051150      -1.96368934       24       0.00001178      -0.00041203      -0.00011691
Pb      -2.50479516      13.49110812      -2.86646417       25       0.00009123      -0.00002498      -0.00044465
Pb      -9.06008952      10.89958456       5.70530086       26      -0.00042696      -0.00027572       0.00014871
Pb      -4.82409956      15.09068995       4.02988706       27      -0.00016312       0.00033672      -0.00030460
I       -7.83810924      15.44299299      -2.90603685       28      -0.00019490       0.00038377      -0.00000660
I       -1.60155290      10.64610025      -1.53545932       29       0.00007785      -0.00029005      -0.00006703
I        2.57781487       9.56885761       1.65442705       30       0.00004714      -0.00007637      -0.00015366
I       -3.55598483      13.94674110      11.65029470       31      -0.00008778      -0.00005631      -0.00007399
I       -9.78031925      18.56622466      10.17681971       32       0.00007103       0.00017175      -0.00003972
I       -3.78751761      14.39066838       1.23945730       33      -0.00000047      -0.00006501       0.00021865
I      -11.09071401      18.16663352       4.29150982       34       0.00019537      -0.00029243       0.00006898
I       -3.44943020      13.14791525       6.21818582       35       0.00017092      -0.00008735       0.00007479
I      -14.23699773      19.76107146       6.69697226       36      -0.00016999      -0.00005715       0.00000949
I        0.71380110      13.03554183       4.79362909       37      -0.00041049      -0.00021494      -0.00015470
I       -6.82392265      17.59897364       3.09963238       38      -0.00002077       0.00010667       0.00006808
I       -7.77322827      14.92919142       8.35349988       39      -0.00016050       0.00007305       0.00022665
Cs       6.98487051       8.00154746       2.27523686       40       0.00012409       0.00007904      -0.00040855
Cs       5.03554443       3.55444043       2.95816175       41       0.00004534      -0.00001241      -0.00002415
Cs       6.72149111       2.16695636      11.80295016       42       0.00010094      -0.00007190      -0.00015755
Cs       8.39085057       6.80598165      11.32375834       43       0.00000266       0.00016151       0.00010394
Pb       7.93175480      -0.37395000       0.83060418       44      -0.00007234       0.00006382       0.00006434
Pb       9.93139418       4.00672693      -0.07222239       45       0.00007162       0.00008575      -0.00016527
Pb       3.37608142       1.41520861       8.49956181       46      -0.00023448      -0.00012995       0.00012300
Pb       7.61207288       5.60635112       6.82419784       47      -0.00001207      -0.00003426      -0.00045544
I        4.59805583       5.95867243      -0.11182004       48      -0.00003938       0.00013509       0.00018886
I       10.83464171       1.16171296       1.25881436       49       0.00009163      -0.00032133      -0.00003101
I       15.01405288       0.08447240       4.44866136       50       0.00000263      -0.00003886      -0.00003790
I        8.88025552       4.46240717      14.44455210       51      -0.00016038      -0.00020213       0.00000691
I        2.65582049       9.08184646      12.97103394       52       0.00028348       0.00022522       0.00008545
I        8.64871980       4.90629820       4.03372321       53      -0.00011737      -0.00003562       0.00034793
I        1.34546350       8.68221143       7.08583554       54       0.00027368      -0.00011435      -0.00003109
I        8.98674810       3.66356844       9.01240692       55       0.00021182      -0.00008161       0.00021584
I       -1.80078667      10.27668683       9.49123444       56      -0.00005386       0.00006213      -0.00037079
I       13.14996234       3.55119978       7.58777853       57      -0.00011249      -0.00007608       0.00005922
I        5.61235471       8.11448944       5.89393539       58      -0.00018626       0.00048754       0.00014615
I        4.66300461       5.44477071      11.14783878       59      -0.00010316       0.00007986       0.00000894
Cs       2.59389720      17.26883537       0.29513409       60       0.00013340      -0.00008744       0.00004599
Cs       0.64457794      12.82147556       0.97829801       61       0.00010861       0.00015223       0.00003245
Cs       2.33057994      11.43404007       9.82313677       62       0.00008993      -0.00010135      -0.00000084
Cs       3.99992861      16.07319135       9.34387203       63      -0.00000235       0.00002516       0.00021852
Pb       3.54086937       8.89304776      -1.14922135       64      -0.00015060       0.00028479       0.00023137
Pb       5.54043948      13.27392703      -2.05214366       65       0.00004067      -0.00013571       0.00037309
Pb      -1.01477162      10.68228840       6.51973567       66      -0.00051128      -0.00017389       0.00037737
Pb       3.22110848      14.87328115       4.84431555       67       0.00011779       0.00079054      -0.00003497
I        0.20713538      15.22590244      -2.09165588       68      -0.00005362      -0.00008420       0.00016641
I        6.44357863      10.42877547      -0.72107768       69       0.00035748      -0.00012250       0.00008716
I       10.62314162       9.35153494       2.46881726       70      -0.00005159       0.00009761       0.00031142
I        4.48924185      13.72935474      12.46475150       71       0.00002095       0.00028065      -0.00006612
I       -1.73507079      18.34919209      10.99115725       72       0.00011825      -0.00011988       0.00002154
I        4.25782342      14.17337749       2.05404006       73      -0.00009701      -0.00008289      -0.00007614
I       -3.04532122      17.94931355       5.10607638       74      -0.00017373      -0.00018345      -0.00008304
I        4.59588327      12.93060040       7.03269851       75       0.00009748       0.00003787       0.00001368
I       -6.19172307      19.54383054       7.51135197       76      -0.00011660      -0.00000140      -0.00002933
I        8.75890565      12.81829213       5.60784205       77       0.00008275       0.00002196       0.00026378
I        1.22126711      17.38182694       3.91400277       78       0.00021750      -0.00003842       0.00018816
I        0.27204206      14.71192616       9.16804487       79       0.00002828      -0.00001365      -0.00044865
