80
Lattice="14.022366887356304 0.0 0.0 -7.29127022613144 15.176788863843921 0.0 -6.414904805303403 3.665130631825338 11.537823855141943" Properties=species:S:1:pos:R:3 pbc="T T T"
Cs      -1.63186208       7.92048037       2.88445596
Cs      -2.93138746       4.12628953       2.88445596
Cs      -1.37791652       3.34587300       8.65336789
Cs      -0.07839018       7.14007660       8.65336789
Pb       0.01978847       0.00641886       0.00000001
Pb       1.68277417       3.79419722       0.00000000
Pb      -3.20745240       1.83256532       5.76891193
Pb      -1.50488948       5.63317811       5.76891209
I       -1.43787175       5.46199470       0.47954425
I        1.17701813       1.66779698       0.47955028
I        4.79902179       0.99426391       2.88445596
I       -1.57190688       5.80436533      11.05827264
I       -4.18679668       9.59856204      11.05827866
I        0.65830114       4.78845459       2.88445596
I       -4.11207748       6.98989163       5.28936767
I       -1.49718760       3.19569390       5.28936165
I       -7.80880199      10.27210238       8.65336789
I        1.10229885       4.27646841       6.24846315
I       -1.51259095       8.07066511       6.24845712
I       -3.66808110       6.47789863       8.65336789
Cs      -5.27749720      15.50887480       2.88445596
Cs      -6.57702257      11.71468396       2.88445596
Cs      -5.02355163      10.93426743       8.65336789
Cs      -3.72402530      14.72847103       8.65336789
Pb      -3.62584664       7.59481329       0.00000001
Pb      -1.96286095      11.38259165       0.00000000
Pb      -6.85308752       9.42095975       5.76891193
Pb      -5.15052459      13.22157254       5.76891209
I       -5.08350686      13.05038914       0.47954425
I       -2.46861698       9.25619141       0.47955028
I        1.15338667       8.58265834       2.88445596
I       -5.21754199      13.39275977      11.05827264
I       -7.83243180      17.18695647      11.05827866
I       -2.98733397      12.37684902       2.88445596
I       -7.75771259      14.57828606       5.28936767
I       -5.14282271      10.78408834       5.28936165
I      -11.45443710      17.86049681       8.65336789
I       -2.54333626      11.86486284       6.24846315
I       -5.15822607      15.65905954       6.24845712
I       -7.31371621      14.06629306       8.65336789
Cs       5.37932136       7.92048037       2.88445596
Cs       4.07979599       4.12628953       2.88445596
Cs       5.63326692       3.34587300       8.65336789
Cs       6.93279326       7.14007660       8.65336789
Pb       7.03097191       0.00641886       0.00000001
Pb       8.69395761       3.79419722       0.00000000
Pb       3.80373104       1.83256532       5.76891193
Pb       5.50629397       5.63317811       5.76891209
I        5.57331170       5.46199470       0.47954425
I        8.18820158       1.66779698       0.47955028
I       11.81020523       0.99426391       2.88445596
I        5.43927656       5.80436533      11.05827264
I        2.82438676       9.59856204      11.05827866
I        7.66948458       4.78845459       2.88445596
I        2.89910596       6.98989163       5.28936767
I        5.51399584       3.19569390       5.28936165
I       -0.79761855      10.27210238       8.65336789
I        8.11348229       4.27646841       6.24846315
I        5.49859249       8.07066511       6.24845712
I        3.34310235       6.47789863       8.65336789
Cs       1.73368625      15.50887480       2.88445596
Cs       0.43416087      11.71468396       2.88445596
Cs       1.98763181      10.93426743       8.65336789
Cs       3.28715815      14.72847103       8.65336789
Pb       3.38533680       7.59481329       0.00000001
Pb       5.04832250      11.38259165       0.00000000
Pb       0.15809593       9.42095975       5.76891193
Pb       1.86065885      13.22157254       5.76891209
I        1.92767658      13.05038914       0.47954425
I        4.54256646       9.25619141       0.47955028
I        8.16457012       8.58265834       2.88445596
I        1.79364145      13.39275977      11.05827264
I       -0.82124835      17.18695647      11.05827866
I        4.02384947      12.37684902       2.88445596
I       -0.74652915      14.57828606       5.28936767
I        1.86836073      10.78408834       5.28936165
I       -4.44325366      17.86049681       8.65336789
I        4.46784718      11.86486284       6.24846315
I        1.85295738      15.65905954       6.24845712
I       -0.30253277      14.06629306       8.65336789
