80
Lattice="16.737196271945454 0.0 0.0 -11.98885356566646 11.679089400575347 0.0 2.9042303577124957 2.981259179149958 15.33713379384553" Properties=species:S:1:pos:R:3 pbc="T T T"
Cs       5.95179203       3.44005646       7.66132834
Cs      -0.28526853       3.89874376       0.00717630
K        1.64617890       0.74962376       3.83428486
In       0.92012812       0.00431177       0.00001748
I        7.38347772       0.30653256       1.53396623
I       -1.71695981       7.03224179       6.13461386
I        1.83815513       1.83173379       1.53397248
I        3.82838975       5.50708120       6.13462011
I        5.15290888       4.60873716       1.53396372
I        0.51361440       2.73007128       6.13461135
Cs       7.40390721       4.93068605      15.32989524
Cs       1.16684665       5.38937335       7.67574320
K        3.09829408       2.24025334      11.50285176
In       2.37224330       1.49494136       7.66858438
I        8.83559290       1.79716215       9.20253313
I       -0.26484463       8.52287138      13.80318076
I        3.29027031       3.32236338       9.20253938
I        5.28050493       6.99771079      13.80318701
I        6.60502406       6.09936675       9.20253062
I        1.96572958       4.22070087      13.80317824
Cs      -0.04263475       9.27960116       7.66132834
Cs      -6.27969531       9.73828846       0.00717630
K       -4.34824788       6.58916846       3.83428486
In      -5.07429866       5.84385647       0.00001748
I        1.38905094       6.14607726       1.53396623
I       -7.71138659      12.87178649       6.13461386
I       -4.15627166       7.67127849       1.53397248
I       -2.16603703      11.34662590       6.13462011
I       -0.84151791      10.44828186       1.53396372
I       -5.48081238       8.56961598       6.13461135
Cs       1.40948043      10.77023075      15.32989524
Cs      -4.82758014      11.22891805       7.67574320
K       -2.89613271       8.07979805      11.50285176
In      -3.62218349       7.33448606       7.66858438
I        2.84116612       7.63670685       9.20253313
I       -6.25927141      14.36241608      13.80318076
I       -2.70415648       9.16190808       9.20253938
I       -0.71392185      12.83725549      13.80318701
I        0.61059727      11.93891145       9.20253062
I       -4.02869720      10.06024557      13.80317824
Cs      14.32039017       3.44005646       7.66132834
Cs       8.08332960       3.89874376       0.00717630
K       10.01477703       0.74962376       3.83428486
In       9.28872625       0.00431177       0.00001748
I       15.75207586       0.30653256       1.53396623
I        6.65163833       7.03224179       6.13461386
I       10.20675326       1.83173379       1.53397248
I       12.19698789       5.50708120       6.13462011
I       13.52150701       4.60873716       1.53396372
I        8.88221254       2.73007128       6.13461135
Cs      15.77250535       4.93068605      15.32989524
Cs       9.53544478       5.38937335       7.67574320
K       11.46689221       2.24025334      11.50285176
In      10.74084143       1.49494136       7.66858438
I       17.20419104       1.79716215       9.20253313
I        8.10375350       8.52287138      13.80318076
I       11.65886844       3.32236338       9.20253938
I       13.64910307       6.99771079      13.80318701
I       14.97362219       6.09936675       9.20253062
I       10.33432772       4.22070087      13.80317824
Cs       8.32596339       9.27960116       7.66132834
Cs       2.08890282       9.73828846       0.00717630
K        4.02035025       6.58916846       3.83428486
In       3.29429947       5.84385647       0.00001748
I        9.75764908       6.14607726       1.53396623
I        0.65721154      12.87178649       6.13461386
I        4.21232648       7.67127849       1.53397248
I        6.20256111      11.34662590       6.13462011
I        7.52708023      10.44828186       1.53396372
I        2.88778576       8.56961598       6.13461135
Cs       9.77807856      10.77023075      15.32989524
Cs       3.54101800      11.22891805       7.67574320
K        5.47246543       8.07979805      11.50285176
In       4.74641465       7.33448606       7.66858438
I       11.20976426       7.63670685       9.20253313
I        2.10932672      14.36241608      13.80318076
I        5.66444166       9.16190808       9.20253938
I        7.65467629      12.83725549      13.80318701
I        8.97919541      11.93891145       9.20253062
I        4.33990094      10.06024557      13.80317824
