10
Lattice="15.630478526485115 -2.655152743731228 -2.2409700993248123 11.032061303832215 4.4616832102113575 -1.43191428823887 9.74990705113945 -2.1381254644205785 3.7887047461579573" Properties=species:S:1:pos:R:3:spacegroup_kinds:I:1:forces:R:3 spacegroup="P 1" unit_cell=conventional occupancy="_JSON {\"0\": {\"Cs\": 1.0}, \"1\": {\"Cs\": 1.0}, \"2\": {\"K\": 1.0}, \"3\": {\"In\": 1.0}, \"4\": {\"I\": 1.0}, \"5\": {\"I\": 1.0}, \"6\": {\"I\": 1.0}, \"7\": {\"I\": 1.0}, \"8\": {\"I\": 1.0}, \"9\": {\"I\": 1.0}}" energy=-25.720068630544027 free_energy=-25.720068630544027 stress="-5.670037852040976e-06 -4.125671772103799e-07 5.29836703410017e-07 -4.125671772103799e-07 6.597432358899651e-06 -9.61642187985204e-07 5.29836703410017e-07 -9.61642187985204e-07 -5.227922005804999e-06" pbc="T T T"
Cs      10.94358125      -1.05758359      -1.04495824        0       0.00035365       0.00047830       0.00043403
Cs      25.46819819       0.72245665       1.15888274        1       0.00031693       0.00048501       0.00048782
K       18.20660113      -0.16450981       0.05700684        2      -0.00005095      -0.00050400       0.00031185
In      15.63051658      -2.65477962      -2.24036371        3      -0.00014942      -0.00009484      -0.00024719
I       13.07849347       3.48654667       0.64805065        4      -0.00052173      -0.00044907      -0.00031166
I       23.33536144      -3.81610386      -0.53173949        5      -0.00031338      -0.00050961      -0.00002929
I       21.66117526       0.22352996       0.47198417        6      -0.00016688       0.00027697      -0.00072018
I       14.75133280      -0.55598641      -0.35337924        7       0.00001217       0.00023625      -0.00061431
I       27.41322216      -2.95006141       0.44798992        8       0.00028946       0.00005228       0.00035634
I        8.99800407       2.61915788      -0.33325407        9       0.00023015       0.00002870       0.00033259
