80
Lattice="16.221595921609072 0.0 0.0 7.948004227145494 18.16292172243871 0.0 8.855123326198704 -1.2232255349096128 15.154569841706621" Properties=species:S:1:pos:R:3 pbc="T T T"
Cs       4.12798683       2.11743131       1.89434241
Cs      12.38437473       6.35241595       5.68294195
K        8.25618075       4.23492349       3.78864213
In       0.00000020       0.00000056       0.00000024
I        7.22901350       0.19580303       4.21999298
I        9.28334799       8.27404355       3.35729129
I       10.61762673       2.64169616       2.61946700
I        5.89473315       5.82815059       4.95781680
I        6.36057116       6.05721706       0.90230152
I       10.15179083       2.41263275       6.67498450
Cs       8.55554849       1.50581854       9.47162734
Cs      16.81193640       5.74080318      13.26022687
K       12.68374242       3.62331072      11.36592705
In       4.42756186      -0.61161221       7.57728516
I       11.65657516      -0.41580974      11.79727790
I       13.71090965       7.66243078      10.93457621
I       15.04518839       2.03008340      10.19675192
I       10.32229481       5.21653782      12.53510172
I       10.78813282       5.44560429       8.47958644
I       14.57935249       1.80101998      14.25226942
Cs       8.10198894      11.19889217       1.89434241
Cs      16.35837685      15.43387681       5.68294195
K       12.23018287      13.31638435       3.78864213
In       3.97400231       9.08146142       0.00000024
I       11.20301561       9.27726389       4.21999298
I       13.25735010      17.35550441       3.35729129
I       14.59162884      11.72315702       2.61946700
I        9.86873526      14.90961145       4.95781680
I       10.33457327      15.13867792       0.90230152
I       14.12579294      11.49409361       6.67498450
Cs      12.52955061      10.58727940       9.47162734
Cs      20.78593851      14.82226404      13.26022687
K       16.65774453      12.70477158      11.36592705
In       8.40156397       8.46984866       7.57728516
I       15.63057727       8.66565112      11.79727790
I       17.68491177      16.74389164      10.93457621
I       19.01919051      11.11154426      10.19675192
I       14.29629692      14.29799868      12.53510172
I       14.76213494      14.52706515       8.47958644
I       18.55335460      10.88248084      14.25226942
Cs      12.23878479       2.11743131       1.89434241
Cs      20.49517269       6.35241595       5.68294195
K       16.36697871       4.23492349       3.78864213
In       8.11079816       0.00000056       0.00000024
I       15.33981146       0.19580303       4.21999298
I       17.39414595       8.27404355       3.35729129
I       18.72842469       2.64169616       2.61946700
I       14.00553111       5.82815059       4.95781680
I       14.47136912       6.05721706       0.90230152
I       18.26258879       2.41263275       6.67498450
Cs      16.66634646       1.50581854       9.47162734
Cs      24.92273436       5.74080318      13.26022687
K       20.79454038       3.62331072      11.36592705
In      12.53835982      -0.61161221       7.57728516
I       19.76737312      -0.41580974      11.79727790
I       21.82170761       7.66243078      10.93457621
I       23.15598636       2.03008340      10.19675192
I       18.43309277       5.21653782      12.53510172
I       18.89893079       5.44560429       8.47958644
I       22.69015045       1.80101998      14.25226942
Cs      16.21278691      11.19889217       1.89434241
Cs      24.46917481      15.43387681       5.68294195
K       20.34098083      13.31638435       3.78864213
In      12.08480027       9.08146142       0.00000024
I       19.31381357       9.27726389       4.21999298
I       21.36814806      17.35550441       3.35729129
I       22.70242681      11.72315702       2.61946700
I       17.97953322      14.90961145       4.95781680
I       18.44537124      15.13867792       0.90230152
I       22.23659090      11.49409361       6.67498450
Cs      20.64034857      10.58727940       9.47162734
Cs      28.89673647      14.82226404      13.26022687
K       24.76854249      12.70477158      11.36592705
In      16.51236193       8.46984866       7.57728516
I       23.74137523       8.66565112      11.79727790
I       25.79570973      16.74389164      10.93457621
I       27.12998847      11.11154426      10.19675192
I       22.40709488      14.29799868      12.53510172
I       22.87293290      14.52706515       8.47958644
I       26.66415257      10.88248084      14.25226942
