80
Lattice="15.475273947419046 0.14566755334535086 -0.5282138835224317 7.741655631789436 17.258495060747908 0.6276980214953037 7.938977958005238 -0.1575206722444842 17.086622541291433" Properties=species:S:1:pos:R:3:spacegroup_kinds:I:1:forces:R:3 spacegroup="P 1" unit_cell=conventional occupancy="_JSON {\"0\": {\"Cs\": 1.0}, \"1\": {\"Cs\": 1.0}, \"2\": {\"K\": 1.0}, \"3\": {\"In\": 1.0}, \"4\": {\"I\": 1.0}, \"5\": {\"I\": 1.0}, \"6\": {\"I\": 1.0}, \"7\": {\"I\": 1.0}, \"8\": {\"I\": 1.0}, \"9\": {\"I\": 1.0}, \"10\": {\"Cs\": 1.0}, \"11\": {\"Cs\": 1.0}, \"12\": {\"K\": 1.0}, \"13\": {\"In\": 1.0}, \"14\": {\"I\": 1.0}, \"15\": {\"I\": 1.0}, \"16\": {\"I\": 1.0}, \"17\": {\"I\": 1.0}, \"18\": {\"I\": 1.0}, \"19\": {\"I\": 1.0}, \"20\": {\"Cs\": 1.0}, \"21\": {\"Cs\": 1.0}, \"22\": {\"K\": 1.0}, \"23\": {\"In\": 1.0}, \"24\": {\"I\": 1.0}, \"25\": {\"I\": 1.0}, \"26\": {\"I\": 1.0}, \"27\": {\"I\": 1.0}, \"28\": {\"I\": 1.0}, \"29\": {\"I\": 1.0}, \"30\": {\"Cs\": 1.0}, \"31\": {\"Cs\": 1.0}, \"32\": {\"K\": 1.0}, \"33\": {\"In\": 1.0}, \"34\": {\"I\": 1.0}, \"35\": {\"I\": 1.0}, \"36\": {\"I\": 1.0}, \"37\": {\"I\": 1.0}, \"38\": {\"I\": 1.0}, \"39\": {\"I\": 1.0}, \"40\": {\"Cs\": 1.0}, \"41\": {\"Cs\": 1.0}, \"42\": {\"K\": 1.0}, \"43\": {\"In\": 1.0}, \"44\": {\"I\": 1.0}, \"45\": {\"I\": 1.0}, \"46\": {\"I\": 1.0}, \"47\": {\"I\": 1.0}, \"48\": {\"I\": 1.0}, \"49\": {\"I\": 1.0}, \"50\": {\"Cs\": 1.0}, \"51\": {\"Cs\": 1.0}, \"52\": {\"K\": 1.0}, \"53\": {\"In\": 1.0}, \"54\": {\"I\": 1.0}, \"55\": {\"I\": 1.0}, \"56\": {\"I\": 1.0}, \"57\": {\"I\": 1.0}, \"58\": {\"I\": 1.0}, \"59\": {\"I\": 1.0}, \"60\": {\"Cs\": 1.0}, \"61\": {\"Cs\": 1.0}, \"62\": {\"K\": 1.0}, \"63\": {\"In\": 1.0}, \"64\": {\"I\": 1.0}, \"65\": {\"I\": 1.0}, \"66\": {\"I\": 1.0}, \"67\": {\"I\": 1.0}, \"68\": {\"I\": 1.0}, \"69\": {\"I\": 1.0}, \"70\": {\"Cs\": 1.0}, \"71\": {\"Cs\": 1.0}, \"72\": {\"K\": 1.0}, \"73\": {\"In\": 1.0}, \"74\": {\"I\": 1.0}, \"75\": {\"I\": 1.0}, \"76\": {\"I\": 1.0}, \"77\": {\"I\": 1.0}, \"78\": {\"I\": 1.0}, \"79\": {\"I\": 1.0}}" energy=-195.82603808558312 free_energy=-195.82603808558312 stress="-2.850996933670695e-06 6.695241981307286e-06 5.535220932508537e-06 6.695241981307286e-06 -2.1398837293340543e-06 -2.6869861628559813e-06 5.535220932508537e-06 -2.6869861628559813e-06 1.1968037151134789e-06" pbc="T T T"
Cs       4.60496853       3.05991186       0.94544372        0       0.00011772      -0.00013700      -0.00017749
Cs      12.38211683       6.31337305       7.33797617        1      -0.00007283       0.00044029       0.00013994
K        8.56877140       4.87443422       4.11561106        2       0.00047205      -0.00016656       0.00039343
In      16.10807325      -0.33837562       1.11196005        3       0.00000283       0.00028931      -0.00019843
I        6.15966489       0.58731424       4.02599019        4       0.00016142      -0.00023883      -0.00001095
I        7.98313231       8.02375263       2.50033036        5       0.00000650      -0.00026442       0.00031635
I        8.49567853       3.09915493       1.02378409        6      -0.00003440      -0.00015267       0.00000428
I        8.50066257       6.29852798       7.55209819        7      -0.00011207      -0.00012022      -0.00029609
I        4.40134371       5.46002392       3.87142138        8      -0.00030487      -0.00022218       0.00040077
I        8.37371667       1.58597277       5.66389330        9      -0.00020361       0.00044901      -0.00001887
Cs       8.57576400       2.98017715       9.48949438       10      -0.00030765      -0.00008164      -0.00030427
Cs      16.35215613       6.23669037      15.88082035       11      -0.00039797      -0.00024750       0.00003844
K       12.54060043       4.79452908      12.65938209       12       0.00048750       0.00004092      -0.00022488
In      20.07746269      -0.41834022       9.65533625       13      -0.00017102      -0.00018463      -0.00021209
I       10.12987668       0.50630572      12.56849777       14      -0.00028844       0.00051266      -0.00012833
I       11.95278147       7.94407909      11.04503363       15      -0.00033423      -0.00031836      -0.00025358
I       12.46642601       3.01861086       9.56665659       16       0.00000830       0.00019316       0.00057451
I       12.46988170       6.21954540      16.09411157       17       0.00030605       0.00025625       0.00015537
I        8.36938594       5.38114952      12.41431877       18      -0.00008052      -0.00014042       0.00045768
I       12.34313997       1.50682048      14.20660556       19       0.00001322      -0.00047941       0.00016505
Cs       8.47665534      11.68451811       1.25601483       20      -0.00031857      -0.00004490      -0.00013994
Cs      16.25219198      14.94312064       7.64630468       21      -0.00001042      -0.00016232       0.00048376
K       12.41504822      13.50327329       4.42903368       22      -0.00036775      -0.00022493      -0.00010200
In      19.97157245       8.28864165       1.42532935       23      -0.00040391       0.00041313      -0.00039989
I       10.02922610       9.20905715       4.33722343       24      -0.00015969       0.00028147      -0.00004658
I       11.85959969      16.65815623       2.81360329       25       0.00012332      -0.00000889       0.00001784
I       12.36419294      11.72463641       1.33492028       26       0.00011817      -0.00000746       0.00035673
I       12.37121947      14.92734973       7.86866673       27      -0.00010082       0.00022975       0.00031255
I        8.29608234      14.08450970       4.18735469       28       0.00039339      -0.00044276       0.00011260
I       12.24343523      10.20962511       5.97416850       29       0.00021227      -0.00002475      -0.00008126
Cs      12.44550087      11.60482555       9.79989678       30       0.00028554       0.00031428      -0.00018948
Cs      20.22186642      14.86394881      16.19157668       31      -0.00003929       0.00018281      -0.00026957
K       16.38861919      13.42359280      12.97220233       32      -0.00014581       0.00023571      -0.00007058
In      23.94123622       8.21033130       9.96891578       33      -0.00046809       0.00017568      -0.00001865
I       13.99910548       9.13032645      12.88057519       34       0.00031922      -0.00027850      -0.00009428
I       15.82949447      16.57720024      11.35630021       35       0.00030237      -0.00002212       0.00016436
I       16.33404463      11.64626208       9.87847090       36      -0.00001751      -0.00025006       0.00000632
I       16.34067507      14.84948218      16.41175663       37       0.00007725      -0.00008267       0.00003959
I       12.26133130      14.00526149      12.73024987       38       0.00060895      -0.00001766       0.00029878
I       16.21387657      10.13136941      14.51682164       39       0.00027425       0.00008072       0.00025516
Cs      12.34282274       3.12758337       0.67746749       40      -0.00007209       0.00046261       0.00017600
Cs      20.11878990       6.38604927       7.06966314       41       0.00017682       0.00015699      -0.00023662
K       16.28102816       4.94674698       3.85102942       42      -0.00025377       0.00001832      -0.00006955
In       8.36253811      -0.41228253       1.37592879       43      -0.00004069      -0.00008426       0.00024855
I       13.89614873       0.65312922       3.75886186       44      -0.00024897      -0.00023979       0.00015719
I       15.72602952       8.10067349       2.23526888       45       0.00040073       0.00079405      -0.00025431
I       16.23045042       3.16885196       0.75750320       46       0.00020500      -0.00029513      -0.00016234
I       16.23753022       6.37276255       7.29063351       47       0.00021960      -0.00032989      -0.00002465
I       12.16266956       5.52749458       3.60960097       48       0.00036698      -0.00042728      -0.00032209
I       16.11123106       1.65350846       5.39517654       49       0.00005149      -0.00008914      -0.00004027
Cs      16.31358411       3.04939951       9.22023205       50      -0.00002472      -0.00020657       0.00019067
Cs      24.08800345       6.30801998      15.61229140       51       0.00005899      -0.00024243      -0.00014887
K       20.25091462       4.86727584      12.39337325       52      -0.00056572       0.00013277       0.00031105
In      12.33320017      -0.49206125       9.91905138       53       0.00021487      -0.00000372      -0.00011336
I       17.86632211       0.57451736      12.30291650       54      -0.00009026       0.00041652      -0.00063192
I       19.69631765       8.02232851      10.77884660       55      -0.00023768       0.00031365      -0.00034278
I       20.20116601       3.08914279       9.29972943       56      -0.00006994      -0.00002674       0.00001485
I       20.20728229       6.29313498      15.83380497       57       0.00002686      -0.00003669       0.00024293
I       16.13353564       5.44832214      12.15272599       58       0.00021306      -0.00007429      -0.00031383
I       20.08126731       1.57469341      13.93899368       59       0.00014160      -0.00023702       0.00033282
Cs      16.21396116      11.76148356       0.99460991       60       0.00002320       0.00024643       0.00033849
Cs      23.99085873      15.01695124       7.38751027       61       0.00021540      -0.00017398       0.00025020
K       20.17823075      13.57621946       4.16549207       62       0.00030406       0.00007896       0.00009778
In      12.24052622       8.21754386       1.68974554       63       0.00041540      -0.00019069      -0.00013072
I       17.76815340       9.28866288       4.07463991       64      -0.00012608       0.00006204       0.00026322
I       19.59093433      16.72584616       2.55113779       65       0.00022740      -0.00014625      -0.00025213
I       20.10450545      11.80032658       1.07390456       66       0.00022950      -0.00005697      -0.00013281
I       20.10947140      15.00094357       7.60084952       67      -0.00016370      -0.00006477      -0.00010172
I       16.00935778      14.16194929       3.92103763       68      -0.00048505       0.00006274      -0.00070338
I       19.98202278      10.28796297       5.71266029       69      -0.00025845      -0.00030744      -0.00026928
Cs      20.18366077      11.68262504       9.53739544       70      -0.00002115      -0.00023294       0.00001949
Cs      27.96005388      14.93684581      15.93044580       71       0.00015088       0.00026039      -0.00008185
K       24.14286592      13.49771735      12.70897073       72       0.00023599      -0.00030242       0.00005403
In      16.21123097       8.13894331      10.23294601       73      -0.00001788       0.00019848       0.00051922
I       21.73779867       9.21005859      12.61891186       74       0.00062726       0.00014895      -0.00031998
I       23.56189215      16.64757268      11.09413542       75      -0.00030421       0.00023627      -0.00020333
I       24.07377267      11.72116000       9.61687810       76      -0.00018954       0.00036311      -0.00013020
I       24.07881075      14.92335229      16.14534120       77      -0.00036017      -0.00041345      -0.00022401
I       19.98396106      14.08165048      12.46481488       78      -0.00053243       0.00028203       0.00034844
I       23.95208918      10.20879676      14.25650895       79      -0.00039347       0.00017330       0.00018875
