5
Lattice="6.131885320016705 1.3470998004850803 1.2426240177954613 -1.6294164683863792 6.13698283282491 0.8946720101463936 -1.002064010722706 -1.1687993732284117 6.205173801922516" Properties=species:S:1:pos:R:3:spacegroup_kinds:I:1:forces:R:3 spacegroup="P 1" unit_cell=conventional occupancy="_JSON {\"0\": {\"Cs\": 1.0}, \"1\": {\"Pb\": 1.0}, \"2\": {\"I\": 1.0}, \"3\": {\"I\": 1.0}, \"4\": {\"I\": 1.0}}" energy=-13.984415406657487 free_energy=-13.984415406657487 stress="7.35640209627322e-06 2.607139331609858e-07 3.551857222166877e-06 2.607139331609858e-07 1.1913283313423465e-05 3.88813695895137e-06 3.551857222166877e-06 3.88813695895137e-06 -4.421343551640916e-06" pbc="T T T"
Cs       1.97543765       2.93476737       4.16037717        0      -0.00053453      -0.00000873       0.00030261
Pb      -0.03763366       0.04975991       0.00304417        1       0.00050888       0.00033448       0.00015447
I        5.54942643       0.94345685       4.36679050        2       0.00033171      -0.00030057       0.00000688
I        2.96884652       0.85548235       0.64030606        3      -0.00077096       0.00027657      -0.00012904
I       -0.99417245       3.13709059       0.43579539        4       0.00046490      -0.00030175      -0.00033492
