5
Lattice="6.449422367118511 0.0 0.0 -2.91425694078163 5.137972863068501 0.0 -2.038968145301415 -2.0772234058366874 5.780651288058597" Properties=species:S:1:pos:R:3:oxi_states:R:1 pbc="T T T"
Cs       0.74819645       1.53027692       2.89032564       1.00000000
Pb      -0.00000000      -0.00000000       0.00000000       2.00000000
I       -1.25342778      -0.80466844       2.89032581      -1.00000000
I        3.22471118       0.00000000      -0.00000000      -1.00000000
I       -1.45712847       2.56898643       0.00000000      -1.00000000
