10
Lattice="8.523182979458763 0.0 0.0 4.261591489765251 7.381292981293879 0.0 4.261591489834154 2.4604309938181133 6.959149952369048" Properties=species:S:1:pos:R:3 pbc="T T T"
Cs       4.26153379       2.46041369       1.73979005
Cs      12.78483202       7.38130984       5.21935962
K        8.52318294       4.92086177       3.47957485
In       0.00000013       0.00000038       0.00000015
I        6.81548813       2.79352010       4.34954965
I       10.23087780       7.04820314       2.60960002
I        9.66917042       3.09762240       1.61726270
I        7.37719485       6.74410078       5.34188690
I        6.24260650       6.23777401       1.61727478
I       10.80375985       3.60395064       5.34187551
