10
Lattice="9.175583541738979 -0.02278510211360109 0.003567911181800691 4.5891390734897115 7.999729997211178 -0.017889806953154917 4.573480235292432 2.6161142456960866 6.9357509597523075" Properties=species:S:1:pos:R:3:spacegroup_kinds:I:1:forces:R:3 spacegroup="P 1" unit_cell=conventional occupancy="_JSON {\"0\": {\"Cs\": 1.0}, \"1\": {\"Cs\": 1.0}, \"2\": {\"K\": 1.0}, \"3\": {\"In\": 1.0}, \"4\": {\"I\": 1.0}, \"5\": {\"I\": 1.0}, \"6\": {\"I\": 1.0}, \"7\": {\"I\": 1.0}, \"8\": {\"I\": 1.0}, \"9\": {\"I\": 1.0}}" energy=-25.648944971389213 free_energy=-25.648944971389213 stress="-7.058604238780299e-06 -2.932228722257757e-08 -1.8175433026157643e-06 -2.932228722257757e-08 -3.686052622009701e-07 5.267380120434102e-06 -1.8175433026157643e-06 5.267380120434102e-06 -2.2983864110202448e-07" pbc="T T T"
Cs       4.60009333       2.63450655       1.91933537        0      -0.00017246       0.00007744       0.00018462
Cs      13.73790459       7.95856303       5.00185038        1       0.00031509      -0.00008962      -0.00008688
K        9.16931048       5.29605221       3.46075089        2      -0.00032260       0.00055011       0.00003209
In       9.17548496      -0.02284116       0.00360035        3       0.00029913       0.00006481      -0.00011605
I        6.95816666       3.19874339       5.25273222        4      -0.00018164      -0.00005844      -0.00020607
I       11.38037244       7.39429499       1.66923073        5      -0.00029096       0.00013929       0.00002151
I        9.86852288       2.28156465       1.74842256        6       0.00029091      -0.00017971      -0.00008835
I        8.46941245       8.31192338       5.17261672        7      -0.00005103      -0.00032991       0.00011904
I        6.24594694       6.19281343       1.67735007        8       0.00002088      -0.00004964       0.00018944
I       12.09228122       4.40035934       5.24410887        9       0.00009267      -0.00012433      -0.00004936
