10
Lattice="9.15932781225664 1.2235859335190298 -1.0152554900896458 -5.727183437009764 7.324067605097577 -0.2578947056246355 0.8388281208857832 0.9595279436910129 8.736116377218087" Properties=species:S:1:pos:R:3:spacegroup_kinds:I:1:forces:R:3 spacegroup="P 1" unit_cell=conventional occupancy="_JSON {\"0\": {\"Cs\": 1.0}, \"1\": {\"Cs\": 1.0}, \"2\": {\"K\": 1.0}, \"3\": {\"In\": 1.0}, \"4\": {\"I\": 1.0}, \"5\": {\"I\": 1.0}, \"6\": {\"I\": 1.0}, \"7\": {\"I\": 1.0}, \"8\": {\"I\": 1.0}, \"9\": {\"I\": 1.0}}" energy=-25.793803032502016 free_energy=-25.793803032502016 stress="-7.1149301234948345e-06 -8.970269148687553e-06 2.4535401106604607e-06 -8.970269148687553e-06 2.3944555102727585e-06 -6.4055406166140115e-06 2.4535401106604607e-06 -6.4055406166140115e-06 2.124224200334392e-06" pbc="T T T"
Cs       6.04798391       4.36276705       7.90527359        0      -0.00013651      -0.00014001      -0.00029912
Cs       0.23843969       5.42550266      -0.66709560        1       0.00000795       0.00012459       0.00036928
K        1.42696480       0.62103696       4.25605581        2      -0.00002732      -0.00052955      -0.00065668
In       1.00759242       0.14044081      -0.11235245        3       0.00042035      -0.00004302       0.00011706
I        7.93653066       1.20753689       0.88862133        4       0.00031150       0.00036434       0.00026297
I        4.07679978       1.25629585       6.60730163        5       0.00006892       0.00011072       0.00018502
I        2.04941192       2.58480652       1.30347787        6       0.00005685       0.00006172      -0.00016199
I        4.23698120       7.20324153       5.93473119        7      -0.00022735       0.00027807      -0.00003888
I       -3.02786564       5.75476065       1.44085746        8      -0.00041363      -0.00024296       0.00010566
I        0.15509084       2.81032661       6.81266613        9      -0.00006076       0.00001609       0.00011669
