80
Lattice="21.647320646366826 -0.9683431402708872 2.4288249239327975 9.056160425088764 13.880819914346723 3.294893037264948 -1.4485256753866935 -1.9346143707699852 12.13335448438175" Properties=species:S:1:pos:R:3:spacegroup_kinds:I:1:forces:R:3 spacegroup="P 1" unit_cell=conventional occupancy="_JSON {\"0\": {\"Cs\": 1.0}, \"1\": {\"Cs\": 1.0}, \"2\": {\"Cs\": 1.0}, \"3\": {\"Cs\": 1.0}, \"4\": {\"Pb\": 1.0}, \"5\": {\"Pb\": 1.0}, \"6\": {\"Pb\": 1.0}, \"7\": {\"Pb\": 1.0}, \"8\": {\"I\": 1.0}, \"9\": {\"I\": 1.0}, \"10\": {\"I\": 1.0}, \"11\": {\"I\": 1.0}, \"12\": {\"I\": 1.0}, \"13\": {\"I\": 1.0}, \"14\": {\"I\": 1.0}, \"15\": {\"I\": 1.0}, \"16\": {\"I\": 1.0}, \"17\": {\"I\": 1.0}, \"18\": {\"I\": 1.0}, \"19\": {\"I\": 1.0}, \"20\": {\"Cs\": 1.0}, \"21\": {\"Cs\": 1.0}, \"22\": {\"Cs\": 1.0}, \"23\": {\"Cs\": 1.0}, \"24\": {\"Pb\": 1.0}, \"25\": {\"Pb\": 1.0}, \"26\": {\"Pb\": 1.0}, \"27\": {\"Pb\": 1.0}, \"28\": {\"I\": 1.0}, \"29\": {\"I\": 1.0}, \"30\": {\"I\": 1.0}, \"31\": {\"I\": 1.0}, \"32\": {\"I\": 1.0}, \"33\": {\"I\": 1.0}, \"34\": {\"I\": 1.0}, \"35\": {\"I\": 1.0}, \"36\": {\"I\": 1.0}, \"37\": {\"I\": 1.0}, \"38\": {\"I\": 1.0}, \"39\": {\"I\": 1.0}, \"40\": {\"Cs\": 1.0}, \"41\": {\"Cs\": 1.0}, \"42\": {\"Cs\": 1.0}, \"43\": {\"Cs\": 1.0}, \"44\": {\"Pb\": 1.0}, \"45\": {\"Pb\": 1.0}, \"46\": {\"Pb\": 1.0}, \"47\": {\"Pb\": 1.0}, \"48\": {\"I\": 1.0}, \"49\": {\"I\": 1.0}, \"50\": {\"I\": 1.0}, \"51\": {\"I\": 1.0}, \"52\": {\"I\": 1.0}, \"53\": {\"I\": 1.0}, \"54\": {\"I\": 1.0}, \"55\": {\"I\": 1.0}, \"56\": {\"I\": 1.0}, \"57\": {\"I\": 1.0}, \"58\": {\"I\": 1.0}, \"59\": {\"I\": 1.0}, \"60\": {\"Cs\": 1.0}, \"61\": {\"Cs\": 1.0}, \"62\": {\"Cs\": 1.0}, \"63\": {\"Cs\": 1.0}, \"64\": {\"Pb\": 1.0}, \"65\": {\"Pb\": 1.0}, \"66\": {\"Pb\": 1.0}, \"67\": {\"Pb\": 1.0}, \"68\": {\"I\": 1.0}, \"69\": {\"I\": 1.0}, \"70\": {\"I\": 1.0}, \"71\": {\"I\": 1.0}, \"72\": {\"I\": 1.0}, \"73\": {\"I\": 1.0}, \"74\": {\"I\": 1.0}, \"75\": {\"I\": 1.0}, \"76\": {\"I\": 1.0}, \"77\": {\"I\": 1.0}, \"78\": {\"I\": 1.0}, \"79\": {\"I\": 1.0}}" energy=-226.47987569677434 free_energy=-226.47987569677434 stress="-4.713785134960086e-07 -1.2904256945402221e-06 -1.5898712735190456e-06 -1.2904256945402221e-06 -5.591928769786636e-07 2.052316160676349e-06 -1.5898712735190456e-06 2.052316160676349e-06 -1.5895129104711045e-06" pbc="T T T"
Cs       9.43939749       7.21497443       5.43127153        0       0.00015178       0.00014326      -0.00009588
Cs       1.76368344       3.98713305       4.00027739        1       0.00010669       0.00001011      -0.00008097
Cs       5.80026898      -2.51591400       9.75198756        2       0.00016609       0.00009607       0.00006368
Cs      13.47618445       0.71227853      11.18290325        3       0.00004565      -0.00001938       0.00006391
Pb       0.66836434       0.08857790       0.09405440        4      -0.00037110      -0.00040571      -0.00015472
Pb       6.89549278       1.38182475      13.65806883        5       0.00030888       0.00032378      -0.00003252
Pb      -0.05592322      -0.87793314       6.16073306        6       0.00015947      -0.00005559       0.00007163
Pb       7.61992064       2.35029960       7.59132562        7       0.00048591      -0.00030220       0.00028382
I        5.07614903       3.72890874       1.75596480        8      -0.00006875       0.00012464      -0.00006528
I        3.93624892      -0.32430483      -0.13700701        9       0.00018951       0.00044031      -0.00010389
I       11.86317129      -0.26791650       4.52673755       10       0.00001089       0.00000369      -0.00000042
I       10.16372018       0.96935174      13.42710270       11      -0.00020097       0.00009502      -0.00001867
I       11.30345268       5.02234689      15.32041631       12       0.00003675       0.00036808      -0.00025496
I        8.71569870       3.44411001       4.74314839       13      -0.00016010       0.00005873      -0.00024461
I        4.47957047       2.93325634       6.75430183       14      -0.00019898      -0.00022093       0.00012295
I        3.08506280      -1.46061094       6.99745561       15      -0.00043708      -0.00017340       0.00011125
I        3.37688781       4.96740560      10.65656966       16      -0.00015926      -0.00008476      -0.00011754
I       10.76072073       1.76765970       8.42831809       17      -0.00024772      -0.00040570       0.00016744
I       12.15544577       6.16108107       8.18564039       18      -0.00000709       0.00002278      -0.00004897
I        6.52453667       1.25529797      10.43984885       19      -0.00015548      -0.00022281       0.00015614
Cs      13.96748016      14.15539175       7.07871171       20       0.00013669       0.00009766      -0.00003922
Cs       6.29174384      10.92753606       5.64771263       21       0.00014625       0.00002528      -0.00009471
Cs      10.32835639       4.42449578      11.39942851       22       0.00014676       0.00007837       0.00011425
Cs      18.00427186       7.65269346      12.83037312       23       0.00004911      -0.00001674      -0.00002376
Pb       5.19633721       7.02891976       1.74148106       24       0.00018189       0.00013408      -0.00010969
Pb      11.42370194       8.32227867      15.30553953       25      -0.00031569      -0.00008460      -0.00011061
Pb       4.47216891       6.06243812       7.80813731       26       0.00020665       0.00018350       0.00011515
Pb      12.14802190       9.29069763       9.23878268       27       0.00027694      -0.00033168       0.00032236
I        9.60411636      10.66929316       3.40338050       28       0.00033926       0.00035069      -0.00005953
I        8.46438333       6.61612426       1.51045550       29      -0.00006259       0.00025723      -0.00011054
I       16.39125170       6.67249459       6.17419274       30       0.00007067       0.00005682      -0.00001087
I       14.69177956       7.90973072      15.07453641       31      -0.00000428       0.00031955      -0.00001175
I       15.83158580      11.96278824      16.96788289       32      -0.00021564       0.00014946      -0.00026274
I       13.24376757      10.38450976       6.39057199       33      -0.00008786       0.00011682      -0.00017197
I        9.00768879       9.87365179       8.40175280       34      -0.00021219      -0.00013411       0.00015160
I        7.61312228       5.47977725       8.64487720       35      -0.00042722      -0.00015650       0.00013264
I       -1.15120601      -1.97301385       9.00911112       36      -0.00008234      -0.00001129      -0.00008557
I       15.28873695       8.70806687      10.07573172       37      -0.00005528      -0.00035346       0.00026357
I       16.68352955      13.10151321       9.83311037       38      -0.00003832      -0.00004797      -0.00010775
I       11.05261229       8.19571335      12.08731978       39      -0.00007205      -0.00017062       0.00008560
Cs      20.26309463       6.73080018       6.64568728       40       0.00002938       0.00015816      -0.00008272
Cs      12.58732335       3.50296075       5.21467441       41       0.00016547      -0.00001503      -0.00002722
Cs      16.62396611      -3.00010105      10.96637830       42       0.00003571       0.00012578       0.00021770
Cs       2.65251247       1.19645026       9.96849094       43       0.00008232      -0.00002727       0.00004115
Pb      11.49182694      -0.39567068       1.30842550       44       0.00052218       0.00012445      -0.00006108
Pb      17.71923631       0.89768609      14.87249677       45      -0.00024261      -0.00000111      -0.00011851
Pb      10.76787147      -1.36214467       7.37516216       46      -0.00018535       0.00026585      -0.00009388
Pb      18.44373760       1.86606917       8.80577187       47      -0.00026312      -0.00007238       0.00023128
I       15.89988074       3.24473675       2.97039206       48      -0.00009348       0.00024306      -0.00005713
I       14.75995051      -0.80846042       1.07742049       49      -0.00006788       0.00026934      -0.00013103
I       22.68684698      -0.75208639       5.74116209       50       0.00002885       0.00005027       0.00003471
I       20.98722441       0.48517618      14.64148714       51       0.00035335       0.00022560      -0.00003419
I       22.12709806       4.53823185      16.53484318       52       0.00000715       0.00003933      -0.00026332
I       19.53933542       2.95993426       5.95753137       53      -0.00004816       0.00007456      -0.00001292
I       15.30313644       2.44911399       7.96869688       54       0.00022949      -0.00029105       0.00023356
I       13.90860689      -1.94475003       8.21184497       55      -0.00006878      -0.00035390       0.00016780
I       14.20054758       4.48322985      11.87097149       56      -0.00013285      -0.00004927      -0.00001857
I       21.58433906       1.28349576       9.64271838       57      -0.00001969      -0.00036917       0.00023240
I       22.97910038       5.67691785       9.40005487       58      -0.00002421      -0.00009975      -0.00007896
I       17.34818382       0.77113361      11.65428634       59      -0.00002887      -0.00016848      -0.00004980
Cs      24.79117330      13.67120575       8.29314139       60       0.00003985       0.00019338      -0.00014031
Cs      17.11540336      10.44336298       6.86210143       61       0.00014593      -0.00000803       0.00004816
Cs      21.15203647       3.94030404      12.61382697       62       0.00006379       0.00016337       0.00017146
Cs       7.18061102       8.13687110      11.61594769       63       0.00003927      -0.00005779       0.00006182
Pb      16.02001416       6.54479422       2.95589863       64      -0.00001787      -0.00034912      -0.00014789
Pb      22.24716991       7.83804923      16.51990881       65       0.00044213       0.00041640      -0.00000401
Pb      15.29591929       5.57827110       9.02260282       66      -0.00021322       0.00008799      -0.00003364
Pb      22.97178571       8.80649098      10.45320764       67      -0.00000934      -0.00003354       0.00017471
I       20.42801869      10.18516872       4.61785553       68      -0.00037785       0.00004293      -0.00006162
I       19.28796200       6.13193134       2.72484808       69       0.00022608       0.00045314      -0.00012295
I       27.21493293       6.18832902       7.38860834       70      -0.00003591      -0.00001715       0.00004149
I       25.51539046       7.42562032      16.28896262       71      -0.00000301      -0.00002167      -0.00004359
I       26.65512276      11.47860908      18.18226823       72       0.00027569       0.00026185      -0.00025354
I       24.06743044       9.90034582       7.60497731       73      -0.00014442       0.00001480      -0.00001212
I       19.83124986       9.38951961       9.61615664       74       0.00009637      -0.00032830       0.00017233
I       18.43670676       4.99564304       9.85928371       75      -0.00008034      -0.00029414       0.00019567
I        9.67247083      -2.45717883      10.22352306       76      -0.00019408      -0.00010554      -0.00002007
I       26.11241819       8.22392546      11.29018112       77      -0.00008813      -0.00046708       0.00016389
I       27.50717445      12.61734421      11.04750952       78       0.00002813      -0.00010576      -0.00006645
I       21.87627054       7.71154949      13.30173578       79      -0.00010786      -0.00023321      -0.00006143
