80
Lattice="17.49354322045118 0.0 0.0 7.736213096711239 14.460443125533821 0.0 -2.59963387421072 -3.997737766818735 12.491849798980803" Properties=species:S:1:pos:R:3 pbc="T T T"
Cs       7.59507397       5.78820648       3.12296245
Cs       1.76576369       2.17327099       3.12296245
Cs       3.50738598      -2.31541598       9.36888735
Cs       9.33671431       1.29987009       9.36888735
Pb       0.54359425       0.12028384       0.00000103
Pb       6.85103876       3.73530436      -0.00000388
Pb      -0.75622268      -1.87858505       6.24592387
Pb       5.55122182       1.73643548       6.24592878
I        4.83145041       5.00701709       0.51910844
I        3.88554419       1.39189224       0.51927398
I        7.93607692      -0.81092065       3.12296245
I        6.27100502      -1.53404135      11.97255821
I        7.21691264       2.08105536      11.97272376
I        6.97844239       2.80401066       3.12296245
I        3.74773116       3.34046497       5.72681647
I        2.80182495      -0.27465989       5.72665092
I        3.16633598       4.28406609       9.36888735
I        7.35472427       0.13251078       6.76521649
I        8.30063188       3.74760749       6.76505095
I        4.12397518       0.66877583       9.36888735
Cs      11.46318052      13.01842805       3.12296245
Cs       5.63387024       9.40349256       3.12296245
Cs       7.37549253       4.91480558       9.36888735
Cs      13.20482086       8.53009165       9.36888735
Pb       4.41170080       7.35050540       0.00000103
Pb      10.71914531      10.96552593      -0.00000388
Pb       3.11188387       5.35163652       6.24592387
Pb       9.41932837       8.96665704       6.24592878
I        8.69955696      12.23723866       0.51910844
I        7.75365074       8.62211381       0.51927398
I       11.80418347       6.41930091       3.12296245
I       10.13911157       5.69618022      11.97255821
I       11.08501918       9.31127693      11.97272376
I       10.84654894      10.03423222       3.12296245
I        7.61583771      10.57068653       5.72681647
I        6.66993149       6.95556168       5.72665092
I        7.03444253      11.51428765       9.36888735
I       11.22283081       7.36273234       6.76521649
I       12.16873843      10.97782905       6.76505095
I        7.99208172       7.89899740       9.36888735
Cs      16.34184558       5.78820648       3.12296245
Cs      10.51253530       2.17327099       3.12296245
Cs      12.25415759      -2.31541598       9.36888735
Cs      18.08348592       1.29987009       9.36888735
Pb       9.29036586       0.12028384       0.00000103
Pb      15.59781037       3.73530436      -0.00000388
Pb       7.99054893      -1.87858505       6.24592387
Pb      14.29799343       1.73643548       6.24592878
I       13.57822202       5.00701709       0.51910844
I       12.63231580       1.39189224       0.51927398
I       16.68284853      -0.81092065       3.12296245
I       15.01777663      -1.53404135      11.97255821
I       15.96368425       2.08105536      11.97272376
I       15.72521400       2.80401066       3.12296245
I       12.49450277       3.34046497       5.72681647
I       11.54859656      -0.27465989       5.72665092
I       11.91310759       4.28406609       9.36888735
I       16.10149588       0.13251078       6.76521649
I       17.04740349       3.74760749       6.76505095
I       12.87074679       0.66877583       9.36888735
Cs      20.20995213      13.01842805       3.12296245
Cs      14.38064185       9.40349256       3.12296245
Cs      16.12226414       4.91480558       9.36888735
Cs      21.95159247       8.53009165       9.36888735
Pb      13.15847241       7.35050540       0.00000103
Pb      19.46591692      10.96552593      -0.00000388
Pb      11.85865548       5.35163652       6.24592387
Pb      18.16609998       8.96665704       6.24592878
I       17.44632857      12.23723866       0.51910844
I       16.50042235       8.62211381       0.51927398
I       20.55095508       6.41930091       3.12296245
I       18.88588318       5.69618022      11.97255821
I       19.83179079       9.31127693      11.97272376
I       19.59332055      10.03423222       3.12296245
I       16.36260932      10.57068653       5.72681647
I       15.41670310       6.95556168       5.72665092
I       15.78121414      11.51428765       9.36888735
I       19.96960242       7.36273234       6.76521649
I       20.91551004      10.97782905       6.76505095
I       16.73885333       7.89899740       9.36888735
