80
Lattice="18.444419214677964 0.08869965040467336 0.032558971038087886 9.299352935239598 14.91456775555449 0.41808762280805917 9.28980336631738 5.376641910435106 15.042126829928476" Properties=species:S:1:pos:R:3:spacegroup_kinds:I:1:forces:R:3 spacegroup="P 1" unit_cell=conventional occupancy="_JSON {\"0\": {\"Cs\": 1.0}, \"1\": {\"Cs\": 1.0}, \"2\": {\"K\": 1.0}, \"3\": {\"In\": 1.0}, \"4\": {\"I\": 1.0}, \"5\": {\"I\": 1.0}, \"6\": {\"I\": 1.0}, \"7\": {\"I\": 1.0}, \"8\": {\"I\": 1.0}, \"9\": {\"I\": 1.0}, \"10\": {\"Cs\": 1.0}, \"11\": {\"Cs\": 1.0}, \"12\": {\"K\": 1.0}, \"13\": {\"In\": 1.0}, \"14\": {\"I\": 1.0}, \"15\": {\"I\": 1.0}, \"16\": {\"I\": 1.0}, \"17\": {\"I\": 1.0}, \"18\": {\"I\": 1.0}, \"19\": {\"I\": 1.0}, \"20\": {\"Cs\": 1.0}, \"21\": {\"Cs\": 1.0}, \"22\": {\"K\": 1.0}, \"23\": {\"In\": 1.0}, \"24\": {\"I\": 1.0}, \"25\": {\"I\": 1.0}, \"26\": {\"I\": 1.0}, \"27\": {\"I\": 1.0}, \"28\": {\"I\": 1.0}, \"29\": {\"I\": 1.0}, \"30\": {\"Cs\": 1.0}, \"31\": {\"Cs\": 1.0}, \"32\": {\"K\": 1.0}, \"33\": {\"In\": 1.0}, \"34\": {\"I\": 1.0}, \"35\": {\"I\": 1.0}, \"36\": {\"I\": 1.0}, \"37\": {\"I\": 1.0}, \"38\": {\"I\": 1.0}, \"39\": {\"I\": 1.0}, \"40\": {\"Cs\": 1.0}, \"41\": {\"Cs\": 1.0}, \"42\": {\"K\": 1.0}, \"43\": {\"In\": 1.0}, \"44\": {\"I\": 1.0}, \"45\": {\"I\": 1.0}, \"46\": {\"I\": 1.0}, \"47\": {\"I\": 1.0}, \"48\": {\"I\": 1.0}, \"49\": {\"I\": 1.0}, \"50\": {\"Cs\": 1.0}, \"51\": {\"Cs\": 1.0}, \"52\": {\"K\": 1.0}, \"53\": {\"In\": 1.0}, \"54\": {\"I\": 1.0}, \"55\": {\"I\": 1.0}, \"56\": {\"I\": 1.0}, \"57\": {\"I\": 1.0}, \"58\": {\"I\": 1.0}, \"59\": {\"I\": 1.0}, \"60\": {\"Cs\": 1.0}, \"61\": {\"Cs\": 1.0}, \"62\": {\"K\": 1.0}, \"63\": {\"In\": 1.0}, \"64\": {\"I\": 1.0}, \"65\": {\"I\": 1.0}, \"66\": {\"I\": 1.0}, \"67\": {\"I\": 1.0}, \"68\": {\"I\": 1.0}, \"69\": {\"I\": 1.0}, \"70\": {\"Cs\": 1.0}, \"71\": {\"Cs\": 1.0}, \"72\": {\"K\": 1.0}, \"73\": {\"In\": 1.0}, \"74\": {\"I\": 1.0}, \"75\": {\"I\": 1.0}, \"76\": {\"I\": 1.0}, \"77\": {\"I\": 1.0}, \"78\": {\"I\": 1.0}, \"79\": {\"I\": 1.0}}" energy=-205.1915720963664 free_energy=-205.1915720963664 stress="-2.2092338590258835e-07 -2.9147662762297077e-07 4.553733604249279e-07 -2.9147662762297077e-07 -1.5604835857721465e-06 1.7615552660050997e-07 4.553733604249279e-07 1.7615552660050997e-07 5.3166979187950396e-08" pbc="T T T"
Cs       4.63300510       2.73189670       1.89086357        0      -0.00007108       0.00004156       0.00000481
Cs      13.88470423       7.45743310       5.85582554        1      -0.00033239      -0.00004960      -0.00006892
K        9.25807054       5.09463527       3.87312214        2       0.00032117       0.00020252       0.00018200
In      18.44424584       0.08915205       0.03253066        3       0.00015286      -0.00003648       0.00022415
I        6.33712017       3.69056060       5.28678232        4       0.00002231      -0.00008051      -0.00015670
I       12.17977598       6.49935130       2.46044643        5       0.00028630       0.00042822      -0.00020345
I        9.95158753       2.42405998       1.65579062        6       0.00000038      -0.00014599       0.00007943
I        8.56561075       7.76625177       6.08991772        7      -0.00001910       0.00006827       0.00026047
I        6.99713186       6.00357870       1.30971400        8      -0.00002994       0.00014109      -0.00002639
I       11.51970811       4.18661242       6.43676302        9       0.00051050      -0.00037286       0.00021554
Cs       9.27816036       5.42047282       9.41244030       10      -0.00020658       0.00000285      -0.00012818
Cs      18.52882774      10.14618512      13.37644737       11      -0.00018467      -0.00006045       0.00009335
K       13.90300826       7.78275141      11.39377416       12       0.00033802       0.00018840       0.00019053
In      23.08917622       2.77741473       7.55356183       13       0.00031679      -0.00017784       0.00040416
I       10.98242080       6.37889542      12.80831301       14       0.00023832       0.00023902      -0.00021966
I       16.82431962       9.18821990       9.98088783       15       0.00008676       0.00002193      -0.00016415
I       14.59660194       5.11224690       9.17670668       16       0.00003824       0.00005162       0.00014280
I       13.21134462      10.45422326      13.61086998       17      -0.00029328      -0.00025849       0.00003101
I       11.64197412       8.69183106       8.83051334       18       0.00016820      -0.00006155       0.00003502
I       16.16478323       6.87525166      13.95755829       19       0.00010526      -0.00015989       0.00002376
Cs       9.28163098      10.19061883       2.10050499       20      -0.00006835      -0.00027281      -0.00004196
Cs      18.53418691      14.91431384       6.06437617       21      -0.00028528       0.00005407      -0.00003919
K       13.90765221      12.55186031       4.08237558       22       0.00045950       0.00020763      -0.00000133
In      23.09408130       7.54582606       0.24124389       23      -0.00025391      -0.00013163       0.00004397
I       10.98694421      11.14804407       5.49611452       24      -0.00008798      -0.00008454      -0.00002947
I       16.82859891      13.95720737       2.66841400       25       0.00028827       0.00014423      -0.00032584
I       14.60169588       9.88129948       1.86482358       26      -0.00032720      -0.00049406       0.00001345
I       13.21503334      15.22371664       6.29936883       27      -0.00010442      -0.00020592      -0.00012160
I       11.64643778      13.46065093       1.51882712       28      -0.00004330       0.00004274      -0.00009380
I       16.16933631      11.64406740       6.64611567       29       0.00024635      -0.00020598       0.00009063
Cs      13.92685693      12.87888062       9.62100715       30       0.00000657      -0.00022489       0.00003446
Cs      23.17905482      17.60204541      13.58627849       31      -0.00031697       0.00017836      -0.00009710
K       18.55276807      15.24016428      11.60331181       32       0.00039125       0.00025261       0.00009347
In      27.73891928      10.23432947       7.76257563       33      -0.00041196      -0.00006552      -0.00023436
I       15.63196710      13.83611711      13.01698796       34       0.00007640       0.00003470      -0.00020551
I       21.47402116      16.64527707      10.18982610       35       0.00013501       0.00016273       0.00000193
I       19.24672483      12.56956960       9.38557731       36      -0.00015075      -0.00012107       0.00013477
I       17.85999479      17.91243493      13.82003495       37      -0.00014769      -0.00038836      -0.00010658
I       16.29168909      16.14913178       9.03954148       38      -0.00008352       0.00012212      -0.00002679
I       20.81376266      14.33211883      14.16793152       39       0.00017864      -0.00010578      -0.00006476
Cs      13.85554292       2.77627548       1.90768035       40      -0.00026778       0.00005401      -0.00005710
Cs      23.10622987       7.50250133       5.87122220       41      -0.00007163      -0.00008639       0.00006580
K       18.48036114       5.13927357       3.88969994       42       0.00016906       0.00013334      -0.00007049
In       9.22211648       0.04453650       0.01638785       43      -0.00048129      -0.00045879       0.00003994
I       15.55988881       3.73370725       5.30336022       44       0.00009786       0.00028311      -0.00012624
I       21.40146498       6.54369445       2.47514914       45       0.00004660       0.00020418      -0.00007808
I       19.17369712       2.46837940       1.67253223       46      -0.00005061      -0.00001190       0.00007187
I       17.78747533       7.81010972       6.10712227       47       0.00008863      -0.00014110       0.00015015
I       16.21941574       6.04754029       1.32607334       48       0.00011937      -0.00007561      -0.00012054
I       20.74193207       4.23153386       6.45307940       49      -0.00027280      -0.00003860      -0.00001393
Cs      18.50054607       5.46436556       9.42909980       50      -0.00033452       0.00008090      -0.00016808
Cs      27.75186673      10.19150198      13.39237909       51      -0.00001547      -0.00014467       0.00013573
K       23.12537220       7.82774753      11.41075196       52       0.00013639       0.00009627      -0.00004602
In      13.86717584       2.73252806       7.53761462       53      -0.00070599       0.00010033      -0.00029367
I       20.20481045       6.42240159      12.82450121       54       0.00027017       0.00032641      -0.00005705
I       26.04656507       9.23215426       9.99666454       55       0.00010201       0.00034912      -0.00018292
I       23.81879394       5.15710851       9.19290499       56      -0.00019898      -0.00031034       0.00021733
I       22.43181432      10.49836623      13.62876256       57       0.00020245      -0.00031104      -0.00034301
I       20.86412921       8.73544454       8.84727544       58      -0.00011851       0.00032209      -0.00026086
I       25.38723594       6.92060548      13.97401328       59      -0.00012962      -0.00028331       0.00005449
Cs      18.50533561      10.23372126       2.11558304       60      -0.00022940       0.00000146       0.00007934
Cs      27.75583006      14.95995982       6.08029289       61      -0.00017710      -0.00011578      -0.00005883
K       23.12961558      12.59622317       4.09861847       62       0.00027238       0.00024583      -0.00002462
In      13.87163028       7.50121457       0.22588343       63      -0.00012175       0.00054691       0.00023016
I       20.20922822      11.19065903       5.51197824       64      -0.00001087       0.00017345       0.00020096
I       26.05052287      14.00174235       2.68439561       65       0.00002234       0.00018282      -0.00002265
I       23.82236428       9.92581759       1.88060575       66       0.00009472       0.00006527       0.00037170
I       22.43751162      15.26743546       6.31592854       67      -0.00013488      -0.00006854      -0.00001140
I       20.86856890      13.50471882       1.53521028       68       0.00019212       0.00004833      -0.00000355
I       25.39147768      11.68825646       6.66151152       69       0.00020638      -0.00022585       0.00017394
Cs      23.15027769      12.92210476       9.63674100       70      -0.00011756       0.00003374       0.00021349
Cs      32.40089767      17.64802218      13.60191944       71      -0.00031905      -0.00014384      -0.00021953
K       27.77444057      15.28468322      11.61965130       72       0.00035006       0.00019972      -0.00001423
In      18.51671369      10.18971479       7.74669708       73      -0.00001143      -0.00007499      -0.00019063
I       24.85377258      13.87932142      13.03331566       74      -0.00016132      -0.00006223       0.00003185
I       30.69586461      16.68999773      10.20586783       75       0.00034683       0.00045759      -0.00016744
I       28.46765320      12.61406824       9.40222954       76      -0.00004303      -0.00012277       0.00006790
I       27.08233831      17.95608653      13.83646174       77      -0.00005927       0.00018304       0.00030948
I       25.51393479      16.19321817       9.05626262       78       0.00014789      -0.00016170      -0.00004121
I       30.03619750      14.37590469      14.18212745       79       0.00021884      -0.00013089       0.00021397
