5
Lattice="5.50558234559025 0.0 0.0 3.215990606169929 6.316426688308517 0.0 2.313127653480152 0.34995967636654346 4.7350231757978865" Properties=species:S:1:pos:R:3:oxi_states:R:1 pbc="T T T"
Cs       5.51754042       3.33300306       2.36751159       1.00000000
Pb      -0.00000000      -0.00000000       0.00000000       2.00000000
I        1.08329864       0.24824489       2.36751164      -1.00000000
I        2.75279117       0.00000000      -0.00000000      -1.00000000
I        1.60799530       3.15821334       0.00000000      -1.00000000
