40
Lattice="31.756305859389254 0.2361704821211622 3.08056004546897 7.854113620107352 23.257115859908414 1.5939225774918435 12.47285571721452 8.005384666223993 4.8495901693706704" Properties=species:S:1:pos:R:3:spacegroup_kinds:I:1:forces:R:3 spacegroup="P 1" unit_cell=conventional occupancy="_JSON {\"0\": {\"Cs\": 1.0}, \"1\": {\"Cs\": 1.0}, \"2\": {\"K\": 1.0}, \"3\": {\"In\": 1.0}, \"4\": {\"I\": 1.0}, \"5\": {\"I\": 1.0}, \"6\": {\"I\": 1.0}, \"7\": {\"I\": 1.0}, \"8\": {\"I\": 1.0}, \"9\": {\"I\": 1.0}, \"10\": {\"Cs\": 1.0}, \"11\": {\"Cs\": 1.0}, \"12\": {\"K\": 1.0}, \"13\": {\"In\": 1.0}, \"14\": {\"I\": 1.0}, \"15\": {\"I\": 1.0}, \"16\": {\"I\": 1.0}, \"17\": {\"I\": 1.0}, \"18\": {\"I\": 1.0}, \"19\": {\"I\": 1.0}, \"20\": {\"Cs\": 1.0}, \"21\": {\"Cs\": 1.0}, \"22\": {\"K\": 1.0}, \"23\": {\"In\": 1.0}, \"24\": {\"I\": 1.0}, \"25\": {\"I\": 1.0}, \"26\": {\"I\": 1.0}, \"27\": {\"I\": 1.0}, \"28\": {\"I\": 1.0}, \"29\": {\"I\": 1.0}, \"30\": {\"Cs\": 1.0}, \"31\": {\"Cs\": 1.0}, \"32\": {\"K\": 1.0}, \"33\": {\"In\": 1.0}, \"34\": {\"I\": 1.0}, \"35\": {\"I\": 1.0}, \"36\": {\"I\": 1.0}, \"37\": {\"I\": 1.0}, \"38\": {\"I\": 1.0}, \"39\": {\"I\": 1.0}}" energy=-102.61408916993923 free_energy=-102.61408916993923 stress="-8.959197611605253e-07 7.804712319007523e-08 -4.257266417810071e-08 7.804712319007523e-08 -3.521427505768564e-07 -1.9823270385442588e-07 -4.257266417810071e-08 -1.9823270385442588e-07 -6.273913751907764e-07" pbc="T T T"
Cs       6.76238507       7.13253556       1.62493611        0       0.00001266      -0.00025933       0.00000393
Cs      25.51556098      12.61995154       5.56172558        1       0.00004661      -0.00023084       0.00002993
K       16.13887755       9.87606501       3.59347111        2       0.00010008      -0.00004658       0.00003287
In      31.75641993       0.23597600       3.08055375        3       0.00011362       0.00007086       0.00003172
I       15.23366377       7.35706529       5.85322206        4       0.00003862       0.00013055      -0.00004839
I       17.04429481      12.39488402       1.33385652        5       0.00009180       0.00005075      -0.00009950
I       16.44234385       3.04027990       1.93325188        6      -0.00014254      -0.00005784       0.00026627
I       15.83579635      16.71195281       5.25283996        7      -0.00002273      -0.00025204       0.00031345
I       13.48736700       8.20915884       2.02496179        8      -0.00009793       0.00015803       0.00003481
I       18.79065441      11.54289181       5.16180968        9       0.00008218      -0.00000140       0.00016623
Cs      10.68959401      18.76064704       2.42235534       10       0.00001237       0.00000521      -0.00021955
Cs      29.44301652      24.24845734       6.35856878       11      -0.00000878      -0.00008202      -0.00012346
K       20.06590126      21.50527663       4.39061800       12      -0.00002905      -0.00024363      -0.00012347
In      35.68341747      11.86478591       3.87733327       13      -0.00027997       0.00013877      -0.00001572
I       19.16069522      18.98587234       6.64970953       14       0.00025958      -0.00002160       0.00023163
I       20.97139792      24.02350506       2.13071428       15       0.00017116      -0.00002485       0.00002963
I       20.36954924      14.66876077       2.73022373       16      -0.00011141       0.00020107       0.00011816
I       19.76301789      28.34012877       6.05063642       17       0.00000049      -0.00004361      -0.00016466
I       17.41440055      19.83799027       2.82186816       18      -0.00003761       0.00022441      -0.00010529
I       22.71792351      23.17117786       5.95909794       19       0.00009765       0.00016297      -0.00011994
Cs      22.64018873       7.25017651       3.16535160       20       0.00012534       0.00013292       0.00010803
Cs      41.39353553      12.73760136       7.10223100       21       0.00005120       0.00014207       0.00001627
K       32.01739855       9.99354326       5.13356893       22       0.00005653       0.00034537      -0.00003118
In      15.87808001       0.11816966       1.54047313       23      -0.00015745       0.00001202      -0.00005340
I       31.11162657       7.47547255       7.39375115       24       0.00016213      -0.00023006      -0.00003077
I       32.92260838      12.51300887       2.87399040       25       0.00005144      -0.00015841       0.00013737
I       32.32040213       3.15821125       3.47364583       26       0.00000782       0.00004289      -0.00014251
I       31.71380160      16.82990715       6.79378754       27       0.00004349       0.00015321      -0.00014160
I       29.36518085       8.32737268       3.56542212       28       0.00003757      -0.00017810      -0.00018168
I       34.66930510      11.66053618       6.70198763       29      -0.00015690      -0.00002506      -0.00001163
Cs      26.56803216      18.87891806       3.96203599       30      -0.00015320       0.00008970       0.00020746
Cs      45.32096801      24.36652772       7.89886114       31      -0.00008666       0.00009081       0.00010260
K       35.94441986      21.62216686       5.93052575       32      -0.00000914       0.00015827      -0.00001387
In      19.80511818      11.74673674       2.33726281       33      -0.00009172      -0.00020541      -0.00007571
I       35.03860670      19.10382845       8.19056195       34       0.00008124      -0.00010733      -0.00010530
I       36.84988206      24.14115179       3.67079577       35      -0.00027495       0.00006734       0.00000147
I       36.24733989      14.78695965       4.27078333       36       0.00007308       0.00002389      -0.00011642
I       35.64099928      28.45851504       7.59093310       37      -0.00002480       0.00003044       0.00000150
I       33.29211115      19.95616734       4.36215839       38       0.00004970      -0.00014168      -0.00000020
I       38.59610301      23.28936803       7.49902868       39      -0.00008152      -0.00012177       0.00009094
