40
Lattice="20.15162038047676 0.0 0.0 4.895582985749757 13.716180531378127 0.0 7.627844999553137 4.580122897103182 2.54070601591284" Properties=species:S:1:pos:R:3 pbc="T T T"
Cs       5.03782147       2.85954112       0.63517965
Cs      15.11362511       8.57867173       1.90552616
K       10.07572338       5.71910647       1.27035289
In       0.00000011       0.00000027       0.00000010
I        9.16119980       4.55006758       1.27784030
I       10.99024698       6.88814514       1.26286548
I       10.89539398       3.16182766       0.65250211
I        9.25605231       8.27638503       1.88820360
I        6.02204702       6.27295808       0.52835728
I       14.12940002       5.16525566       2.01234897
Cs       7.48561296       9.71763138       0.63517965
Cs      17.56141660      15.43676200       1.90552616
K       12.52351488      12.57719673       1.27035289
In       2.44779161       6.85809054       0.00000010
I       11.60899129      11.40815784       1.27784030
I       13.43803847      13.74623541       1.26286548
I       13.34318548      10.01991793       0.65250211
I       11.70384380      15.13447529       1.88820360
I        8.46983851      13.13104835       0.52835728
I       16.57719151      12.02334593       2.01234897
Cs      15.11363166       2.85954112       0.63517965
Cs      25.18943530       8.57867173       1.90552616
K       20.15153357       5.71910647       1.27035289
In      10.07581030       0.00000027       0.00000010
I       19.23700999       4.55006758       1.27784030
I       21.06605717       6.88814514       1.26286548
I       20.97120417       3.16182766       0.65250211
I       19.33186250       8.27638503       1.88820360
I       16.09785721       6.27295808       0.52835728
I       24.20521021       5.16525566       2.01234897
Cs      17.56142315       9.71763138       0.63517965
Cs      27.63722679      15.43676200       1.90552616
K       22.59932507      12.57719673       1.27035289
In      12.52360180       6.85809054       0.00000010
I       21.68480148      11.40815784       1.27784030
I       23.51384866      13.74623541       1.26286548
I       23.41899567      10.01991793       0.65250211
I       21.77965399      15.13447529       1.88820360
I       18.54564870      13.13104835       0.52835728
I       26.65300170      12.02334593       2.01234897
