20
Lattice="8.74677161022559 0.0 0.0 3.8681065483556196 7.230221562766911 0.0 -2.59963387421072 -3.997737766818735 12.491849798980803" Properties=species:S:1:pos:R:3 pbc="T T T"
Cs       7.59507397       5.78820648       3.12296245
Cs       1.76576369       2.17327099       3.12296245
Cs       3.50738598      -2.31541598       9.36888735
Cs       9.33671431       1.29987009       9.36888735
Pb       0.54359425       0.12028384       0.00000103
Pb       6.85103876       3.73530436      -0.00000388
Pb      -0.75622268      -1.87858505       6.24592387
Pb       5.55122182       1.73643548       6.24592878
I        4.83145041       5.00701709       0.51910844
I        3.88554419       1.39189224       0.51927398
I        7.93607692      -0.81092065       3.12296245
I        6.27100502      -1.53404135      11.97255821
I        7.21691264       2.08105536      11.97272376
I        6.97844239       2.80401066       3.12296245
I        3.74773116       3.34046497       5.72681647
I        2.80182495      -0.27465989       5.72665092
I        3.16633598       4.28406609       9.36888735
I        7.35472427       0.13251078       6.76521649
I        8.30063188       3.74760749       6.76505095
I        4.12397518       0.66877583       9.36888735
