20
Lattice="8.439968764742401 -1.9163920714877822 0.35719838084529104 1.9340426042269483 8.80845505927601 1.57674133086556 -0.9828130926893729 -2.01089802058314 12.439439862197263" Properties=species:S:1:pos:R:3:spacegroup_kinds:I:1:forces:R:3 spacegroup="P 1" unit_cell=conventional occupancy="_JSON {\"0\": {\"Cs\": 1.0}, \"1\": {\"Cs\": 1.0}, \"2\": {\"Cs\": 1.0}, \"3\": {\"Cs\": 1.0}, \"4\": {\"Pb\": 1.0}, \"5\": {\"Pb\": 1.0}, \"6\": {\"Pb\": 1.0}, \"7\": {\"Pb\": 1.0}, \"8\": {\"I\": 1.0}, \"9\": {\"I\": 1.0}, \"10\": {\"I\": 1.0}, \"11\": {\"I\": 1.0}, \"12\": {\"I\": 1.0}, \"13\": {\"I\": 1.0}, \"14\": {\"I\": 1.0}, \"15\": {\"I\": 1.0}, \"16\": {\"I\": 1.0}, \"17\": {\"I\": 1.0}, \"18\": {\"I\": 1.0}, \"19\": {\"I\": 1.0}}" energy=-56.50802710131602 free_energy=-56.50802710131602 stress="-4.929069710091739e-07 3.156063863386852e-06 1.0483210741462817e-06 3.156063863386852e-06 4.334961648904444e-06 1.5791910351239961e-06 1.0483210741462817e-06 1.5791910351239961e-06 -1.0056995688848177e-06" pbc="T T T"
Cs       6.02303237       6.75696361       4.77779439        0      -0.00045681      -0.00060097       0.00023362
Cs       1.29585212       3.20553566       3.83175004        1       0.00038881      -0.00006096      -0.00010266
Cs       4.35825829      -1.79178144       9.68605623        2       0.00012125      -0.00037363       0.00005764
Cs       0.64279455       3.67487999      10.27724744        3       0.00084091       0.00020694      -0.00005174
Pb       0.49409288       0.04151606       0.04543834        4       0.00079113      -0.00003545      -0.00004572
Pb       4.69805016       1.47668700      13.45225333        5      -0.00007321      -0.00044487       0.00013720
Pb       0.00416538      -0.96341053       6.26535196        6       0.00012447      -0.00039605       0.00076817
Pb       5.19095238       2.48291178       7.23295248        7      -0.00042938      -0.00037241      -0.00032933
I        3.43752610       5.74223194       1.73468495        8      -0.00031518       0.00025325       0.00026949
I        3.42536149       1.12162645       0.98606045        9      -0.00000330       0.00028804       0.00012181
I        7.99303602      -2.13235741       3.49758269       10      -0.00028896       0.00012844      -0.00032565
I        6.94207688      -0.77959846      12.73000230       11      -0.00017405       0.00029905       0.00014693
I        6.95420031       3.84192774      13.47849680       12      -0.00004997       0.00042551      -0.00022132
I        6.16869906       2.90484943       4.16802488       13       0.00010311       0.00048485      -0.00036779
I        3.02997926       4.90585026       6.91772348       14      -0.00053659      -0.00029374       0.00018905
I        3.01640624       0.28461104       6.17030045       15       0.00008366      -0.00027483       0.00012766
I        0.45396186      -1.71298073       9.39055394       16       0.00005373       0.00000737       0.00006292
I        7.35205249       0.05866374       7.54774734       17       0.00000901       0.00041744      -0.00062281
I        7.36493377       4.68017304       8.29419116       18      -0.00002385       0.00010396       0.00010113
I        4.21105757       2.05879365      10.29758232       19      -0.00016477       0.00023806      -0.00014859
