10
Lattice="13.48645942482933 -0.2947441866748023 -0.46181163520089025 5.498579750529796 14.588521572728359 1.0618572261569013 10.394432603873502 10.136147535550647 3.5460170092654875" Properties=species:S:1:pos:R:3:spacegroup_kinds:I:1:forces:R:3 spacegroup="P 1" unit_cell=conventional occupancy="_JSON {\"0\": {\"Cs\": 1.0}, \"1\": {\"Cs\": 1.0}, \"2\": {\"K\": 1.0}, \"3\": {\"In\": 1.0}, \"4\": {\"I\": 1.0}, \"5\": {\"I\": 1.0}, \"6\": {\"I\": 1.0}, \"7\": {\"I\": 1.0}, \"8\": {\"I\": 1.0}, \"9\": {\"I\": 1.0}}" energy=-24.362698118046495 free_energy=-24.362698118046495 stress="-1.0904674728209415e-06 6.525195023507396e-07 -3.0026358585373167e-06 6.525195023507396e-07 -2.8713770278180356e-06 8.094383709831327e-08 -3.0026358585373167e-06 8.094383709831327e-08 -1.600777406449962e-06" pbc="T T T"
Cs       9.81093532       5.43418533       1.58956298        0       0.00004193       0.00027030       0.00011601
Cs      20.54057459      19.84884590       2.39736033        1       0.00017239      -0.00015981       0.00032471
K       14.12658419      11.53730558       1.43380262        2       0.00002795       0.00018726      -0.00040325
In      13.77439142      -1.47950430      -0.11467919        3      -0.00015699      -0.00001224       0.00013382
I       22.96056141      18.42310455       4.96850126        4      -0.00005995       0.00013451      -0.00041471
I        5.29048054       6.22361949       0.35759040        5       0.00038057       0.00008275       0.00051045
I        8.01124307       8.86446392       2.01623861        6      -0.00001655      -0.00021690       0.00004443
I       20.42561293      16.02860083       1.27480189        7      -0.00001065       0.00009334       0.00022017
I       12.00472459      13.97791462      -0.12206678        8      -0.00010407      -0.00026287      -0.00046822
I       18.74896844      10.78137636       4.39435513        9      -0.00027462      -0.00011635      -0.00006340
