160
Lattice="15.817160426156029 0.0 0.0 10.661606042372293 19.097907629333616 0.0 -0.2808837339813427 13.181708627944431 19.723931466219295" Properties=species:S:1:pos:R:3 pbc="T T T"
Cs       9.26730783      11.05442496       2.46549137
Cs       3.07996354       6.28015714       2.46549137
Cs       5.12838749       6.28730390       7.39647424
Cs      11.31582204      11.06198989       7.39647424
Pb       0.64836764       0.60110729      -0.00000425
Pb       6.61969162       4.77447691       0.00000000
Pb       0.57814671       3.89653444       4.93098700
Pb       7.19786545       8.67090370       4.93099286
I        5.89846861       7.54840347       0.40975108
I        4.12652421       2.77390979       0.40994853
I        7.90224895       2.33893519       2.46549137
I        8.49725303       9.79353067       9.45192906
I       10.26920442      14.56799080       9.45212651
I        7.95307879       7.11319803       2.46549137
I        5.83992207      10.29595795       4.52123167
I        4.06797767       5.52146426       4.52103422
I        6.49341572      15.00321766       7.39647424
I        8.55579956       7.04597620       5.34101942
I       10.32775096      11.82043633       5.34082197
I        6.44260923      10.22852669       7.39647424
Cs       9.12686596      17.64527928      12.32745711
Cs       2.93952167      12.87101145      12.32745711
Cs       4.98794563      12.87815821      17.25843997
Cs      11.17538017      17.65284420      17.25843997
Pb       0.50792577       7.19196160       9.86196148
Pb       6.47924975      11.36533122       9.86196573
Pb       0.43770484      10.48738876      14.79295273
Pb       7.05742358      15.26175801      14.79295859
I        5.75802674      14.13925779      10.27171681
I        3.98608234       9.36476410      10.27191426
I        7.76180709       8.92978950      12.32745711
I        8.35681116      16.38438499      19.31389479
I       10.12876256      21.15884511      19.31409224
I        7.81263692      13.70405234      12.32745711
I        5.69948020      16.88681226      14.38319741
I        3.92753581      12.11231857      14.38299995
I        6.35297385      21.59407197      17.25843997
I        8.41535770      13.63683051      15.20298516
I       10.18730909      18.41129064      15.20278771
I        6.30216737      16.81938100      17.25843997
Cs      14.59811085      20.60337878       2.46549137
Cs       8.41076656      15.82911095       2.46549137
Cs      10.45919051      15.83625772       7.39647424
Cs      16.64662506      20.61094370       7.39647424
Pb       5.97917066      10.15006110      -0.00000425
Pb      11.95049464      14.32343072       0.00000000
Pb       5.90894973      13.44548826       4.93098700
Pb      12.52866847      18.21985751       4.93099286
I       11.22927163      17.09735729       0.40975108
I        9.45732723      12.32286360       0.40994853
I       13.23305197      11.88788900       2.46549137
I       13.82805605      19.34248449       9.45192906
I       15.60000744      24.11694461       9.45212651
I       13.28388181      16.66215184       2.46549137
I       11.17072509      19.84491176       4.52123167
I        9.39878070      15.07041807       4.52103422
I       11.82421874      24.55217147       7.39647424
I       13.88660258      16.59493001       5.34101942
I       15.65855398      21.36939014       5.34082197
I       11.77341226      19.77748050       7.39647424
Cs      14.45766898      27.19423309      12.32745711
Cs       8.27032469      22.41996526      12.32745711
Cs      10.31874865      22.42711203      17.25843997
Cs      16.50618319      27.20179802      17.25843997
Pb       5.83872879      16.74091541       9.86196148
Pb      11.81005277      20.91428504       9.86196573
Pb       5.76850786      20.03634257      14.79295273
Pb      12.38822660      24.81071183      14.79295859
I       11.08882976      23.68821160      10.27171681
I        9.31688536      18.91371791      10.27191426
I       13.09261011      18.47874332      12.32745711
I       13.68761418      25.93333880      19.31389479
I       15.45956558      30.70779893      19.31409224
I       13.14343995      23.25300616      12.32745711
I       11.03028323      26.43576608      14.38319741
I        9.25833883      21.66127239      14.38299995
I       11.68377687      31.14302579      17.25843997
I       13.74616072      23.18578433      15.20298516
I       15.51811211      27.96024445      15.20278771
I       11.63297039      26.36833481      17.25843997
Cs      17.17588804      11.05442496       2.46549137
Cs      10.98854375       6.28015714       2.46549137
Cs      13.03696771       6.28730390       7.39647424
Cs      19.22440225      11.06198989       7.39647424
Pb       8.55694785       0.60110729      -0.00000425
Pb      14.52827183       4.77447691       0.00000000
Pb       8.48672692       3.89653444       4.93098700
Pb      15.10644566       8.67090370       4.93099286
I       13.80704882       7.54840347       0.40975108
I       12.03510442       2.77390979       0.40994853
I       15.81082917       2.33893519       2.46549137
I       16.40583324       9.79353067       9.45192906
I       18.17778464      14.56799080       9.45212651
I       15.86165900       7.11319803       2.46549137
I       13.74850228      10.29595795       4.52123167
I       11.97655789       5.52146426       4.52103422
I       14.40199593      15.00321766       7.39647424
I       16.46437978       7.04597620       5.34101942
I       18.23633117      11.82043633       5.34082197
I       14.35118945      10.22852669       7.39647424
Cs      17.03544618      17.64527928      12.32745711
Cs      10.84810188      12.87101145      12.32745711
Cs      12.89652584      12.87815821      17.25843997
Cs      19.08396039      17.65284420      17.25843997
Pb       8.41650598       7.19196160       9.86196148
Pb      14.38782996      11.36533122       9.86196573
Pb       8.34628505      10.48738876      14.79295273
Pb      14.96600379      15.26175801      14.79295859
I       13.66660695      14.13925779      10.27171681
I       11.89466256       9.36476410      10.27191426
I       15.67038730       8.92978950      12.32745711
I       16.26539137      16.38438499      19.31389479
I       18.03734277      21.15884511      19.31409224
I       15.72121714      13.70405234      12.32745711
I       13.60806042      16.88681226      14.38319741
I       11.83611602      12.11231857      14.38299995
I       14.26155407      21.59407197      17.25843997
I       16.32393791      13.63683051      15.20298516
I       18.09588930      18.41129064      15.20278771
I       14.21074758      16.81938100      17.25843997
Cs      22.50669106      20.60337878       2.46549137
Cs      16.31934677      15.82911095       2.46549137
Cs      18.36777073      15.83625772       7.39647424
Cs      24.55520527      20.61094370       7.39647424
Pb      13.88775087      10.15006110      -0.00000425
Pb      19.85907485      14.32343072       0.00000000
Pb      13.81752994      13.44548826       4.93098700
Pb      20.43724868      18.21985751       4.93099286
I       19.13785184      17.09735729       0.40975108
I       17.36590744      12.32286360       0.40994853
I       21.14163219      11.88788900       2.46549137
I       21.73663626      19.34248449       9.45192906
I       23.50858766      24.11694461       9.45212651
I       21.19246203      16.66215184       2.46549137
I       19.07930531      19.84491176       4.52123167
I       17.30736091      15.07041807       4.52103422
I       19.73279895      24.55217147       7.39647424
I       21.79518280      16.59493001       5.34101942
I       23.56713419      21.36939014       5.34082197
I       19.68199247      19.77748050       7.39647424
Cs      22.36624920      27.19423309      12.32745711
Cs      16.17890491      22.41996526      12.32745711
Cs      18.22732886      22.42711203      17.25843997
Cs      24.41476341      27.20179802      17.25843997
Pb      13.74730901      16.74091541       9.86196148
Pb      19.71863298      20.91428504       9.86196573
Pb      13.67708807      20.03634257      14.79295273
Pb      20.29680682      24.81071183      14.79295859
I       18.99740997      23.68821160      10.27171681
I       17.22546558      18.91371791      10.27191426
I       21.00119032      18.47874332      12.32745711
I       21.59619440      25.93333880      19.31389479
I       23.36814579      30.70779893      19.31409224
I       21.05202016      23.25300616      12.32745711
I       18.93886344      26.43576608      14.38319741
I       17.16691904      21.66127239      14.38299995
I       19.59235709      31.14302579      17.25843997
I       21.65474093      23.18578433      15.20298516
I       23.42669232      27.96024445      15.20278771
I       19.54155060      26.36833481      17.25843997
