20
Lattice="12.774387837993121 2.8666115926898985e-10 -5.937593113704909e-16 2.86661159407733e-10 12.774387837993382 1.780267284544959e-16 -2.9691178807976903e-16 8.898012577736407e-17 6.387193917741453" Properties=species:S:1:pos:R:3:spacegroup_kinds:I:1:forces:R:3 spacegroup="P 1" unit_cell=conventional occupancy="_JSON {\"0\": {\"Cs\": 1.0}, \"1\": {\"Pb\": 1.0}, \"2\": {\"I\": 1.0}, \"3\": {\"I\": 1.0}, \"4\": {\"I\": 1.0}, \"5\": {\"Cs\": 1.0}, \"6\": {\"Pb\": 1.0}, \"7\": {\"I\": 1.0}, \"8\": {\"I\": 1.0}, \"9\": {\"I\": 1.0}, \"10\": {\"Cs\": 1.0}, \"11\": {\"Pb\": 1.0}, \"12\": {\"I\": 1.0}, \"13\": {\"I\": 1.0}, \"14\": {\"I\": 1.0}, \"15\": {\"Cs\": 1.0}, \"16\": {\"Pb\": 1.0}, \"17\": {\"I\": 1.0}, \"18\": {\"I\": 1.0}, \"19\": {\"I\": 1.0}}" energy=-55.92296952492685 free_energy=-55.92296952492685 stress="6.085879020668159e-06 -2.309847573309171e-11 -6.826257555564639e-18 -2.309847573309171e-11 6.0858790185857245e-06 1.0062199739069814e-18 -6.826257555564639e-18 1.0062199739069814e-18 6.085989308949328e-06" pbc="T T T"
Cs       3.19382041       3.19337351       3.19359696        0       0.00001456      -0.00001456      -0.00000000
Pb       0.00000098      -0.00000098      -0.00000000        1       0.00003374      -0.00003374      -0.00000000
I       -0.00003515       0.00003515       3.19359696        2      -0.00000212       0.00000212       0.00000000
I        3.19362229       0.00003515       0.00000000        3      -0.00004405       0.00000212       0.00000000
I       -0.00003515       3.19357163       0.00000000        4      -0.00000212       0.00004405      -0.00000000
Cs       3.19382041       9.58056743       3.19359696        5       0.00001456      -0.00001456      -0.00000000
Pb       0.00000098       6.38719294      -0.00000000        6       0.00003374      -0.00003374      -0.00000000
I       -0.00003515       6.38722907       3.19359696        7      -0.00000212       0.00000212       0.00000000
I        3.19362229       6.38722907       0.00000000        8      -0.00004405       0.00000212      -0.00000000
I       -0.00003515       9.58076555       0.00000000        9      -0.00000212       0.00004405      -0.00000000
Cs       9.58101433       3.19337351       3.19359696       10       0.00001456      -0.00001456      -0.00000000
Pb       6.38719489      -0.00000098       0.00000000       11       0.00003374      -0.00003374      -0.00000000
I        6.38715877       0.00003515       3.19359696       12      -0.00000212       0.00000212       0.00000000
I        9.58081621       0.00003515       0.00000000       13      -0.00004405       0.00000212      -0.00000000
I        6.38715877       3.19357163       0.00000000       14      -0.00000212       0.00004405      -0.00000000
Cs       9.58101433       9.58056743       3.19359696       15       0.00001456      -0.00001456      -0.00000000
Pb       6.38719489       6.38719294      -0.00000000       16       0.00003374      -0.00003374      -0.00000000
I        6.38715877       6.38722907       3.19359696       17      -0.00000212       0.00000212       0.00000000
I        9.58081621       6.38722907       0.00000000       18      -0.00004405       0.00000212      -0.00000000
I        6.38715877       9.58076555       0.00000000       19      -0.00000212       0.00004405      -0.00000000
