80
Lattice="16.875827356637263 -0.26846194881451385 0.8462049258761444 -10.8052950459076 18.529375086968237 -3.9224092783359468 -3.6087774142436 -6.892679042010091 13.69192433364137" Properties=species:S:1:pos:R:3:spacegroup_kinds:I:1:forces:R:3 spacegroup="P 1" unit_cell=conventional occupancy="_JSON {\"0\": {\"Cs\": 1.0}, \"1\": {\"Cs\": 1.0}, \"2\": {\"Cs\": 1.0}, \"3\": {\"Cs\": 1.0}, \"4\": {\"Pb\": 1.0}, \"5\": {\"Pb\": 1.0}, \"6\": {\"Pb\": 1.0}, \"7\": {\"Pb\": 1.0}, \"8\": {\"I\": 1.0}, \"9\": {\"I\": 1.0}, \"10\": {\"I\": 1.0}, \"11\": {\"I\": 1.0}, \"12\": {\"I\": 1.0}, \"13\": {\"I\": 1.0}, \"14\": {\"I\": 1.0}, \"15\": {\"I\": 1.0}, \"16\": {\"I\": 1.0}, \"17\": {\"I\": 1.0}, \"18\": {\"I\": 1.0}, \"19\": {\"I\": 1.0}, \"20\": {\"Cs\": 1.0}, \"21\": {\"Cs\": 1.0}, \"22\": {\"Cs\": 1.0}, \"23\": {\"Cs\": 1.0}, \"24\": {\"Pb\": 1.0}, \"25\": {\"Pb\": 1.0}, \"26\": {\"Pb\": 1.0}, \"27\": {\"Pb\": 1.0}, \"28\": {\"I\": 1.0}, \"29\": {\"I\": 1.0}, \"30\": {\"I\": 1.0}, \"31\": {\"I\": 1.0}, \"32\": {\"I\": 1.0}, \"33\": {\"I\": 1.0}, \"34\": {\"I\": 1.0}, \"35\": {\"I\": 1.0}, \"36\": {\"I\": 1.0}, \"37\": {\"I\": 1.0}, \"38\": {\"I\": 1.0}, \"39\": {\"I\": 1.0}, \"40\": {\"Cs\": 1.0}, \"41\": {\"Cs\": 1.0}, \"42\": {\"Cs\": 1.0}, \"43\": {\"Cs\": 1.0}, \"44\": {\"Pb\": 1.0}, \"45\": {\"Pb\": 1.0}, \"46\": {\"Pb\": 1.0}, \"47\": {\"Pb\": 1.0}, \"48\": {\"I\": 1.0}, \"49\": {\"I\": 1.0}, \"50\": {\"I\": 1.0}, \"51\": {\"I\": 1.0}, \"52\": {\"I\": 1.0}, \"53\": {\"I\": 1.0}, \"54\": {\"I\": 1.0}, \"55\": {\"I\": 1.0}, \"56\": {\"I\": 1.0}, \"57\": {\"I\": 1.0}, \"58\": {\"I\": 1.0}, \"59\": {\"I\": 1.0}, \"60\": {\"Cs\": 1.0}, \"61\": {\"Cs\": 1.0}, \"62\": {\"Cs\": 1.0}, \"63\": {\"Cs\": 1.0}, \"64\": {\"Pb\": 1.0}, \"65\": {\"Pb\": 1.0}, \"66\": {\"Pb\": 1.0}, \"67\": {\"Pb\": 1.0}, \"68\": {\"I\": 1.0}, \"69\": {\"I\": 1.0}, \"70\": {\"I\": 1.0}, \"71\": {\"I\": 1.0}, \"72\": {\"I\": 1.0}, \"73\": {\"I\": 1.0}, \"74\": {\"I\": 1.0}, \"75\": {\"I\": 1.0}, \"76\": {\"I\": 1.0}, \"77\": {\"I\": 1.0}, \"78\": {\"I\": 1.0}, \"79\": {\"I\": 1.0}}" energy=-226.47987173629042 free_energy=-226.47987173629042 stress="4.0632627338921057e-07 -3.6301730431142997e-07 1.2190055614349506e-06 -3.6301730431142997e-07 1.2781494631345703e-06 -1.3650985322702412e-06 1.2190055614349506e-06 -1.3650985322702412e-06 -9.06903435264452e-08" pbc="T T T"
Cs      -0.48742260       9.37531276       1.39821148        0      -0.00015131       0.00001262       0.00014840
Cs      -2.00528520       4.81094687       2.16760953        1      -0.00003959      -0.00016198       0.00006006
Cs       2.30091643      -5.60196323      10.58513268        2       0.00022646      -0.00029045      -0.00000590
Cs       3.82046934      -1.03765074       9.81546491        3      -0.00017880       0.00004333       0.00030151
Pb      -2.41542677      -6.12505823      13.60778142        4       0.00010467       0.00037362      -0.00032183
Pb       2.71217613       5.33261965      -0.85379425        5      -0.00053129      -0.00006972      -0.00054568
Pb      -0.61041598      -2.67870950       6.76062108        6       0.00000487      -0.00034544       0.00066991
Pb       0.90717401       1.88587891       5.99162262        7       0.00040362      -0.00022401       0.00014968
I       -2.94128140       7.20246279      -0.91091224        8      -0.00020460       0.00007634      -0.00015974
I        3.97898007       2.50268768       0.28192351        9       0.00010597      -0.00016049      -0.00011304
I        8.56684649       1.48374331       3.27939098       10      -0.00011175      -0.00021697      -0.00019121
I        4.75542485      -3.42987703      12.89469405       11      -0.00015324      -0.00006270      -0.00015979
I       -2.16506669       1.26930122      11.70263235       12       0.00069972       0.00018712       0.00003506
I        1.64606237       6.18289659       2.08763146       13      -0.00041273      -0.00007449      -0.00039973
I       -4.69518579       3.55976290       4.86530268       14       0.00041072      -0.00026115       0.00002335
I        2.22565802      -1.14080323       6.05653463       15      -0.00021154       0.00005654      -0.00001491
I       -6.75097430       2.28984959       8.70444970       16       0.00004999      -0.00020239      -0.00026223
I        6.50943333       0.21377093       7.11846650       17      -0.00011750       0.00004196       0.00021001
I       -0.41027542       4.91277853       5.92643511       18      -0.00079080       0.00031959       0.00017372
I        0.16949061      -2.40907146       9.89625819       19      -0.00015802       0.00000419       0.00017243
Cs       4.91692823       0.11000879       3.35979688       20      -0.00042480       0.00019226       0.00003519
Cs      -7.40743829      14.07464285       0.20582386       21       0.00011480      -0.00002536       0.00035303
Cs      -3.10016983       3.66204602       8.62405131       22      -0.00011308      -0.00017222      -0.00009381
Cs      -1.58135082       8.22686953       7.85471657       23      -0.00026642       0.00026135       0.00012341
Pb      -7.81786499       3.13950167      11.64567503       24       0.00074868      -0.00016584      -0.00025146
Pb      -2.69022823      14.59706186      -2.81568258       25      -0.00050030      -0.00008420      -0.00004022
Pb      -6.01301912       6.58636605       4.80011250       26      -0.00047577      -0.00003510      -0.00019353
Pb      -4.49535649      11.15086774       4.03081777       27      -0.00024210       0.00010048       0.00029913
I       -8.34418985      16.46765293      -2.87105746       28       0.00003433      -0.00032155      -0.00028080
I       -1.42307505      11.76705848      -1.68050894       29      -0.00030147       0.00031858       0.00014177
I        3.16283809      10.74810869       1.31788337       30       0.00009562      -0.00010150       0.00016123
I       -0.64710379       5.83484557      10.93359838       31      -0.00006160       0.00003634       0.00012657
I       -7.56678701      10.53444102       9.74085464       32      -0.00018354      -0.00004926       0.00012375
I       -3.75611855      15.44633509       0.12585393       33      -0.00043296       0.00021169       0.00082724
I      -10.09773697      12.82364761       2.90315102       34      -0.00026382       0.00027083       0.00038037
I       -3.17705402       8.12431522       4.09617407       35       0.00002251       0.00011716      -0.00019443
I       -1.35004041      -6.97426333      10.66554812       36       0.00045462      -0.00025613       0.00012203
I        1.10664588       9.47806254       5.15712962       37       0.00019311       0.00015735       0.00002209
I       -5.81391892      14.17769931       3.96504161       38       0.00021476      -0.00006577       0.00011246
I       -5.23209951       6.85533135       7.93516366       39      -0.00000882      -0.00027754      -0.00046649
Cs       7.95004402       9.24141286       1.82185352       40       0.00008993      -0.00018563       0.00010691
Cs       6.43271246       4.67557521       2.59087872       41      -0.00001065       0.00022551       0.00007003
Cs      10.74104238      -5.73673496      11.00859613       42      -0.00006194      -0.00004686      -0.00011683
Cs      -4.61859065      -0.90351816       9.39302400       43       0.00007395       0.00021405      -0.00002384
Pb       6.02362082      -6.25976071      14.02950719       44      -0.00001270       0.00069945      -0.00003924
Pb      11.14898226       5.19876629      -0.43072877       45       0.00037599      -0.00032510       0.00027671
Pb       7.82722541      -2.81343189       7.18447315       46       0.00036359       0.00018321      -0.00053678
Pb       9.34498798       1.75251755       6.41517537       47       0.00003867       0.00021228       0.00022395
I        5.49743831       7.06781360      -0.48782006       48      -0.00016127       0.00030757      -0.00015749
I       12.41712616       2.36946221       0.70463121       49       0.00001054      -0.00035039      -0.00029418
I        0.12609840       1.61766417       2.85669074       50       0.00027187      -0.00003428      -0.00010027
I       -3.68237966      -3.29502306      12.47206278       51       0.00025652       0.00009388       0.00003203
I        6.27298400       1.13578384      12.12535923       52      -0.00037061       0.00035479      -0.00006697
I       10.08296315       6.04865394       2.51058983       53       0.00004315       0.00022825       0.00031760
I        3.74296356       3.42430718       5.28795088       54       0.00030326       0.00006861       0.00004453
I       10.66290993      -1.27432755       6.48044331       55      -0.00015642      -0.00029253       0.00024151
I        1.68698922       2.15489930       9.12734205       56      -0.00000891      -0.00004320      -0.00018895
I       -1.92856776       0.34817818       6.69576735       57      -0.00018987      -0.00018062       0.00011761
I        8.02700507       4.77965800       6.34992707       58      -0.00011826      -0.00014090       0.00022643
I        8.60639387      -2.54460591      10.31983770       59       0.00029287      -0.00007021      -0.00036450
Cs      13.35124188      -0.02241209       3.78335572       60       0.00011738      -0.00027872      -0.00008085
Cs       1.02911692      13.94062429       0.62968153       61       0.00006587       0.00008083      -0.00002164
Cs       5.33695104       3.52859633       9.04718496       62       0.00008487      -0.00023250      -0.00021684
Cs     -10.02188843       8.36254602       7.43250843       63       0.00006713      -0.00023403      -0.00037816
Pb       0.62060148       3.00466019      12.06844969       64      -0.00049469       0.00008841       0.00068102
Pb       5.74605838      14.46355896      -2.39121235       65       0.00036447      -0.00010006      -0.00042554
Pb       2.42501752       6.45115099       5.22290764       66       0.00055792       0.00032562       0.00018595
Pb       3.94232091      11.01637994       4.45360542       67       0.00002708       0.00042351      -0.00047996
I        0.09446641      16.33265552      -2.44933571       68       0.00044137      -0.00009686       0.00015788
I        7.01390219      11.63368179      -1.25623427       69       0.00018062      -0.00001690      -0.00035261
I       -5.27490291      10.88176454       0.89524253       70      -0.00019052       0.00017709       0.00037744
I       -9.08482235       5.96937335      10.50975768       71      -0.00004064       0.00011528       0.00023277
I        0.86983291      10.40084963      10.16532469       72       0.00002615      -0.00031681      -0.00006922
I        4.67913321      15.31411792       0.54966389       73       0.00009310      -0.00007991      -0.00066416
I       -1.65973224      12.68927052       3.32708255       74       0.00009911       0.00008810       0.00004733
I        5.26096702       7.98983951       4.51904209       75      -0.00036722       0.00026094       0.00035536
I        7.09086033      -7.10927490      11.08849002       76      -0.00023995      -0.00017203      -0.00000230
I       -7.33135237       9.61315795       4.73536283       77       0.00021299       0.00005996      -0.00033022
I        2.62433124      14.04365758       4.38816886       78       0.00022515      -0.00010468       0.00013125
I        3.20340118       6.72125250       8.35892272       79       0.00019150      -0.00006223       0.00000660
