40
Lattice="21.750912504855574 -1.4606762413119438 0.46263859960438797 -3.8767061215487826 7.507083593120929 -0.05583349440708448 3.2350419008786653 3.3434297327179276 12.457058103411928" Properties=species:S:1:pos:R:3:spacegroup_kinds:I:1:forces:R:3 spacegroup="P 1" unit_cell=conventional occupancy="_JSON {\"0\": {\"Cs\": 1.0}, \"1\": {\"Cs\": 1.0}, \"2\": {\"Cs\": 1.0}, \"3\": {\"Cs\": 1.0}, \"4\": {\"Pb\": 1.0}, \"5\": {\"Pb\": 1.0}, \"6\": {\"Pb\": 1.0}, \"7\": {\"Pb\": 1.0}, \"8\": {\"I\": 1.0}, \"9\": {\"I\": 1.0}, \"10\": {\"I\": 1.0}, \"11\": {\"I\": 1.0}, \"12\": {\"I\": 1.0}, \"13\": {\"I\": 1.0}, \"14\": {\"I\": 1.0}, \"15\": {\"I\": 1.0}, \"16\": {\"I\": 1.0}, \"17\": {\"I\": 1.0}, \"18\": {\"I\": 1.0}, \"19\": {\"I\": 1.0}, \"20\": {\"Cs\": 1.0}, \"21\": {\"Cs\": 1.0}, \"22\": {\"Cs\": 1.0}, \"23\": {\"Cs\": 1.0}, \"24\": {\"Pb\": 1.0}, \"25\": {\"Pb\": 1.0}, \"26\": {\"Pb\": 1.0}, \"27\": {\"Pb\": 1.0}, \"28\": {\"I\": 1.0}, \"29\": {\"I\": 1.0}, \"30\": {\"I\": 1.0}, \"31\": {\"I\": 1.0}, \"32\": {\"I\": 1.0}, \"33\": {\"I\": 1.0}, \"34\": {\"I\": 1.0}, \"35\": {\"I\": 1.0}, \"36\": {\"I\": 1.0}, \"37\": {\"I\": 1.0}, \"38\": {\"I\": 1.0}, \"39\": {\"I\": 1.0}}" energy=-113.23993529781879 free_energy=-113.23993529781879 stress="-6.371540573816969e-07 -1.1675771020836483e-06 4.336974462696005e-06 -1.1675771020836483e-06 -1.0407601300143227e-06 7.995818121926466e-07 4.336974462696005e-06 7.995818121926466e-07 5.875467441813627e-06" pbc="T T T"
Cs       8.30443483       1.54939641       3.27850990        0      -0.00008472      -0.00019313      -0.00008781
Cs       0.92853865       5.66793199       3.13429665        1      -0.00022168      -0.00022667      -0.00012217
Cs       9.95857281       3.18323367       9.50692388        2      -0.00026268      -0.00017575       0.00014515
Cs      13.45746376       6.57155670       9.59528817        3      -0.00003429       0.00021588      -0.00020824
Pb       3.56143860       2.70860658      12.46192009        4       0.00024290      -0.00029289      -0.00044302
Pb       3.82602873       2.75349263       0.09232066        5      -0.00038368      -0.00036609       0.00014803
Pb       3.69361751       2.73157712       6.27701422        6       0.00007297       0.00018593       0.00012068
Pb       7.19297346       6.12025098       6.36484845        7      -0.00025858      -0.00039499       0.00005069
I       -0.28564636       7.01527338      -0.52586145        8       0.00008346      -0.00016814       0.00053791
I        7.09076225       2.89601430      -0.38106592        9      -0.00024059       0.00025241      -0.00021300
I       15.31086459       1.31338435       3.42792195       10       0.00026646       0.00032680       0.00022963
I       14.67152441       5.22339663      13.25514460       11      -0.00000994      -0.00007589      -0.00026633
I        7.29570970       9.34200655      13.11071050       12      -0.00020311       0.00059017       0.00039023
I        7.93546948       5.43294632       3.28457933       13      -0.00020823      -0.00013179      -0.00032191
I        3.95153030       5.98097934       5.74945275       14       0.00030666      -0.00003417       0.00027690
I        6.93471835       2.87067832       6.89202814       15       0.00052141       0.00032356      -0.00008595
I        2.95198257       3.41893514       9.35747807       16      -0.00020331      -0.00034989       0.00010933
I       10.43416051       6.25894463       6.97953589       17       0.00007986      -0.00008680       0.00025512
I        7.45108682       9.36992237       5.83813240       18      -0.00024675      -0.00054490      -0.00023492
I        6.45051653       6.80661027       9.44529757       19       0.00003630       0.00026009      -0.00017915
Cs      19.18014436       0.81894926       3.50977311       20      -0.00033227      -0.00001525      -0.00000228
Cs      11.80364898       4.93762901       3.36556354       21       0.00035353      -0.00020823       0.00013562
Cs      20.83406744       2.45322133       9.73833250       22      -0.00012818      -0.00033186       0.00017468
Cs       2.58187590       7.30186155       9.36363999       23       0.00009976       0.00020471       0.00002209
Pb      14.43704899       1.97794151      12.69295220       24       0.00000904       0.00054045       0.00032292
Pb      14.70109131       2.02324018       0.32383399       25       0.00026004      -0.00030341       0.00007005
Pb      14.56906133       2.00124860       6.50848273       26      -0.00006713       0.00007430      -0.00020011
Pb      18.06836548       5.38972367       6.59654567       27       0.00001646       0.00027561      -0.00036444
I       10.58975730       6.28463834      -0.29401015       28       0.00024903       0.00040033       0.00009499
I       17.96585410       2.16551986      -0.14958041       29      -0.00009754       0.00071404      -0.00022990
I        4.43553973       2.04363464       3.19661888       30       0.00015939       0.00027748      -0.00018366
I        3.79609417       5.95355411      13.02363179       31       0.00028637       0.00046898      -0.00014809
I       18.17110337       8.61201120      13.34207128       32      -0.00026720       0.00005863       0.00033208
I       18.81044196       4.70280405       3.51597251       33       0.00026929      -0.00039977      -0.00014934
I       14.82699987       5.25054299       5.98137915       34       0.00008976       0.00024734      -0.00013531
I       17.81017650       2.14045322       7.12348592       35       0.00050082      -0.00006860      -0.00003726
I       13.82722792       2.68866954       9.58886956       36       0.00000432      -0.00043023       0.00002585
I       -0.44103584       6.98926847       6.74819670       37      -0.00037877      -0.00001747       0.00013895
I       18.32670726       8.63962391       6.06932001       38      -0.00052939      -0.00079911      -0.00009316
I       17.32568519       6.07646923       9.67661253       39       0.00025020       0.00019832       0.00012513
