80
Lattice="16.149188803185044 0.0 0.0 8.07459440166052 13.985607754030397 0.0 8.074594401791034 4.661869251444926 13.185757804488704" Properties=species:S:1:pos:R:3 pbc="T T T"
Cs       4.03727895       2.33092915       1.64822012
Cs      12.11190980       6.99280920       4.94465869
K        8.07459445       4.66186922       3.29643946
In       0.00000008       0.00000015       0.00000005
I        6.09507501       3.15805217       4.74689685
I       10.05411392       6.16568618       1.84598204
I        8.43698496       2.42311978       1.53217964
I        7.71220376       6.90061854       5.06069922
I        5.91391521       5.90940780       1.53218346
I       10.23527384       3.41433101       5.06069561
Cs       8.07457615       4.66186378       8.24109902
Cs      16.14920700       9.32374383      11.53753759
K       12.11189165       6.99280385       9.88931837
In       4.03729728       2.33093477       6.59287896
I       10.13237221       5.48898680      11.33977575
I       14.09141112       8.49662080       8.43886094
I       12.47428216       4.75405440       8.12505855
I       11.74950096       9.23155316      11.65357812
I        9.95121241       8.24034242       8.12506237
I       14.27257104       5.74526563      11.65357452
Cs       8.07457615       9.32373303       1.64822012
Cs      16.14920700      13.98561308       4.94465869
K       12.11189165      11.65467310       3.29643946
In       4.03729728       6.99280402       0.00000005
I       10.13237221      10.15085605       4.74689685
I       14.09141112      13.15849005       1.84598204
I       12.47428216       9.41592366       1.53217964
I       11.74950096      13.89342241       5.06069922
I        9.95121241      12.90221167       1.53218346
I       14.27257104      10.40713488       5.06069561
Cs      12.11187335      11.65466765       8.24109902
Cs      20.18650420      16.31654771      11.53753759
K       16.14918885      13.98560772       9.88931837
In       8.07459448       9.32373865       6.59287896
I       14.16966941      12.48179068      11.33977575
I       18.12870832      15.48942468       8.43886094
I       16.51157936      11.74685828       8.12505855
I       15.78679816      16.22435704      11.65357812
I       13.98850961      15.23314630       8.12506237
I       18.30986824      12.73806951      11.65357452
Cs      12.11187335       2.33092915       1.64822012
Cs      20.18650420       6.99280920       4.94465869
K       16.14918885       4.66186922       3.29643946
In       8.07459448       0.00000015       0.00000005
I       14.16966941       3.15805217       4.74689685
I       18.12870832       6.16568618       1.84598204
I       16.51157936       2.42311978       1.53217964
I       15.78679816       6.90061854       5.06069922
I       13.98850961       5.90940780       1.53218346
I       18.30986824       3.41433101       5.06069561
Cs      16.14917055       4.66186378       8.24109902
Cs      24.22380140       9.32374383      11.53753759
K       20.18648605       6.99280385       9.88931837
In      12.11189169       2.33093477       6.59287896
I       18.20696661       5.48898680      11.33977575
I       22.16600552       8.49662080       8.43886094
I       20.54887656       4.75405440       8.12505855
I       19.82409536       9.23155316      11.65357812
I       18.02580681       8.24034242       8.12506237
I       22.34716545       5.74526563      11.65357452
Cs      16.14917055       9.32373303       1.64822012
Cs      24.22380140      13.98561308       4.94465869
K       20.18648605      11.65467310       3.29643946
In      12.11189169       6.99280402       0.00000005
I       18.20696661      10.15085605       4.74689685
I       22.16600552      13.15849005       1.84598204
I       20.54887656       9.41592366       1.53217964
I       19.82409536      13.89342241       5.06069922
I       18.02580681      12.90221167       1.53218346
I       22.34716545      10.40713488       5.06069561
Cs      20.18646775      11.65466765       8.24109902
Cs      28.26109860      16.31654771      11.53753759
K       24.22378325      13.98560772       9.88931837
In      16.14918889       9.32373865       6.59287896
I       22.24426381      12.48179068      11.33977575
I       26.20330272      15.48942468       8.43886094
I       24.58617376      11.74685828       8.12505855
I       23.86139256      16.22435704      11.65357812
I       22.06310401      15.23314630       8.12506237
I       26.38446265      12.73806951      11.65357452
