80
Lattice="17.890380339342983 -0.10137789664306633 -0.0038831938359674143 8.910729700751103 15.11739460315567 -0.24408226449882417 9.014536101062 4.841877740982679 14.483223631289563" Properties=species:S:1:pos:R:3:spacegroup_kinds:I:1:forces:R:3 spacegroup="P 1" unit_cell=conventional occupancy="_JSON {\"0\": {\"Cs\": 1.0}, \"1\": {\"Cs\": 1.0}, \"2\": {\"K\": 1.0}, \"3\": {\"In\": 1.0}, \"4\": {\"I\": 1.0}, \"5\": {\"I\": 1.0}, \"6\": {\"I\": 1.0}, \"7\": {\"I\": 1.0}, \"8\": {\"I\": 1.0}, \"9\": {\"I\": 1.0}, \"10\": {\"Cs\": 1.0}, \"11\": {\"Cs\": 1.0}, \"12\": {\"K\": 1.0}, \"13\": {\"In\": 1.0}, \"14\": {\"I\": 1.0}, \"15\": {\"I\": 1.0}, \"16\": {\"I\": 1.0}, \"17\": {\"I\": 1.0}, \"18\": {\"I\": 1.0}, \"19\": {\"I\": 1.0}, \"20\": {\"Cs\": 1.0}, \"21\": {\"Cs\": 1.0}, \"22\": {\"K\": 1.0}, \"23\": {\"In\": 1.0}, \"24\": {\"I\": 1.0}, \"25\": {\"I\": 1.0}, \"26\": {\"I\": 1.0}, \"27\": {\"I\": 1.0}, \"28\": {\"I\": 1.0}, \"29\": {\"I\": 1.0}, \"30\": {\"Cs\": 1.0}, \"31\": {\"Cs\": 1.0}, \"32\": {\"K\": 1.0}, \"33\": {\"In\": 1.0}, \"34\": {\"I\": 1.0}, \"35\": {\"I\": 1.0}, \"36\": {\"I\": 1.0}, \"37\": {\"I\": 1.0}, \"38\": {\"I\": 1.0}, \"39\": {\"I\": 1.0}, \"40\": {\"Cs\": 1.0}, \"41\": {\"Cs\": 1.0}, \"42\": {\"K\": 1.0}, \"43\": {\"In\": 1.0}, \"44\": {\"I\": 1.0}, \"45\": {\"I\": 1.0}, \"46\": {\"I\": 1.0}, \"47\": {\"I\": 1.0}, \"48\": {\"I\": 1.0}, \"49\": {\"I\": 1.0}, \"50\": {\"Cs\": 1.0}, \"51\": {\"Cs\": 1.0}, \"52\": {\"K\": 1.0}, \"53\": {\"In\": 1.0}, \"54\": {\"I\": 1.0}, \"55\": {\"I\": 1.0}, \"56\": {\"I\": 1.0}, \"57\": {\"I\": 1.0}, \"58\": {\"I\": 1.0}, \"59\": {\"I\": 1.0}, \"60\": {\"Cs\": 1.0}, \"61\": {\"Cs\": 1.0}, \"62\": {\"K\": 1.0}, \"63\": {\"In\": 1.0}, \"64\": {\"I\": 1.0}, \"65\": {\"I\": 1.0}, \"66\": {\"I\": 1.0}, \"67\": {\"I\": 1.0}, \"68\": {\"I\": 1.0}, \"69\": {\"I\": 1.0}, \"70\": {\"Cs\": 1.0}, \"71\": {\"Cs\": 1.0}, \"72\": {\"K\": 1.0}, \"73\": {\"In\": 1.0}, \"74\": {\"I\": 1.0}, \"75\": {\"I\": 1.0}, \"76\": {\"I\": 1.0}, \"77\": {\"I\": 1.0}, \"78\": {\"I\": 1.0}, \"79\": {\"I\": 1.0}}" energy=-206.23420004801505 free_energy=-206.23420004801505 stress="1.0769014923660622e-06 4.100381373506086e-07 -5.1088348726752984e-08 4.100381373506086e-07 -9.19345000278334e-08 1.5301187222106166e-06 -5.1088348726752984e-08 1.5301187222106166e-06 -7.70774391720562e-07" pbc="T T T"
Cs       4.00717888       2.25690410       1.72199757        0       0.00033538      -0.00005352      -0.00001377
Cs      13.02422760       7.72213049       5.06651520        1      -0.00025187       0.00000926      -0.00026957
K        8.03977128       5.45775588       2.74159040        2       0.00017139       0.00032248       0.00018508
In      17.88962184      -0.10261885      -0.00348693        3       0.00034558      -0.00036893      -0.00040586
I        6.11021367       3.48929974       4.91024534        4      -0.00021176      -0.00000665       0.00030160
I       11.10956589       6.79791422       1.63091813        5       0.00014063       0.00012569       0.00012197
I        9.68851810       2.51627904       1.35107573        6      -0.00018346       0.00002136      -0.00017370
I        8.80863963       7.34864942       5.76706180        7      -0.00038321      -0.00029021      -0.00041098
I        6.09450030       5.09629988      -0.28663940        8      -0.00011803       0.00018948      -0.00010494
I       11.69992821       3.96616471       5.43288115        9       0.00033807       0.00012922      -0.00018631
Cs       9.74803444       5.30241099       9.05956320       10      -0.00025184      -0.00011140      -0.00013671
Cs      18.64395884       9.38890073      12.49798515       11      -0.00012740      -0.00011875       0.00001450
K       13.77695727       8.45692576      11.09770082       12      -0.00036195      -0.00029441       0.00003006
In      22.39761725       2.31913787       7.23784423       13      -0.00030240       0.00025434      -0.00001189
I       10.89128690       6.51771760      12.74832768       14       0.00016962       0.00043915      -0.00018264
I       16.35325069      10.73761865       9.57402634       15       0.00001579      -0.00017167      -0.00026416
I       13.65893868       4.71216307       9.11467741       16       0.00020097      -0.00011727      -0.00017077
I       11.99648302      11.58178529      11.90829078       17      -0.00011310      -0.00070797      -0.00014039
I       11.50385347       9.01156389       8.40660720       18       0.00011432       0.00001892       0.00058107
I       15.90531150       6.09559377      12.77685646       19       0.00001339      -0.00001564       0.00012324
Cs       9.26793612      10.29039818       0.85697770       20       0.00014969       0.00010182      -0.00003506
Cs      18.28912501      15.82697276       4.73906589       21       0.00007300      -0.00003246       0.00011031
K       13.32544415      12.81514133       3.57641788       22       0.00016789      -0.00003399      -0.00005413
In      22.34645319       7.45634247      -0.12518801       23      -0.00007845       0.00020805      -0.00003503
I       10.52755542      11.05967191       4.80853801       24      -0.00006571       0.00042654      -0.00050898
I       15.83353907      14.54045299       1.89618251       25      -0.00011517       0.00006565      -0.00002935
I       13.35139618      10.25368039       0.95128530       26       0.00014357       0.00013162      -0.00007457
I       12.03273219      15.63546744       5.19396158       27       0.00051958       0.00051698       0.00002976
I       11.29749824      13.79868375       0.89660394       28       0.00002391      -0.00006818       0.00028588
I       15.58935186      10.92209785       5.38232416       29      -0.00047645       0.00032437      -0.00000417
Cs      13.02744677      12.66182201       8.17427168       30       0.00005169      -0.00020574       0.00008392
Cs      22.08177554      17.36736351      11.96674734       31      -0.00022354      -0.00049513      -0.00000410
K       17.72618103      14.10086938       9.94261428       32       0.00011425      -0.00040387      -0.00015763
In      26.85296658       9.87889028       7.11620667       33       0.00009493      -0.00043161      -0.00043365
I       15.46429102      13.93288061      12.73261094       34      -0.00015237      -0.00030068      -0.00010008
I       19.93031244      16.61744246       8.49780410       35       0.00011540       0.00003525      -0.00004171
I       19.18790369      12.51878778       7.04788197       36      -0.00009923      -0.00044521       0.00016403
I       17.91183294      17.86805029      12.14530375       37      -0.00043836      -0.00002580      -0.00000445
I       15.51107430      15.51056424       7.48126562       38      -0.00015030      -0.00010428      -0.00041401
I       20.45801002      13.23347499      12.21892323       39      -0.00007383       0.00002309      -0.00026726
Cs      13.73359505       2.49763655       2.26745573       40      -0.00004029      -0.00004723       0.00007786
Cs      22.78909713       7.19622336       6.06159294       41      -0.00026242       0.00014056      -0.00006810
K       18.09010943       5.76123801       4.29460161       42       0.00029197      -0.00008538      -0.00001564
In       8.94467987      -0.05170246      -0.00322996       43       0.00010997       0.00014569       0.00021137
I       15.88310374       3.24378135       5.73436823       44       0.00004871      -0.00007942       0.00039944
I       20.35243217       5.92388915       1.50449975       45      -0.00043449      -0.00019547      -0.00012908
I       17.90287289       1.98740937       2.09015974       46      -0.00015143       0.00017043      -0.00011943
I       16.62998868       7.34198707       7.18966612       47      -0.00027487      -0.00001366      -0.00000983
I       15.35827963       6.62316400       2.01694475       48       0.00008485       0.00007732      -0.00018234
I       20.30489965       4.34724576       6.75434322       49      -0.00016563      -0.00004116      -0.00004247
Cs      17.52514548       4.02915876       9.49420191       50      -0.00033161       0.00030251      -0.00009341
Cs      26.54877997       9.56543826      13.37874624       51      -0.00006778       0.00000366       0.00025756
K       22.49011737       7.04207469      10.65952767       52      -0.00024906      -0.00009229      -0.00018883
In      13.45112984       2.37161661       7.23775589       53      -0.00013780      -0.00016855       0.00061978
I       19.98051958       5.31573748      12.33653443       54       0.00029230       0.00020266      -0.00006364
I       25.28825410       8.79854696       9.42778527       55       0.00032306       0.00020325      -0.00007548
I       23.78188521       4.22155371       9.04216436       56       0.00005765      -0.00011973      -0.00014382
I       22.46502569       9.60327914      13.28365021       57       0.00020006       0.00018231       0.00014627
I       20.22915472       8.93803720       8.85376500       58      -0.00029490      -0.00004225      -0.00002153
I       24.51719312       6.05717929      13.33889629       59       0.00038491      -0.00007581       0.00057153
Cs      17.17268069      10.47024160       1.73714416       60      -0.00013050      -0.00007244       0.00022210
Cs      26.06567993      14.55713540       5.17595904       61       0.00023551      -0.00006117       0.00011112
K       22.03952647      11.40133787       3.13714223       62       0.00060503       0.00008799      -0.00002658
In      13.40097637       7.50766604      -0.12397717       63      -0.00007487       0.00014613       0.00024841
I       19.46422303       9.12324639       4.66273613       64       0.00000252      -0.00034075      -0.00015018
I       24.92405775      13.33669741       1.48726043       65      -0.00005612       0.00038788       0.00004326
I       23.82036704       8.27478733       2.32812704       66       0.00036608       0.00025896       0.00024176
I       22.15486258      15.14894486       5.11644665       67       0.00059926       0.00011715       0.00021623
I       19.90855349      13.75910879       1.45593703       68      -0.00008990       0.00060461       0.00000805
I       24.31201777      10.84747428       5.82886250       69       0.00019315      -0.00031309       0.00049285
Cs      22.79349276      12.13602857       9.17018608       70      -0.00005177      -0.00018081       0.00018803
Cs      31.80618814      17.59988507      12.51446515       71       0.00024368      -0.00003246       0.00001349
K       27.77699886      14.39786838      11.49460532       72       0.00024391       0.00024564       0.00015016
In      17.90904178       9.93037801       7.11864540       73      -0.00001947       0.00023779      -0.00010045
I       24.70744826      13.05811383      12.60480363       74      -0.00014468      -0.00013473       0.00007583
I       29.70516465      16.36745238       9.32505185       75      -0.00008890      -0.00003895       0.00013390
I       27.00750873      12.51052275       8.46905757       76      -0.00033274      -0.00006853      -0.00018224
I       26.12655407      17.33927890      12.88185429       77      -0.00019220       0.00009149       0.00000352
I       24.11193206      15.89397604       8.79940294       78       0.00027900      -0.00026279       0.00003921
I       29.72185699      14.75918763      14.52330204       79      -0.00009080       0.00032070      -0.00025422
