10
Lattice="9.222477450438824 0.03088360309616087 0.04514427767015899 4.6442222692226665 7.987134252033001 0.035983504244836095 4.643106635915289 2.6798234260730744 6.9671832788484656" Properties=species:S:1:pos:R:3:spacegroup_kinds:I:1:forces:R:3 spacegroup="P 1" unit_cell=conventional occupancy="_JSON {\"0\": {\"Cs\": 1.0}, \"1\": {\"Cs\": 1.0}, \"2\": {\"K\": 1.0}, \"3\": {\"In\": 1.0}, \"4\": {\"I\": 1.0}, \"5\": {\"I\": 1.0}, \"6\": {\"I\": 1.0}, \"7\": {\"I\": 1.0}, \"8\": {\"I\": 1.0}, \"9\": {\"I\": 1.0}}" energy=-25.648946391721733 free_energy=-25.648946391721733 stress="1.7739755023266103e-06 -3.0356139700598655e-07 -2.2336575501938882e-07 -3.0356139700598655e-07 1.4398408478481765e-06 1.2737898809614306e-07 -2.2336575501938882e-07 1.2737898809614306e-07 2.216744015576367e-06" pbc="T T T"
Cs       4.63105593       2.69302296       1.95206681        0      -0.00021875       0.00012501      -0.00018808
Cs      13.87907462       8.00494967       5.09684483        1      -0.00012784       0.00010544      -0.00009488
K        9.25525746       5.34828327       3.52435265        2      -0.00038200       0.00065480      -0.00012694
In       9.22231625       0.03082816       0.04516750        3       0.00013786      -0.00005161      -0.00012010
I        6.99151407       3.23403360       5.23123847        4       0.00024043      -0.00035569       0.00043984
I       11.51751025       7.46419377       1.81645349        5       0.00034005      -0.00016931      -0.00007321
I        9.95014423       2.36914109       1.74392063        6      -0.00012269      -0.00018930      -0.00023034
I        8.55972131       8.32853856       5.30443748        7       0.00011664       0.00002312       0.00006421
I        6.33560016       6.21426159       1.72570347        8      -0.00001952       0.00000855       0.00003421
I       12.17441192       4.48391627       5.32235862        9       0.00003582      -0.00015100       0.00029529
