10
Lattice="9.213188866409332 0.5144021672199602 -1.1428334551873909 -5.079572027223393 7.781877287988636 0.4282471733090675 1.0697574488653443 0.21981619898597285 8.759743793380878" Properties=species:S:1:pos:R:3:spacegroup_kinds:I:1:forces:R:3 spacegroup="P 1" unit_cell=conventional occupancy="_JSON {\"0\": {\"Cs\": 1.0}, \"1\": {\"Cs\": 1.0}, \"2\": {\"K\": 1.0}, \"3\": {\"In\": 1.0}, \"4\": {\"I\": 1.0}, \"5\": {\"I\": 1.0}, \"6\": {\"I\": 1.0}, \"7\": {\"I\": 1.0}, \"8\": {\"I\": 1.0}, \"9\": {\"I\": 1.0}}" energy=-25.793807801792347 free_energy=-25.793807801792347 stress="-7.132072392889388e-07 -1.0870660928303182e-05 -5.707926191087848e-06 -1.0870660928303182e-05 4.5182541674628864e-06 1.8385378413035849e-06 -5.707926191087848e-06 1.8385378413035849e-06 -7.301560309988039e-06" pbc="T T T"
Cs       8.07161983       3.31893330       7.86168967        0      -0.00043575       0.00008081       0.00001378
Cs       2.22629404       5.51871247      -0.44938096        1       0.00010146      -0.00016985       0.00022853
K        3.08208646       0.27083916       4.06355053        2      -0.00002318      -0.00007841      -0.00012921
In       2.54707349       0.16057010      -0.31652579        3       0.00061192       0.00053890       0.00021539
I        0.34697421       0.04542287       1.73530596        4      -0.00021303      -0.00013242       0.00063698
I        5.81728918       0.49603564       6.39138108        5      -0.00033267      -0.00016175      -0.00006794
I        3.82459500       2.39144745       1.25115631        6       0.00006759      -0.00034434      -0.00048233
I       -2.74026392       5.93154954       7.30410395        7       0.00017763       0.00045930      -0.00014839
I       -0.96652274       5.96042453       1.75000005        8       0.00001993      -0.00027107      -0.00002724
I        2.05105521       2.36286918       6.80524308        9       0.00002610       0.00007883      -0.00023956
