10
Lattice="10.526345464680924 0.0 0.0 -6.053106766257761 5.931397875915724 0.0 1.9408103371306171 0.2936542391499129 6.933715463680193" Properties=species:S:1:pos:R:3 pbc="T T T"
Cs       9.84849720       2.28414957       6.92710027
Cs       2.38485099       3.96817995       0.00641834
K        3.88006367       0.16045315       3.46686220
In       2.90968004       0.01363491       0.00005529
I       11.06340067       0.07646065       1.38698662
I        1.16992984       6.17578703       5.54677058
I        4.47666024       1.62569618       1.38700637
I        7.75675555       4.62668004       5.54679034
I        9.35316976       4.44637341       1.38697867
I        2.88017772       1.80598208       5.54676263
