80
Lattice="21.01914321130194 0.0 0.0 2.249867342459251 14.958870826338112 0.0 6.289384215214888 2.7793310825982847 15.623624495212505" Properties=species:S:1:pos:R:3 pbc="T T T"
Cs       3.69463711       2.21722668       1.95296401
Cs      11.08455991       6.65187304       5.85884743
K        7.38959838       4.43454974       3.90590562
In       0.00000023       0.00000099       0.00000041
I        6.72889658       0.52627103       3.23499442
I        8.05030027       8.34282761       4.57681683
I       12.34587748       4.21326916       1.95572012
I        2.43331748       4.65582940       5.85609089
I        4.10209281       5.93824242       1.67495305
I       10.67710525       2.93086028       6.13686006
Cs       6.83932922       3.60689222       9.76477625
Cs      14.22925202       8.04153858      13.67065968
K       10.53429049       5.82421528      11.71771787
In       3.14469234       1.38966653       7.81181266
I        9.87358869       1.91593657      11.04680667
I       11.19499237       9.73249315      12.38862907
I       15.49056959       5.60293470       9.76753237
I        5.57800959       6.04549495      13.66790314
I        7.24678492       7.32790796       9.48676529
I       13.82179736       4.32052583      13.94867231
Cs       4.81957078       9.69666209       1.95296401
Cs      12.20949359      14.13130845       5.85884743
K        8.51453205      11.91398516       3.90590562
In       1.12493390       7.47943640       0.00000041
I        7.85383025       8.00570644       3.23499442
I        9.17523394      15.82226302       4.57681683
I       13.47081116      11.69270457       1.95572012
I        3.55825115      12.13526482       5.85609089
I        5.22702648      13.41767784       1.67495305
I       11.80203892      10.41029570       6.13686006
Cs       7.96426289      11.08632763       9.76477625
Cs      15.35418569      15.52097399      13.67065968
K       11.65922416      13.30365070      11.71771787
In       4.26962601       8.86910194       7.81181266
I       10.99852236       9.39537198      11.04680667
I       12.31992604      17.21192856      12.38862907
I       16.61550326      13.08237012       9.76753237
I        6.70294326      13.52493036      13.66790314
I        8.37171859      14.80734338       9.48676529
I       14.94673103      11.79996124      13.94867231
Cs      14.20420872       2.21722668       1.95296401
Cs      21.59413152       6.65187304       5.85884743
K       17.89916998       4.43454974       3.90590562
In      10.50957184       0.00000099       0.00000041
I       17.23846819       0.52627103       3.23499442
I       18.55987187       8.34282761       4.57681683
I       22.85544909       4.21326916       1.95572012
I       12.94288909       4.65582940       5.85609089
I       14.61166442       5.93824242       1.67495305
I       21.18667686       2.93086028       6.13686006
Cs      17.34890083       3.60689222       9.76477625
Cs      24.73882363       8.04153858      13.67065968
K       21.04386209       5.82421528      11.71771787
In      13.65426394       1.38966653       7.81181266
I       20.38316029       1.91593657      11.04680667
I       21.70456398       9.73249315      12.38862907
I       26.00014120       5.60293470       9.76753237
I       16.08758119       6.04549495      13.66790314
I       17.75635653       7.32790796       9.48676529
I       24.33136897       4.32052583      13.94867231
Cs      15.32914239       9.69666209       1.95296401
Cs      22.71906519      14.13130845       5.85884743
K       19.02410366      11.91398516       3.90590562
In      11.63450551       7.47943640       0.00000041
I       18.36340186       8.00570644       3.23499442
I       19.68480554      15.82226302       4.57681683
I       23.98038276      11.69270457       1.95572012
I       14.06782276      12.13526482       5.85609089
I       15.73659809      13.41767784       1.67495305
I       22.31161053      10.41029570       6.13686006
Cs      18.47383450      11.08632763       9.76477625
Cs      25.86375730      15.52097399      13.67065968
K       22.16879576      13.30365070      11.71771787
In      14.77919762       8.86910194       7.81181266
I       21.50809397       9.39537198      11.04680667
I       22.82949765      17.21192856      12.38862907
I       27.12507487      13.08237012       9.76753237
I       17.21251487      13.52493036      13.66790314
I       18.88129020      14.80734338       9.48676529
I       25.45630264      11.79996124      13.94867231
