80
Lattice="19.019218185093067 2.903532906496972 -0.9566065129185056 4.016525336584562 14.69220875625171 1.0012740376419165 5.50710204828838 4.977453448580662 17.871162859417062" Properties=species:S:1:pos:R:3:spacegroup_kinds:I:1:forces:R:3 spacegroup="P 1" unit_cell=conventional occupancy="_JSON {\"0\": {\"Cs\": 1.0}, \"1\": {\"Cs\": 1.0}, \"2\": {\"K\": 1.0}, \"3\": {\"In\": 1.0}, \"4\": {\"I\": 1.0}, \"5\": {\"I\": 1.0}, \"6\": {\"I\": 1.0}, \"7\": {\"I\": 1.0}, \"8\": {\"I\": 1.0}, \"9\": {\"I\": 1.0}, \"10\": {\"Cs\": 1.0}, \"11\": {\"Cs\": 1.0}, \"12\": {\"K\": 1.0}, \"13\": {\"In\": 1.0}, \"14\": {\"I\": 1.0}, \"15\": {\"I\": 1.0}, \"16\": {\"I\": 1.0}, \"17\": {\"I\": 1.0}, \"18\": {\"I\": 1.0}, \"19\": {\"I\": 1.0}, \"20\": {\"Cs\": 1.0}, \"21\": {\"Cs\": 1.0}, \"22\": {\"K\": 1.0}, \"23\": {\"In\": 1.0}, \"24\": {\"I\": 1.0}, \"25\": {\"I\": 1.0}, \"26\": {\"I\": 1.0}, \"27\": {\"I\": 1.0}, \"28\": {\"I\": 1.0}, \"29\": {\"I\": 1.0}, \"30\": {\"Cs\": 1.0}, \"31\": {\"Cs\": 1.0}, \"32\": {\"K\": 1.0}, \"33\": {\"In\": 1.0}, \"34\": {\"I\": 1.0}, \"35\": {\"I\": 1.0}, \"36\": {\"I\": 1.0}, \"37\": {\"I\": 1.0}, \"38\": {\"I\": 1.0}, \"39\": {\"I\": 1.0}, \"40\": {\"Cs\": 1.0}, \"41\": {\"Cs\": 1.0}, \"42\": {\"K\": 1.0}, \"43\": {\"In\": 1.0}, \"44\": {\"I\": 1.0}, \"45\": {\"I\": 1.0}, \"46\": {\"I\": 1.0}, \"47\": {\"I\": 1.0}, \"48\": {\"I\": 1.0}, \"49\": {\"I\": 1.0}, \"50\": {\"Cs\": 1.0}, \"51\": {\"Cs\": 1.0}, \"52\": {\"K\": 1.0}, \"53\": {\"In\": 1.0}, \"54\": {\"I\": 1.0}, \"55\": {\"I\": 1.0}, \"56\": {\"I\": 1.0}, \"57\": {\"I\": 1.0}, \"58\": {\"I\": 1.0}, \"59\": {\"I\": 1.0}, \"60\": {\"Cs\": 1.0}, \"61\": {\"Cs\": 1.0}, \"62\": {\"K\": 1.0}, \"63\": {\"In\": 1.0}, \"64\": {\"I\": 1.0}, \"65\": {\"I\": 1.0}, \"66\": {\"I\": 1.0}, \"67\": {\"I\": 1.0}, \"68\": {\"I\": 1.0}, \"69\": {\"I\": 1.0}, \"70\": {\"Cs\": 1.0}, \"71\": {\"Cs\": 1.0}, \"72\": {\"K\": 1.0}, \"73\": {\"In\": 1.0}, \"74\": {\"I\": 1.0}, \"75\": {\"I\": 1.0}, \"76\": {\"I\": 1.0}, \"77\": {\"I\": 1.0}, \"78\": {\"I\": 1.0}, \"79\": {\"I\": 1.0}}" energy=-195.88155642665822 free_energy=-195.88155642665822 stress="1.6874111770144407e-07 4.3354228015466977e-07 7.072931247301758e-07 4.3354228015466977e-07 3.3691661548405766e-07 -6.612899283264469e-07 7.072931247301758e-07 -6.612899283264469e-07 -3.7879940946297874e-07" pbc="T T T"
Cs       4.47819009       2.72869967       1.49179183        0      -0.00030006       0.00008921      -0.00005327
Cs      10.08636242       8.57702584       7.52099312        1      -0.00040543      -0.00021062      -0.00005865
K        6.43346264       6.00367470       5.08077695        2       0.00019560      -0.00013810       0.00005672
In      19.38586747       2.94186358      -1.72252334        3      -0.00000230       0.00006534       0.00018701
I       11.30134538      15.07367126       4.01413952        4       0.00031485      -0.00023213      -0.00015998
I        6.83286204       9.63989867       5.83682943        5       0.00027936      -0.00001270       0.00031048
I       10.23448003       6.19664603       1.26238639        6       0.00004083      -0.00011171      -0.00029684
I       23.29261746       8.73579766       7.06292394        7       0.00016037       0.00002939       0.00040551
I        4.99105576       6.52755059       1.76682462        8       0.00015548      -0.00000348      -0.00015669
I        9.24030838       4.86547252       7.08439238        9      -0.00002274       0.00015228      -0.00011212
Cs       7.23183413       5.21779489      10.42722328       10      -0.00036285       0.00005774      -0.00026142
Cs      12.83993072      11.06577868      16.45670305       11      -0.00022933      -0.00016157       0.00000583
K        9.18695944       8.49133712      14.01666301       12      -0.00001572       0.00010646      -0.00019482
In      22.13975432       5.43170892       7.21342453       13       0.00000291      -0.00009920       0.00003542
I       14.05481584      17.56314774      12.95008767       14       0.00004304       0.00006334       0.00016335
I        9.58619711      12.12714046      14.77314380       15      -0.00012577       0.00008701      -0.00005065
I       12.98826591       8.68501183      10.19702047       16      -0.00016572       0.00003846       0.00056025
I       26.04574610      11.22357172      15.99913641       17       0.00013955      -0.00015721       0.00023844
I        7.74456814       9.01638786      10.70205822       18       0.00011008      -0.00004259      -0.00014002
I       11.99366684       7.35431683      16.01996448       19      -0.00002054       0.00000827       0.00008204
Cs       6.48633247      10.07541835       1.99173668       20      -0.00003206      -0.00047254      -0.00011215
Cs      12.09421941      15.92291177       8.02150493       21       0.00011436       0.00009969       0.00005981
K        8.44176477      13.34869636       5.58144542       22      -0.00004395      -0.00006510      -0.00005356
In      21.39453338      10.28799256      -1.22182033       23      -0.00010151       0.00002038      -0.00002656
I        9.29310856       7.72867173       3.51393023       24       0.00002079       0.00002991       0.00000171
I        4.82378719       2.29196205       5.33727664       25      -0.00021729       0.00018284      -0.00013642
I       12.24304364      13.54210513       1.76215545       26      -0.00034138       0.00021671       0.00032731
I       25.30061953      16.08063828       7.56417507       27      -0.00002400      -0.00020905      -0.00023583
I        6.99915118      13.87324862       2.26701068       28       0.00020646       0.00055220       0.00002150
I       11.24859436      12.21148041       7.58518105       29       0.00005757       0.00016106      -0.00009607
Cs       9.24005011      12.56381322      10.92780243       30      -0.00008412      -0.00008002       0.00010604
Cs      14.84806339      18.41164733      16.95733515       31      -0.00016569       0.00001771      -0.00013600
K       11.19522641      15.83779794      14.51671589       32       0.00024072       0.00007919       0.00019183
In      24.14821476      12.77635176       7.71312221       33      -0.00042183       0.00003511       0.00035425
I       12.04683299      10.21631716      12.44904153       34      -0.00004071       0.00016848       0.00018607
I        7.57768535       4.78229213      14.27261133       35       0.00019458      -0.00021964      -0.00005413
I       14.99605165      16.03138626      10.69826496       36       0.00023920      -0.00003177      -0.00018096
I       28.05443376      18.56934513      16.49906139       37      -0.00026303       0.00014666       0.00024857
I        9.75305649      16.36239700      11.20285972       38      -0.00003810       0.00010436      -0.00012408
I       14.00231936      14.70029744      16.52035529       39      -0.00006426       0.00011958      -0.00003458
Cs      13.98741763       4.18061174       1.01329952       40      -0.00008618       0.00018015      -0.00001295
Cs      19.59592543      10.02893326       7.04296147       41      -0.00013212      -0.00009195      -0.00003285
K       15.94356661       7.45590517       4.60246487       42      -0.00002541      -0.00028058       0.00007310
In       9.87601562       1.49037679      -1.24423801       43       0.00029453       0.00008864       0.00008835
I       20.81082703      16.52577434       3.53573964       44       0.00005693      -0.00014289       0.00009373
I       16.34238455      11.09172865       5.35897674       45       0.00009330       0.00000304       0.00009946
I        0.72491303       4.74479567       1.74052996       46       0.00013856       0.00008389       0.00019585
I       13.78275069       7.28330116       7.54110483       47       0.00054503      -0.00029714      -0.00044582
I       14.50049753       7.97945512       1.28845500       48       0.00029333       0.00001741       0.00006649
I       18.74974464       6.31767055       6.60635850       49      -0.00002653      -0.00011731      -0.00013234
Cs      16.74110472       6.66937961       9.94907618       50      -0.00021254       0.00038766      -0.00028837
Cs      22.34939948      12.51739926      15.97884615       51      -0.00015358      -0.00003334      -0.00007941
K       18.69657684       9.94294981      13.53810993       52      -0.00001272       0.00021963      -0.00001080
In      12.63014421       3.97901409       7.69150861       53      -0.00004319      -0.00012084      -0.00017111
I       23.56465289      19.01510245      12.47135568       54       0.00020263      -0.00005652       0.00001064
I       19.09600475      13.57937994      14.29479723       55       0.00000869      -0.00011520       0.00002818
I        3.47853909       7.23372077      10.67628562       56       0.00022863       0.00005788      -0.00016193
I       16.53606658       9.77204068      16.47729240       57       0.00025383      -0.00003795       0.00015150
I       17.25428643      10.46844372      10.22362046       58      -0.00002716      -0.00042836       0.00011340
I       21.50330375       8.80601082      15.54159721       59       0.00002814       0.00011603       0.00008658
Cs      15.99600523      11.52727406       1.51359190       60      -0.00005578      -0.00031675       0.00001590
Cs      21.60414273      17.37473741       7.54320639       61       0.00003669       0.00014306      -0.00006155
K       17.95162887      14.80046639       5.10293181       62      -0.00024082      -0.00001408       0.00002179
In      11.88502177       8.83605616      -0.74345592       63      -0.00026193       0.00016655      -0.00020774
I       18.80298578       9.18052582       3.03560285       64       0.00011497      -0.00011163      -0.00033491
I       14.33389133       3.74398541       4.85860781       65      -0.00017510       0.00011150       0.00003514
I        2.73314694      12.09023274       2.24079245       66       0.00007986       0.00015846      -0.00027165
I       15.79083196      14.62957197       8.04229070       67       0.00007342      -0.00023200      -0.00000525
I       16.50876779      15.32544958       1.78840557       68       0.00012401       0.00012919       0.00018722
I       20.75811630      13.66338825       7.10659697       69       0.00022920       0.00015874       0.00009068
Cs      18.74942134      14.01580416      10.44946184       70      -0.00000719      -0.00019150      -0.00002828
Cs      24.35775669      19.86352313      16.47884006       71      -0.00005175      -0.00008306      -0.00007595
K       20.70532376      17.28987415      14.03850262       72       0.00010916      -0.00007743       0.00005588
In      14.63834846      11.32508762       8.19177630       73      -0.00000437       0.00026444       0.00016732
I       21.55641558      11.66879686      11.97151096       74      -0.00035729      -0.00008514      -0.00019599
I       17.08746821       6.23393604      13.79440816       75      -0.00006475      -0.00003035      -0.00019011
I        5.48667870      14.57960896      11.17616926       76       0.00015960       0.00001367       0.00034347
I       18.54489070      17.11782912      16.97730179       77      -0.00014443      -0.00007898       0.00006239
I       19.26286295      17.81395779      10.72437048       78      -0.00009219       0.00022870      -0.00001000
I       23.51177561      16.15214445      16.04232685       79       0.00007715       0.00003042      -0.00013744
