40
Lattice="17.583180139236788 1.4920702694303376 0.708956161411178 13.468162477098952 11.33716476844627 -1.439292662259234 0.06756981192108985 -3.2305186146753146 12.632624918697335" Properties=species:S:1:pos:R:3:spacegroup_kinds:I:1:forces:R:3 spacegroup="P 1" unit_cell=conventional occupancy="_JSON {\"0\": {\"Cs\": 1.0}, \"1\": {\"Cs\": 1.0}, \"2\": {\"K\": 1.0}, \"3\": {\"In\": 1.0}, \"4\": {\"I\": 1.0}, \"5\": {\"I\": 1.0}, \"6\": {\"I\": 1.0}, \"7\": {\"I\": 1.0}, \"8\": {\"I\": 1.0}, \"9\": {\"I\": 1.0}, \"10\": {\"Cs\": 1.0}, \"11\": {\"Cs\": 1.0}, \"12\": {\"K\": 1.0}, \"13\": {\"In\": 1.0}, \"14\": {\"I\": 1.0}, \"15\": {\"I\": 1.0}, \"16\": {\"I\": 1.0}, \"17\": {\"I\": 1.0}, \"18\": {\"I\": 1.0}, \"19\": {\"I\": 1.0}, \"20\": {\"Cs\": 1.0}, \"21\": {\"Cs\": 1.0}, \"22\": {\"K\": 1.0}, \"23\": {\"In\": 1.0}, \"24\": {\"I\": 1.0}, \"25\": {\"I\": 1.0}, \"26\": {\"I\": 1.0}, \"27\": {\"I\": 1.0}, \"28\": {\"I\": 1.0}, \"29\": {\"I\": 1.0}, \"30\": {\"Cs\": 1.0}, \"31\": {\"Cs\": 1.0}, \"32\": {\"K\": 1.0}, \"33\": {\"In\": 1.0}, \"34\": {\"I\": 1.0}, \"35\": {\"I\": 1.0}, \"36\": {\"I\": 1.0}, \"37\": {\"I\": 1.0}, \"38\": {\"I\": 1.0}, \"39\": {\"I\": 1.0}}" energy=-102.58551499178725 free_energy=-102.58551499178725 stress="1.9763875266377392e-07 2.9128948809506214e-06 -1.249990585092817e-06 2.9128948809506214e-06 2.7102041710522745e-06 5.053769932814895e-07 -1.249990585092817e-06 5.053769932814895e-07 -3.0189259278058745e-06" pbc="T T T"
Cs       4.20791950      -0.46057318       3.73737585        0       0.00006684      -0.00009144      -0.00010404
Cs      11.40662363       3.59793844       8.53962131        1       0.00023260      -0.00018910      -0.00000936
K        7.77316498       1.65119693       6.12161761        2      -0.00021344      -0.00011517      -0.00009888
In      17.15717653       2.51032499       0.48712923        3      -0.00037884       0.00015802       0.00045153
I       15.47885338      10.70084074       5.43200079        4      -0.00037509      -0.00060418      -0.00003484
I       13.56421382       3.87234098       5.38562583        5       0.00000620       0.00002256       0.00000621
I        9.24088430       1.14470137       2.70108748        6      -0.00007975       0.00021854       0.00001250
I        6.55402512       1.54650142       9.67370811        7       0.00003176      -0.00012918      -0.00004981
I        5.62331751       2.08454560       0.42257312        8       0.00077241       0.00027863      -0.00003423
I       10.21245082       0.50825486      11.97356610        9       0.00024892       0.00032933       0.00044206
Cs      10.94235369       5.20799654       3.01762536       10      -0.00007750       0.00002161      -0.00020012
Cs      18.14179428       9.26654323       7.81995587       11      -0.00021339      -0.00007604       0.00003453
K       14.50689909       7.32028221       5.40256846       12       0.00020999       0.00000787      -0.00025953
In      23.89033125       8.17870748      -0.23245172       13      -0.00003197      -0.00022926      -0.00013548
I        8.74413286       5.03156758       6.15102940       14       0.00018411       0.00002956      -0.00005543
I        6.83035652      -1.79645993       6.10490159       15      -0.00015785       0.00012326      -0.00010743
I       15.97506123       6.81551783       1.98154093       16       0.00008793      -0.00023148       0.00028962
I       13.28896235       7.21513372       8.95426079       17       0.00018066       0.00034145      -0.00002988
I       12.35810491       7.75394098      -0.29762497       18       0.00028657      -0.00010606      -0.00003343
I       16.94798392       6.17733034      11.25387967       19      -0.00021463       0.00015259      -0.00008002
Cs      12.99965032       0.28568677       4.09129266       20       0.00010159      -0.00009007       0.00010784
Cs      20.19980132       4.34435265       8.89404589       21      -0.00028099       0.00004318      -0.00020204
K       16.56452908       2.39738395       6.47609830       22       0.00014246       0.00001318       0.00008014
In       8.36435752       1.76344071       0.13280943       23      -0.00006471       0.00019089      -0.00002513
I       24.27003225      11.44587080       5.78582660       24       0.00012352       0.00027038       0.00000628
I       22.35635364       4.61820660       5.73905453       25      -0.00027136      -0.00009054       0.00015686
I       18.03296191       1.89128488       3.05564909       26       0.00010417       0.00022069      -0.00015187
I       15.34662089       2.29246975      10.02824027       27      -0.00000201       0.00004936      -0.00007797
I       14.41628779       2.83209796       0.77729957       28      -0.00003762      -0.00023389      -0.00036994
I       19.00505369       1.25569252      12.32884488       29      -0.00001465      -0.00062173      -0.00030088
Cs      19.73337409       5.95435305       3.37220616       30       0.00003200      -0.00022165       0.00016969
Cs      26.93283936      10.01254051       8.17450138       31      -0.00003268       0.00013091       0.00013110
K       23.29870899       8.06558378       5.75557255       32      -0.00001498       0.00013624       0.00026298
In      15.09919066       7.43290530      -0.58734051       33      -0.00014989       0.00014011       0.00020933
I       17.53610650       5.77758601       6.50588212       34      -0.00016206       0.00005174      -0.00000856
I       15.62172838      -1.05028865       6.45933117       35      -0.00002815      -0.00003312       0.00001480
I       24.76732797       7.56086907       2.33596582       36      -0.00027287      -0.00015779      -0.00033694
I       22.08042388       7.96103406       9.30834234       37      -0.00020948      -0.00027340      -0.00019875
I       21.14931371       8.49965636       0.05742271       38       0.00028398       0.00004442       0.00009786
I       25.73885102       6.92290464      11.60772964       39       0.00018821       0.00051957       0.00043124
