40
Lattice="26.115243084590773 3.4704823417015085 -12.867384292857215 12.996901519706583 19.070245503318837 -6.489798756355467 8.497989372558134 -0.3131497403150046 0.3664949034631198" Properties=species:S:1:pos:R:3:spacegroup_kinds:I:1:forces:R:3 spacegroup="P 1" unit_cell=conventional occupancy="_JSON {\"0\": {\"Cs\": 1.0}, \"1\": {\"Cs\": 1.0}, \"2\": {\"K\": 1.0}, \"3\": {\"In\": 1.0}, \"4\": {\"I\": 1.0}, \"5\": {\"I\": 1.0}, \"6\": {\"I\": 1.0}, \"7\": {\"I\": 1.0}, \"8\": {\"I\": 1.0}, \"9\": {\"I\": 1.0}, \"10\": {\"Cs\": 1.0}, \"11\": {\"Cs\": 1.0}, \"12\": {\"K\": 1.0}, \"13\": {\"In\": 1.0}, \"14\": {\"I\": 1.0}, \"15\": {\"I\": 1.0}, \"16\": {\"I\": 1.0}, \"17\": {\"I\": 1.0}, \"18\": {\"I\": 1.0}, \"19\": {\"I\": 1.0}, \"20\": {\"Cs\": 1.0}, \"21\": {\"Cs\": 1.0}, \"22\": {\"K\": 1.0}, \"23\": {\"In\": 1.0}, \"24\": {\"I\": 1.0}, \"25\": {\"I\": 1.0}, \"26\": {\"I\": 1.0}, \"27\": {\"I\": 1.0}, \"28\": {\"I\": 1.0}, \"29\": {\"I\": 1.0}, \"30\": {\"Cs\": 1.0}, \"31\": {\"Cs\": 1.0}, \"32\": {\"K\": 1.0}, \"33\": {\"In\": 1.0}, \"34\": {\"I\": 1.0}, \"35\": {\"I\": 1.0}, \"36\": {\"I\": 1.0}, \"37\": {\"I\": 1.0}, \"38\": {\"I\": 1.0}, \"39\": {\"I\": 1.0}}" energy=-102.88028141957163 free_energy=-102.88028141957163 stress="9.912680174922103e-07 4.769711579643347e-07 -7.098441717898635e-07 4.769711579643347e-07 -5.330394486795942e-06 -3.4963147528489214e-06 -7.098441717898635e-07 -3.4963147528489214e-06 8.548805537271123e-07" pbc="T T T"
Cs       8.98307830       2.86363827      -3.58916011        0       0.00061910      -0.00004950       0.00058504
Cs      19.06615227       8.09321106      -5.72686362        1       0.00062187      -0.00007400       0.00043330
K       14.02727531       5.47896228      -4.65586071        2      -0.00015335      -0.00007857      -0.00002553
In      26.11596192       3.47048397     -12.86678075        3      -0.00011555       0.00040390      -0.00000815
I       13.28986148       2.24629337      -3.53057356        4      -0.00016201       0.00006973       0.00004527
I       14.76553263       8.71101093      -5.78030454        5      -0.00019654       0.00002277      -0.00034825
I       15.54765618       3.26078157      -6.89806131        6      -0.00017644      -0.00002568      -0.00006561
I       12.50774984       7.69646787      -2.41313794        7       0.00004282       0.00001200      -0.00020498
I        8.11771857       6.93702263      -2.94174744        8      -0.00013287      -0.00003134      -0.00010809
I       19.93750118       4.01997690      -6.36934483        9      -0.00021195       0.00015213      -0.00014175
Cs      15.48156637      12.39877606      -6.83409902       10       0.00059194      -0.00011877       0.00064328
Cs      25.56461008      17.62831923      -8.97177026       11       0.00060904      -0.00001435       0.00041449
K       20.52564281      15.01403422      -7.90068947       12      -0.00002133       0.00007119      -0.00012188
In      32.61441966      13.00563582     -16.11165920       13      -0.00018552       0.00028279      -0.00011907
I       19.78828289      11.78141858      -6.77543047       14      -0.00014044       0.00004882      -0.00009541
I       21.26412137      18.24622088      -9.02534579       15      -0.00033318      -0.00026774       0.00006422
I       22.04608237      12.79589576     -10.14293591       16      -0.00006611       0.00005299      -0.00008014
I       19.00626645      17.23162571      -5.65808078       17      -0.00019168      -0.00008904      -0.00020881
I       14.61617787      16.47214374      -6.18664909       18      -0.00014569      -0.00003439      -0.00013554
I       26.43595855      13.55509130      -9.61423845       19      -0.00028993       0.00022139      -0.00017612
Cs      22.04073197       4.59886318     -10.02289046       20       0.00057012      -0.00000068       0.00064732
Cs      32.12380520       9.82846764     -12.16058692       21       0.00059547      -0.00012721       0.00045538
K       27.08484181       7.21418923     -11.08950830       22      -0.00008846      -0.00009960      -0.00003196
In      13.05836637       1.73540504      -6.43305542       23      -0.00019805      -0.00024035      -0.00024805
I       26.34739766       3.98153434      -9.96413646       24      -0.00015068       0.00002163      -0.00042867
I       27.82317690      10.44627086     -12.21402773       25      -0.00016869       0.00001064      -0.00022964
I       28.60515904       4.99602147     -13.33163359       26       0.00008672      -0.00008437      -0.00021892
I       25.56548171       9.43169995      -8.84694329       27      -0.00021346       0.00011992       0.00003196
I       21.17536131       8.67222134      -9.37545548       28      -0.00018051       0.00014531      -0.00011089
I       32.99512705       5.75525583     -12.80302564       29      -0.00023864       0.00000883      -0.00019257
Cs      28.53914833      14.13397946     -13.26775183       30       0.00059975       0.00001658       0.00057858
Cs      38.62225322      19.36359884     -15.40548584       31       0.00060566      -0.00014351       0.00048936
K       33.58326866      16.74932454     -14.33437470       32      -0.00003861      -0.00013242      -0.00012910
In      19.55681005      11.27053972      -9.67796708       33      -0.00014403      -0.00033971      -0.00019924
I       32.84593679      13.51667446     -13.20915835       34      -0.00019190      -0.00002267      -0.00002003
I       34.32157506      19.98135707     -15.45888399       35      -0.00010749       0.00009649      -0.00036999
I       35.10369941      14.53114959     -16.57661734       36      -0.00020645      -0.00009094      -0.00011197
I       32.06391080      18.96679974     -12.09182895       37      -0.00014426       0.00018720       0.00003736
I       27.67379975      18.20735359     -12.62034767       38      -0.00016118       0.00010499      -0.00011489
I       39.49357275      15.29037445     -16.04792872       39      -0.00018752       0.00001554      -0.00018029
