40
Lattice="20.490746557455232 0.0 0.0 8.269434071703012 16.579422198748855 0.0 8.38703433490547 -1.32694501360904 4.785344574407941" Properties=species:S:1:pos:R:3 pbc="T T T"
Cs       5.69170161       1.74066815       1.19634237
Cs      17.07542285       5.22209732       3.58900181
K       11.38356229       3.48138267       2.39267205
In       0.00000017       0.00000050       0.00000020
I       10.56570712      -0.20348414       2.33681150
I       12.20141748       7.16624910       2.44853260
I       12.40145403       2.62109364       1.23257942
I       10.36566962       4.34167130       3.55276455
I        7.55986493       5.94657702       0.99152701
I       15.20726023       1.01618998       3.79381803
Cs       9.82641864      10.03037925       1.19634237
Cs      21.21013989      13.51180842       3.58900181
K       15.51827933      11.77109377       2.39267205
In       4.13471720       8.28971160       0.00000020
I       14.70042416       8.08622696       2.33681150
I       16.33613452      15.45596020       2.44853260
I       16.53617106      10.91080474       1.23257942
I       14.50038665      12.63138240       3.55276455
I       11.69458196      14.23628812       0.99152701
I       19.34197727       9.30590108       3.79381803
Cs      15.93707489       1.74066815       1.19634237
Cs      27.32079613       5.22209732       3.58900181
K       21.62893557       3.48138267       2.39267205
In      10.24537344       0.00000050       0.00000020
I       20.81108040      -0.20348414       2.33681150
I       22.44679076       7.16624910       2.44853260
I       22.64682730       2.62109364       1.23257942
I       20.61104290       4.34167130       3.55276455
I       17.80523820       5.94657702       0.99152701
I       25.45263351       1.01618998       3.79381803
Cs      20.07179192      10.03037925       1.19634237
Cs      31.45551317      13.51180842       3.58900181
K       25.76365260      11.77109377       2.39267205
In      14.38009048       8.28971160       0.00000020
I       24.94579744       8.08622696       2.33681150
I       26.58150779      15.45596020       2.44853260
I       26.78154434      10.91080474       1.23257942
I       24.74575993      12.63138240       3.55276455
I       21.93995524      14.23628812       0.99152701
I       29.58735055       9.30590108       3.79381803
