80
Lattice="18.5828615067006 0.7756023964387794 -0.010874823246093878 -9.964210248292959 15.70354775575327 0.0015664548898415565 0.005414026375003488 -0.0016790360110500034 17.65724677315271" Properties=species:S:1:pos:R:3:spacegroup_kinds:I:1:forces:R:3 spacegroup="P 1" unit_cell=conventional occupancy="_JSON {\"0\": {\"Cs\": 1.0}, \"1\": {\"Cs\": 1.0}, \"2\": {\"K\": 1.0}, \"3\": {\"In\": 1.0}, \"4\": {\"I\": 1.0}, \"5\": {\"I\": 1.0}, \"6\": {\"I\": 1.0}, \"7\": {\"I\": 1.0}, \"8\": {\"I\": 1.0}, \"9\": {\"I\": 1.0}, \"10\": {\"Cs\": 1.0}, \"11\": {\"Cs\": 1.0}, \"12\": {\"K\": 1.0}, \"13\": {\"In\": 1.0}, \"14\": {\"I\": 1.0}, \"15\": {\"I\": 1.0}, \"16\": {\"I\": 1.0}, \"17\": {\"I\": 1.0}, \"18\": {\"I\": 1.0}, \"19\": {\"I\": 1.0}, \"20\": {\"Cs\": 1.0}, \"21\": {\"Cs\": 1.0}, \"22\": {\"K\": 1.0}, \"23\": {\"In\": 1.0}, \"24\": {\"I\": 1.0}, \"25\": {\"I\": 1.0}, \"26\": {\"I\": 1.0}, \"27\": {\"I\": 1.0}, \"28\": {\"I\": 1.0}, \"29\": {\"I\": 1.0}, \"30\": {\"Cs\": 1.0}, \"31\": {\"Cs\": 1.0}, \"32\": {\"K\": 1.0}, \"33\": {\"In\": 1.0}, \"34\": {\"I\": 1.0}, \"35\": {\"I\": 1.0}, \"36\": {\"I\": 1.0}, \"37\": {\"I\": 1.0}, \"38\": {\"I\": 1.0}, \"39\": {\"I\": 1.0}, \"40\": {\"Cs\": 1.0}, \"41\": {\"Cs\": 1.0}, \"42\": {\"K\": 1.0}, \"43\": {\"In\": 1.0}, \"44\": {\"I\": 1.0}, \"45\": {\"I\": 1.0}, \"46\": {\"I\": 1.0}, \"47\": {\"I\": 1.0}, \"48\": {\"I\": 1.0}, \"49\": {\"I\": 1.0}, \"50\": {\"Cs\": 1.0}, \"51\": {\"Cs\": 1.0}, \"52\": {\"K\": 1.0}, \"53\": {\"In\": 1.0}, \"54\": {\"I\": 1.0}, \"55\": {\"I\": 1.0}, \"56\": {\"I\": 1.0}, \"57\": {\"I\": 1.0}, \"58\": {\"I\": 1.0}, \"59\": {\"I\": 1.0}, \"60\": {\"Cs\": 1.0}, \"61\": {\"Cs\": 1.0}, \"62\": {\"K\": 1.0}, \"63\": {\"In\": 1.0}, \"64\": {\"I\": 1.0}, \"65\": {\"I\": 1.0}, \"66\": {\"I\": 1.0}, \"67\": {\"I\": 1.0}, \"68\": {\"I\": 1.0}, \"69\": {\"I\": 1.0}, \"70\": {\"Cs\": 1.0}, \"71\": {\"Cs\": 1.0}, \"72\": {\"K\": 1.0}, \"73\": {\"In\": 1.0}, \"74\": {\"I\": 1.0}, \"75\": {\"I\": 1.0}, \"76\": {\"I\": 1.0}, \"77\": {\"I\": 1.0}, \"78\": {\"I\": 1.0}, \"79\": {\"I\": 1.0}}" energy=-206.35052324823104 free_energy=-206.35052324823104 stress="1.6698576439071067e-06 -9.046343470901182e-07 -4.598082653451533e-06 -9.046343470901182e-07 -1.0373305586083949e-06 -4.683685314862338e-06 -4.598082653451533e-06 -4.683685314862338e-06 -5.431652836240869e-07" pbc="T T T"
Cs       4.79332161       2.76871432       8.84089619        0      -0.00012578       0.00036916       0.00010507
Cs       0.03252558       5.25788670      -0.01642345        1       0.00038486       0.00001815      -0.00041754
K       -9.70607252      15.59685513       4.41577689        2       0.00012052       0.00029530      -0.00004113
In      -9.70700941      15.59788991       0.00118473        3      -0.00015595      -0.00076654       0.00006272
I       -2.85039364      15.87378524       1.76334025        4      -0.00045254       0.00021764       0.00015777
I       -2.28722850       7.85655586       7.06159785        5      -0.00031901       0.00002112       0.00009532
I        1.37888950       2.05960635       1.76528590        6      -0.00001455      -0.00028156       0.00030082
I        3.44766052       5.96726401       7.05817313        7      -0.00046213       0.00020129       0.00035850
I        5.88163996       6.08054652       1.76128829        8       0.00046910      -0.00007385      -0.00028733
I       -1.05632853       1.94640940       7.06256548        9       0.00055349      -0.00000034      -0.00033443
Cs       4.79602860       2.76787474      17.66951958       10      -0.00012569       0.00036960       0.00010503
Cs       0.03523254       5.25704723       8.81219991       11       0.00038523       0.00001775      -0.00041733
K       -9.70336550      15.59601561      13.24440028       12       0.00012052       0.00029530      -0.00004113
In      -9.70430398      15.59705008       8.82980822       13      -0.00014709      -0.00076511       0.00006188
I       -2.84768697      15.87294568      10.59196373       14      -0.00045056       0.00021775       0.00015689
I       -2.28452108       7.85571639      15.89022108       15      -0.00032129       0.00002095       0.00009657
I        1.38159669       2.05876699      10.59390939       16      -0.00001550      -0.00028263       0.00029993
I        3.45036749       5.96642449      15.88679649       17      -0.00046186       0.00020129       0.00035868
I        5.88434704       6.07970692      10.58991170       18       0.00046868      -0.00007321      -0.00028760
I       -1.05362163       1.94556997      15.89118880       19       0.00055420      -0.00000104      -0.00033394
Cs      -0.18878358      10.62048814       8.84167940       20      -0.00012542       0.00036958       0.00010513
Cs      -4.94957952      13.10966062      -0.01564023       21       0.00038475       0.00001789      -0.00041753
K       -4.72396725       7.74508129       4.41499368       22       0.00011974       0.00029506      -0.00004122
In      -4.72490471       7.74611608       0.00040156       23      -0.00015348      -0.00076717       0.00006225
I        2.13171110       8.02201130       1.76255716       24      -0.00045039       0.00021785       0.00015660
I       -7.26933282      15.70832985       7.06238076       25      -0.00032350       0.00002072       0.00009787
I       -3.60321561       9.91138022       1.76606913       26      -0.00001465      -0.00028151       0.00030080
I       -1.53444461      13.81903794       7.05895637       27      -0.00046203       0.00020093       0.00035842
I        0.89953491      13.93232035       1.76207155       28       0.00046863      -0.00007340      -0.00028766
I       -6.03843381       9.79818338       7.06334862       29       0.00055443      -0.00000121      -0.00033372
Cs      -0.18607657      10.61964866      17.67030278       30      -0.00012537       0.00036925       0.00010520
Cs      -4.94687246      13.10882104       8.81298319       31       0.00038447       0.00001839      -0.00041772
K       -4.72126024       7.74424177      13.24361706       32       0.00011974       0.00029506      -0.00004123
In      -4.72219657       7.74527670       8.82902486       33      -0.00015973      -0.00076758       0.00006293
I        2.13441834       8.02117181      10.59118048       34      -0.00045172       0.00021778       0.00015721
I       -7.26662638      15.70749026      15.89100436       35      -0.00032027       0.00002096       0.00009614
I       -3.60050871       9.91054063      10.59469245       36      -0.00001405      -0.00028100       0.00030135
I       -1.53173749      13.81819849      15.88757981       37      -0.00046260       0.00020044       0.00035795
I        0.90224184      13.93148090      10.59069490       38       0.00046922      -0.00007405      -0.00028730
I       -6.03572671       9.79734378      15.89197205       39       0.00055391      -0.00000052      -0.00033413
Cs      14.08475240       3.15651545       8.83545879       40      -0.00012600       0.00036966       0.00010490
Cs       9.32395630       5.64568792      -0.02186088       41       0.00038510       0.00001798      -0.00041742
K       -0.41464176      15.98465631       4.41033948       42       0.00012051       0.00029540      -0.00004116
In      -0.41557988      15.98569083      -0.00425263       43      -0.00014897      -0.00076512       0.00006227
I        6.44103666      16.26158638       1.75790299       44      -0.00044998       0.00021782       0.00015650
I        7.00420277       8.24435712       7.05616026       45      -0.00032200       0.00002091       0.00009685
I       10.67032041       2.44740769       1.75984858       46      -0.00001536      -0.00028257       0.00030007
I       12.73909112       6.35506510       7.05273563       47      -0.00046128       0.00020202       0.00035924
I       -3.40979077       5.69274526       1.76672572       48       0.00046896      -0.00007336      -0.00028749
I        8.23510211       2.33421070       7.05712800       49       0.00055418      -0.00000121      -0.00033394
Cs      14.08745937       3.15567600      17.66408216       50      -0.00012572       0.00036917       0.00010509
Cs       9.32666331       5.64484836       8.80676252       51       0.00038505       0.00001831      -0.00041749
K       -0.41193475      15.98381680      13.23896287       52       0.00012051       0.00029540      -0.00004117
In      -0.41287197      15.98485141       8.82437073       53      -0.00015421      -0.00076535       0.00006255
I        6.44374426      16.26074693      10.58652616       54      -0.00045321       0.00021758       0.00015823
I        7.00690955       8.24351758      15.88478371       55      -0.00032068       0.00002098       0.00009624
I       10.67302732       2.44656810      10.58847191       56      -0.00001480      -0.00028210       0.00030052
I       12.74179825       6.35422566      15.88135908       57      -0.00046188       0.00020151       0.00035868
I       -3.40708384       5.69190582      10.59534905       58       0.00046947      -0.00007405      -0.00028709
I        8.23780922       2.33337111      15.88575143       59       0.00055358      -0.00000055      -0.00033430
Cs       9.10264715      11.00828941       8.83624197       60      -0.00012524       0.00036903       0.00010529
Cs       4.34185123      13.49746176      -0.02107763       61       0.00038478       0.00001833      -0.00041760
K        4.56746341       8.13288247       4.40955626       62       0.00012025       0.00029517      -0.00004116
In       4.56652634       8.13391721      -0.00503590       63      -0.00015507      -0.00076638       0.00006260
I       11.42314197       8.40981251       1.75711971       64      -0.00045101       0.00021781       0.00015692
I        2.02209747      16.09613099       7.05694351       65      -0.00032086       0.00002089       0.00009654
I        5.68821514      10.29918144       1.76063172       66      -0.00001463      -0.00028173       0.00030080
I        7.75698627      14.20683922       7.05351903       67      -0.00046273       0.00020038       0.00035782
I       -8.39189594      13.54451920       1.76750892       68       0.00046924      -0.00007388      -0.00028731
I        3.25299707      10.18598448       7.05791127       69       0.00055364      -0.00000036      -0.00033424
Cs       9.10535422      11.00744984      17.66486539       70      -0.00012561       0.00036942       0.00010508
Cs       4.34455826      13.49662230       8.80754575       71       0.00038469       0.00001788      -0.00041756
K        4.57017043       8.13204295      13.23817964       72       0.00012025       0.00029517      -0.00004116
In       4.56923278       8.13307772       8.82358754       73      -0.00015167      -0.00076696       0.00006217
I       11.42584857       8.40897294      10.58574325       74      -0.00044872       0.00021799       0.00015568
I        2.02480481      16.09529151      15.88556680       75      -0.00032281       0.00002078       0.00009741
I        5.69092220      10.29834193      10.58925512       76      -0.00001490      -0.00028173       0.00030062
I        7.75969310      14.20599955      15.88214231       77      -0.00046178       0.00020146       0.00035871
I       -8.38918881      13.54367960      10.59613237       78       0.00046854      -0.00007319      -0.00028779
I        3.25570402      10.18514504      15.88653462       79       0.00055406      -0.00000101      -0.00033397
