20
Lattice="18.59828461029138 0.09227559087551038 -0.010989218020892772 -4.689736019191163 8.029780519289623 0.005240188648657006 -0.0032773991572532437 0.0019278603683411154 8.828731669535177" Properties=species:S:1:pos:R:3:spacegroup_kinds:I:1:forces:R:3 spacegroup="P 1" unit_cell=conventional occupancy="_JSON {\"0\": {\"Cs\": 1.0}, \"1\": {\"Cs\": 1.0}, \"2\": {\"K\": 1.0}, \"3\": {\"In\": 1.0}, \"4\": {\"I\": 1.0}, \"5\": {\"I\": 1.0}, \"6\": {\"I\": 1.0}, \"7\": {\"I\": 1.0}, \"8\": {\"I\": 1.0}, \"9\": {\"I\": 1.0}, \"10\": {\"Cs\": 1.0}, \"11\": {\"Cs\": 1.0}, \"12\": {\"K\": 1.0}, \"13\": {\"In\": 1.0}, \"14\": {\"I\": 1.0}, \"15\": {\"I\": 1.0}, \"16\": {\"I\": 1.0}, \"17\": {\"I\": 1.0}, \"18\": {\"I\": 1.0}, \"19\": {\"I\": 1.0}}" energy=-51.58762464818624 free_energy=-51.58762464818624 stress="4.80310820404052e-06 1.3397524359039114e-06 -1.1562363658806277e-05 1.3397524359039114e-06 -4.108000628897935e-06 5.531424758620882e-06 -1.1562363658806277e-05 5.531424758620882e-06 7.886955282918116e-07" pbc="T T T"
Cs       5.43115900       1.99436390       8.81603809        0      -0.00017515       0.00000876       0.00003930
Cs       0.77053789       4.65255233       0.01105061        1       0.00008800      -0.00001379      -0.00002232
K       -3.89361960       7.31527835       4.41891955        2       0.00009620       0.00000424      -0.00005990
In      -3.89207823       7.31430932       0.00451255        3       0.00062331       0.00002861       0.00020561
I        2.96906244       7.35441279       1.76578602        4       0.00000788       0.00007953       0.00012883
I       -1.45707573       7.32228383       7.06651262        5      -0.00027399      -0.00008199       0.00007432
I        2.01272211       1.39854526       1.76559200        6      -0.00028342       0.00003025      -0.00008335
I        4.18899738       5.24842463       7.06151658        7       0.00009301      -0.00030819      -0.00010919
I        6.63174491       5.25187685       1.76517283        8      -0.00027646       0.00009644      -0.00019928
I       -0.43002941       1.39498674       7.06193370        9       0.00010060       0.00015612       0.00002597
Cs      14.73030131       2.04050169       8.81054349       10      -0.00017515       0.00000876       0.00003930
Cs      10.06968020       4.69869013       0.00555600       11       0.00008800      -0.00001379      -0.00002232
K        5.40552271       7.36141614       4.41342495       12       0.00009620       0.00000424      -0.00005990
In       5.40706408       7.36044712      -0.00098206       13       0.00062331       0.00002861       0.00020561
I       12.26820475       7.40055058       1.76029141       14       0.00000788       0.00007953       0.00012883
I        7.84206657       7.36842162       7.06101801       15      -0.00027399      -0.00008199       0.00007432
I       11.31186442       1.44468305       1.76009739       16      -0.00028342       0.00003025      -0.00008335
I       13.48813969       5.29456242       7.05602197       17       0.00009301      -0.00030819      -0.00010919
I       -2.66739739       5.20573905       1.77066744       18      -0.00027646       0.00009644      -0.00019928
I        8.86911290       1.44112454       7.05643909       19       0.00010060       0.00015612       0.00002597
