20
Lattice="17.303348023218508 0.0 0.0 -4.400999432926212 7.62275462191002 0.0 0.0 0.0 10.066188167238572" Properties=species:S:1:pos:R:3 pbc="T T T"
Cs       5.04638566       1.85993642      10.05669670
Cs       0.69549451       4.40085463       0.00943028
K        0.74560467      -0.68097936       5.03309038
In       0.74561095      -0.68098740       0.00000936
I        7.12854474      -0.67569507       2.01355587
I       -1.38667032       6.93646325       8.05262228
I        1.86477672       1.31524236       2.01356683
I        3.87712095       4.94555604       8.05263323
I        6.14584215       4.94025641       2.01356424
I       -0.40396046       1.32053903       8.05263064
Cs      13.69805967       1.85993642      10.05669670
Cs       9.34716853       4.40085463       0.00943028
K        9.39727868      -0.68097936       5.03309038
In       9.39728496      -0.68098740       0.00000936
I       15.78021875      -0.67569507       2.01355587
I        7.26500369       6.93646325       8.05262228
I       10.51645073       1.31524236       2.01356683
I       12.52879496       4.94555604       8.05263323
I       14.79751616       4.94025641       2.01356424
I        8.24771355       1.32053903       8.05263064
