80
Lattice="16.99897886933823 2.222451432935887 1.0212888605593147 -4.19800354315781 19.121001700452773 2.06907465153699 -0.8497642948922369 -1.4840570383861675 12.424377056250894" Properties=species:S:1:pos:R:3:spacegroup_kinds:I:1:forces:R:3 spacegroup="P 1" unit_cell=conventional occupancy="_JSON {\"0\": {\"Cs\": 1.0}, \"1\": {\"Cs\": 1.0}, \"2\": {\"Cs\": 1.0}, \"3\": {\"Cs\": 1.0}, \"4\": {\"Pb\": 1.0}, \"5\": {\"Pb\": 1.0}, \"6\": {\"Pb\": 1.0}, \"7\": {\"Pb\": 1.0}, \"8\": {\"I\": 1.0}, \"9\": {\"I\": 1.0}, \"10\": {\"I\": 1.0}, \"11\": {\"I\": 1.0}, \"12\": {\"I\": 1.0}, \"13\": {\"I\": 1.0}, \"14\": {\"I\": 1.0}, \"15\": {\"I\": 1.0}, \"16\": {\"I\": 1.0}, \"17\": {\"I\": 1.0}, \"18\": {\"I\": 1.0}, \"19\": {\"I\": 1.0}, \"20\": {\"Cs\": 1.0}, \"21\": {\"Cs\": 1.0}, \"22\": {\"Cs\": 1.0}, \"23\": {\"Cs\": 1.0}, \"24\": {\"Pb\": 1.0}, \"25\": {\"Pb\": 1.0}, \"26\": {\"Pb\": 1.0}, \"27\": {\"Pb\": 1.0}, \"28\": {\"I\": 1.0}, \"29\": {\"I\": 1.0}, \"30\": {\"I\": 1.0}, \"31\": {\"I\": 1.0}, \"32\": {\"I\": 1.0}, \"33\": {\"I\": 1.0}, \"34\": {\"I\": 1.0}, \"35\": {\"I\": 1.0}, \"36\": {\"I\": 1.0}, \"37\": {\"I\": 1.0}, \"38\": {\"I\": 1.0}, \"39\": {\"I\": 1.0}, \"40\": {\"Cs\": 1.0}, \"41\": {\"Cs\": 1.0}, \"42\": {\"Cs\": 1.0}, \"43\": {\"Cs\": 1.0}, \"44\": {\"Pb\": 1.0}, \"45\": {\"Pb\": 1.0}, \"46\": {\"Pb\": 1.0}, \"47\": {\"Pb\": 1.0}, \"48\": {\"I\": 1.0}, \"49\": {\"I\": 1.0}, \"50\": {\"I\": 1.0}, \"51\": {\"I\": 1.0}, \"52\": {\"I\": 1.0}, \"53\": {\"I\": 1.0}, \"54\": {\"I\": 1.0}, \"55\": {\"I\": 1.0}, \"56\": {\"I\": 1.0}, \"57\": {\"I\": 1.0}, \"58\": {\"I\": 1.0}, \"59\": {\"I\": 1.0}, \"60\": {\"Cs\": 1.0}, \"61\": {\"Cs\": 1.0}, \"62\": {\"Cs\": 1.0}, \"63\": {\"Cs\": 1.0}, \"64\": {\"Pb\": 1.0}, \"65\": {\"Pb\": 1.0}, \"66\": {\"Pb\": 1.0}, \"67\": {\"Pb\": 1.0}, \"68\": {\"I\": 1.0}, \"69\": {\"I\": 1.0}, \"70\": {\"I\": 1.0}, \"71\": {\"I\": 1.0}, \"72\": {\"I\": 1.0}, \"73\": {\"I\": 1.0}, \"74\": {\"I\": 1.0}, \"75\": {\"I\": 1.0}, \"76\": {\"I\": 1.0}, \"77\": {\"I\": 1.0}, \"78\": {\"I\": 1.0}, \"79\": {\"I\": 1.0}}" energy=-223.95235563899737 free_energy=-223.95235563899737 stress="3.822937517168253e-06 4.205227740412291e-06 -2.432548171864652e-06 4.205227740412291e-06 1.1794234808061308e-05 -1.1397323573761606e-06 -2.432548171864652e-06 -1.1397323573761606e-06 4.597281258368139e-07" pbc="T T T"
Cs       3.61547787      10.46462349       4.62926937        0      -0.00002106      -0.00000051      -0.00008256
Cs       0.33926748       5.42717542       4.13823235        1      -0.00018364      -0.00011352      -0.00009484
Cs       5.44783254       1.96888903       9.71665248        2      -0.00014646       0.00014629       0.00023144
Cs       7.70679730       7.46628366      10.76594249        3       0.00037280      -0.00022275       0.00004569
Pb       0.91110516       0.12853356      12.69353233        4       0.00065500       0.00042835       0.00015651
Pb       3.48703372       6.23827022       0.84345812        5       0.00041624       0.00013605      -0.00037652
Pb       1.33290550       0.71404021       6.38636402        6      -0.00022849      -0.00005774       0.00064843
Pb       4.42233945       6.13020466       7.15093411        7       0.00085631      -0.00013019      -0.00043989
I        1.45107175       8.64408170       1.90665878        8      -0.00044624       0.00010012       0.00020729
I        4.73020605       3.43332754       0.88060649        9      -0.00007951       0.00027095      -0.00046549
I        9.14214198       2.69491618       3.84997995       10      -0.00001937      -0.00008572       0.00045732
I        8.39490345       4.48122794      13.18759176       11      -0.00000896       0.00013135       0.00006307
I        5.01924240       8.99193391      13.26131760       12       0.00004722       0.00020307      -0.00020575
I        4.91063166       6.77986275       4.12873110       13      -0.00011668       0.00025335       0.00015457
I        1.27738969       8.05331439       6.89747610       14      -0.00000241       0.00006783       0.00022917
I        3.46509126       3.21795169       6.23450550       15      -0.00005722      -0.00001336       0.00004122
I       -0.31151398      10.18221962      10.60522549       16      -0.00049285      -0.00015679       0.00011879
I        7.20218128       4.93709168       7.78696480       17      -0.00019339       0.00008534      -0.00020498
I        5.31225369       9.24852243       8.09373081       18      -0.00003728      -0.00022667       0.00023870
I        3.37878707       5.53832922      10.38511692       19      -0.00018499       0.00012177       0.00047207
Cs       5.71444431       0.90414597       3.59455208       20       0.00007628      -0.00009546       0.00018591
Cs      -1.75975861      14.98756257       5.17249952       21      -0.00019137       0.00002578       0.00028938
Cs       3.34877096      11.52939233      10.75154000       22       0.00010193       0.00015452      -0.00023919
Cs       5.60778787      17.02685762      11.80052754       23       0.00043599      -0.00023828       0.00003277
Pb      -1.18791298       9.68915685      13.72827356       24       0.00085682       0.00017457      -0.00000319
Pb       1.38810051      15.79880132       1.87788279       25       0.00021557       0.00012347       0.00033627
Pb      -0.76622497      10.27447879       7.42115009       26       0.00030257      -0.00009527       0.00012519
Pb       2.32357146      15.69067871       8.18536034       27      -0.00028588      -0.00007926      -0.00031755
I       -0.64795830      18.20459225       2.94112538       28      -0.00031128      -0.00003225       0.00024863
I        2.63114628      12.99382720       1.91470156       29       0.00010266       0.00002317       0.00008641
I        7.04308995      12.25532252       4.88444696       30       0.00017147       0.00012112       0.00016426
I        6.29583168      14.04175833      14.22213235       31      -0.00001601      -0.00009211       0.00001780
I        2.92021952      18.55233145      14.29568702       32      -0.00014887       0.00016156      -0.00011401
I        2.81158688      16.34038081       5.16341663       33       0.00009679       0.00031951      -0.00011297
I       -0.82161879      17.61394011       7.93223217       34       0.00023929      -0.00028421      -0.00010146
I        1.36605689      12.77838203       7.26901091       35      -0.00003777       0.00017486       0.00011827
I        1.78736907       0.62155430       9.57086865       36      -0.00027074       0.00016859      -0.00016361
I        5.10299427      14.49768671       8.82130940       37       0.00067745      -0.00028038       0.00019322
I        3.21324805      18.80908499       9.12849542       38       0.00005046      -0.00024651      -0.00007289
I        1.27976463      15.09883328      11.41993596       39      -0.00001263       0.00031862      -0.00035834
Cs      12.11493366      11.57583358       5.13974987       40       0.00002061       0.00000555       0.00018037
Cs       8.83875608       6.53835626       4.64872506       41      -0.00032360      -0.00007689       0.00009892
Cs      13.94732740       3.08014450      10.22731405       42      -0.00009810       0.00011056       0.00017154
Cs      -0.79273232       6.35496491      10.25517439       43       0.00048836      -0.00000395       0.00016277
Pb       9.41067574       1.23980098      13.20427066       44       0.00009168       0.00019325      -0.00005350
Pb      11.98659595       7.34965563       1.35404067       45      -0.00004484      -0.00062612      -0.00023929
Pb       9.83231144       1.82528177       6.89718046       46       0.00020948      -0.00021928       0.00022910
Pb      12.92198901       7.24134604       7.66132523       47       0.00006529       0.00012808       0.00048471
I        9.95055552       9.75538127       2.41732826       48      -0.00019933      -0.00022137       0.00017692
I       13.22970705       4.54452378       1.39117081       49      -0.00020391       0.00061508      -0.00035363
I        0.64264709       1.58369096       3.33949121       50      -0.00001719       0.00002348      -0.00017891
I       -0.10454582       3.37002575      12.67688506       51      -0.00044122      -0.00021455       0.00010448
I       13.51879735      10.10326331      13.77200277       52      -0.00060706      -0.00031572      -0.00040425
I       13.41008684       7.89110220       4.63964523       53       0.00017475       0.00042123      -0.00077681
I        9.77684414       9.16463721       7.40823017       54       0.00016365      -0.00009990       0.00011659
I       11.96459907       4.32923085       6.74520354       55      -0.00018359      -0.00035046      -0.00006969
I        8.18792479      11.29340413      11.11582796       56      -0.00033258      -0.00001034       0.00031398
I       -1.29742180       3.82595173       7.27633738       57       0.00037951      -0.00018967      -0.00016648
I       13.81172918      10.35968279       8.60439705       58      -0.00001785      -0.00004490       0.00019369
I       11.87826733       6.64954006      10.89591237       59      -0.00014703       0.00022063       0.00026290
Cs      14.21399396       2.01541925       4.10533306       60      -0.00004914      -0.00016525       0.00009227
Cs       6.73972417      16.09886129       5.68330180       61      -0.00021746      -0.00009329      -0.00006585
Cs      11.84821254      12.64059271      11.26220453       62       0.00020291       0.00022873      -0.00034976
Cs      -2.89165396      15.91571660      11.29002686       63       0.00042286      -0.00032383      -0.00018890
Pb       7.31172621      10.80045042      14.23891481       64      -0.00030075      -0.00013585       0.00006375
Pb       9.88768026      16.90997625       2.38855667       65      -0.00051458       0.00035414       0.00015906
Pb       7.73338189      11.38575718       7.93197653       66      -0.00018928      -0.00017338      -0.00054896
Pb      10.82287431      16.80175236       8.69601878       67       0.00053940       0.00031061      -0.00034704
I        7.85145456      19.31586394       3.45172709       68       0.00006876      -0.00044728       0.00027297
I       11.13059941      14.10501502       2.42537344       69       0.00024607      -0.00002203       0.00003116
I       -1.45636471      11.14410643       4.37386724       70      -0.00004552       0.00006461       0.00003495
I       -2.20355618      12.93065670      13.71158482       71      -0.00056522      -0.00045925      -0.00021830
I       11.41977113      19.66362573      14.80638498       72      -0.00055657      -0.00016155      -0.00024367
I       11.31114425      17.45163256       5.67394789       73      -0.00007869       0.00019499       0.00003318
I        7.67790428      18.72502940       8.44271267       74      -0.00014317       0.00020554       0.00018368
I        9.86548897      13.88956779       7.77968703       75       0.00013332       0.00019465       0.00000126
I       10.28688346       1.73283171      10.08158835       76      -0.00023270       0.00009784      -0.00062321
I       -3.39637570      13.38646535       8.31076389       77       0.00008193      -0.00015851       0.00003591
I       11.71268262      19.92026542       9.63909772       78       0.00008118      -0.00034220      -0.00004538
I        9.77924674      16.21005963      11.93047126       79      -0.00004215       0.00022730      -0.00003968
