80
Lattice="20.37087074266562 0.0 0.0 -7.845095088714588 19.439943568091536 0.0 -1.2602488989738818 -2.606173207244403 10.395491808851338" Properties=species:S:1:pos:R:3 pbc="T T T"
Cs       2.68746432       9.83755753       2.59887281
Cs       0.11289560       4.97815383       2.59887281
Cs       5.92605795       0.32752567       7.79661871
Cs       8.50085580       5.18809375       7.79661871
Pb       1.80541345       1.52605422      -0.00001007
Pb       3.13144391       4.85998589       0.00000000
Pb       1.17528900       0.22296762       5.19775569
Pb       4.30680178       5.08265375       5.19777200
I        0.98279341       8.21053215       0.43168208
I        4.09475215       3.35049953       0.43223189
I       10.77607529       0.96635120       2.59887281
I        7.63079188       1.95512773       9.96303614
I        4.51885091       6.81506689       9.96358595
I        5.44751756       5.82574102       2.59887281
I        0.45742867       7.12408683       4.76606353
I        3.56938740       2.26405420       4.76551372
I       -2.16264660       9.19991239       7.79661871
I        8.15615662       3.04157305       5.63020128
I        5.04421566       7.90151221       5.62965147
I        3.16597042       4.33933042       7.79661871
Cs      -1.23508323      19.55752931       2.59887281
Cs      -3.80965195      14.69812561       2.59887281
Cs       2.00351040      10.04749745       7.79661871
Cs       4.57830825      14.90806554       7.79661871
Pb      -2.11713410      11.24602601      -0.00001007
Pb      -0.79110363      14.57995768       0.00000000
Pb      -2.74725855       9.94293940       5.19775569
Pb       0.38425423      14.80262553       5.19777200
I       -2.93975413      17.93050393       0.43168208
I        0.17220460      13.07047131       0.43223189
I        6.85352774      10.68632299       2.59887281
I        3.70824434      11.67509951       9.96303614
I        0.59630337      16.53503867       9.96358595
I        1.52497001      15.54571280       2.59887281
I       -3.46511888      16.84405861       4.76606353
I       -0.35316014      11.98402599       4.76551372
I       -6.08519414      18.91988417       7.79661871
I        4.23360908      12.76154483       5.63020128
I        1.12166811      17.62148400       5.62965147
I       -0.75657712      14.05930220       7.79661871
Cs      12.87289969       9.83755753       2.59887281
Cs      10.29833097       4.97815383       2.59887281
Cs      16.11149332       0.32752567       7.79661871
Cs      18.68629117       5.18809375       7.79661871
Pb      11.99084882       1.52605422      -0.00001007
Pb      13.31687928       4.85998589       0.00000000
Pb      11.36072437       0.22296762       5.19775569
Pb      14.49223715       5.08265375       5.19777200
I       11.16822879       8.21053215       0.43168208
I       14.28018752       3.35049953       0.43223189
I       20.96151066       0.96635120       2.59887281
I       17.81622725       1.95512773       9.96303614
I       14.70428628       6.81506689       9.96358595
I       15.63295293       5.82574102       2.59887281
I       10.64286404       7.12408683       4.76606353
I       13.75482277       2.26405420       4.76551372
I        8.02278877       9.19991239       7.79661871
I       18.34159200       3.04157305       5.63020128
I       15.22965103       7.90151221       5.62965147
I       13.35140579       4.33933042       7.79661871
Cs       8.95035215      19.55752931       2.59887281
Cs       6.37578343      14.69812561       2.59887281
Cs      12.18894577      10.04749745       7.79661871
Cs      14.76374362      14.90806554       7.79661871
Pb       8.06830128      11.24602601      -0.00001007
Pb       9.39433174      14.57995768       0.00000000
Pb       7.43817683       9.94293940       5.19775569
Pb      10.56968961      14.80262553       5.19777200
I        7.24568124      17.93050393       0.43168208
I       10.35763997      13.07047131       0.43223189
I       17.03896311      10.68632299       2.59887281
I       13.89367971      11.67509951       9.96303614
I       10.78173874      16.53503867       9.96358595
I       11.71040539      15.54571280       2.59887281
I        6.72031650      16.84405861       4.76606353
I        9.83227523      11.98402599       4.76551372
I        4.10024123      18.91988417       7.79661871
I       14.41904445      12.76154483       5.63020128
I       11.30710348      17.62148400       5.62965147
I        9.42885825      14.05930220       7.79661871
