10
Lattice="8.523182979458772 0.0 0.0 4.261591489765273 7.381292981293819 0.0 4.261591489834156 2.460430993818154 6.959149952369036" Properties=species:S:1:pos:R:3 pbc="T T T"
Cs       4.26155904       2.46042126       1.73978864
Cs      12.78480683       7.38130246       5.21936115
K        8.52318300       4.92086189       3.47957494
In       0.00000010       0.00000023       0.00000009
I        6.56467071       3.14825297       4.78382736
I       10.48169533       6.69347064       2.17532249
I        9.16762203       2.74295165       1.61728769
I        7.87874363       7.09877193       5.34186212
I        6.24251423       6.23773080       1.61729448
I       10.80385203       3.60399362       5.34185571
