10
Lattice="9.174444722686447 -0.010078150614126178 0.011439520284624805 4.585147180583889 8.010800835938506 -0.024066040001194285 4.578828275526968 2.629695722761926 6.93212889671748" Properties=species:S:1:pos:R:3:spacegroup_kinds:I:1:forces:R:3 spacegroup="P 1" unit_cell=conventional occupancy="_JSON {\"0\": {\"Cs\": 1.0}, \"1\": {\"Cs\": 1.0}, \"2\": {\"K\": 1.0}, \"3\": {\"In\": 1.0}, \"4\": {\"I\": 1.0}, \"5\": {\"I\": 1.0}, \"6\": {\"I\": 1.0}, \"7\": {\"I\": 1.0}, \"8\": {\"I\": 1.0}, \"9\": {\"I\": 1.0}}" energy=-25.64893401500311 free_energy=-25.64893401500311 stress="-5.965242556846896e-06 -5.275219140237212e-06 4.601425156974552e-06 -5.275219140237212e-06 1.5820324715387385e-05 2.2396771616864147e-06 4.601425156974552e-06 2.2396771616864147e-06 -1.756660849056717e-05" pbc="T T T"
Cs       4.60445899       2.64679818       1.91730005        0      -0.00081265       0.00015578       0.00019346
Cs      13.73462125       7.98341185       5.00206318        1       0.00010865      -0.00014924      -0.00011302
K        9.16923843       5.31606034       3.45988367        2      -0.00012304      -0.00090325      -0.00013251
In       9.17443825      -0.01003510       0.01154421        3       0.00020752       0.00016097      -0.00025565
I        6.95733448       3.21199184       5.24201479        4       0.00001643      -0.00008009       0.00046089
I       11.38081298       7.41870757       1.67739981        5       0.00030954      -0.00023312      -0.00034144
I        9.87201771       2.29599802       1.75302091        6      -0.00050207      -0.00018378      -0.00020739
I        8.46634620       8.33419716       5.16684034        7       0.00046623       0.00052317       0.00014871
I        6.24853402       6.20511780       1.66769582        8      -0.00015837       0.00039704      -0.00017356
I       12.08953334       4.42455655       5.25143730        9       0.00048776       0.00031251       0.00042052
