40
Lattice="20.33690586033107 0.0 0.0 3.924103877819125 19.490611213008165 0.0 5.228612439209316 0.4914048006098319 6.07307487821528" Properties=species:S:1:pos:R:3 pbc="T T T"
Cs       4.33965014       2.55913915       1.51830832
Cs      13.01946701       7.67757018       4.55476584
K        8.67955853       5.11835443       3.03653695
In       0.00000025       0.00000062       0.00000028
I        8.10075721       0.84850159       2.81980561
I        9.25835974       9.38820688       3.25326835
I       12.82158511       2.59423702       3.16688406
I        4.53752950       7.64247188       2.90618904
I        5.89419769       6.01689604      -0.34432253
I       11.46491965       4.21981701       6.41739917
Cs       6.30170208      12.30444475       1.51830832
Cs      14.98151895      17.42287578       4.55476584
K       10.64161047      14.86366004       3.03653695
In       1.96205219       9.74530622       0.00000028
I       10.06280915      10.59380719       2.81980561
I       11.22041168      19.13351249       3.25326835
I       14.78363705      12.33954262       3.16688406
I        6.49958144      17.38777749       2.90618904
I        7.85624962      15.76220164      -0.34432253
I       13.42697159      13.96512261       6.41739917
Cs      14.50810307       2.55913915       1.51830832
Cs      23.18791994       7.67757018       4.55476584
K       18.84801146       5.11835443       3.03653695
In      10.16845318       0.00000062       0.00000028
I       18.26921014       0.84850159       2.81980561
I       19.42681267       9.38820688       3.25326835
I       22.99003804       2.59423702       3.16688406
I       14.70598243       7.64247188       2.90618904
I       16.06265062       6.01689604      -0.34432253
I       21.63337258       4.21981701       6.41739917
Cs      16.47015501      12.30444475       1.51830832
Cs      25.14997188      17.42287578       4.55476584
K       20.81006340      14.86366004       3.03653695
In      12.13050512       9.74530622       0.00000028
I       20.23126208      10.59380719       2.81980561
I       21.38886461      19.13351249       3.25326835
I       24.95208998      12.33954262       3.16688406
I       16.66803437      17.38777749       2.90618904
I       18.02470256      15.76220164      -0.34432253
I       23.59542452      13.96512261       6.41739917
