20
Lattice="21.874651882386274 -2.178879898263521 -0.691886952838742 -7.834545239311647 7.694693799989976 0.7779620428542999 0.952766271376021 7.21518609417983 7.393909633027874" Properties=species:S:1:pos:R:3:spacegroup_kinds:I:1:forces:R:3 spacegroup="P 1" unit_cell=conventional occupancy="_JSON {\"0\": {\"Cs\": 1.0}, \"1\": {\"Cs\": 1.0}, \"2\": {\"K\": 1.0}, \"3\": {\"In\": 1.0}, \"4\": {\"I\": 1.0}, \"5\": {\"I\": 1.0}, \"6\": {\"I\": 1.0}, \"7\": {\"I\": 1.0}, \"8\": {\"I\": 1.0}, \"9\": {\"I\": 1.0}, \"10\": {\"Cs\": 1.0}, \"11\": {\"Cs\": 1.0}, \"12\": {\"K\": 1.0}, \"13\": {\"In\": 1.0}, \"14\": {\"I\": 1.0}, \"15\": {\"I\": 1.0}, \"16\": {\"I\": 1.0}, \"17\": {\"I\": 1.0}, \"18\": {\"I\": 1.0}, \"19\": {\"I\": 1.0}}" energy=-51.5185072901219 free_energy=-51.5185072901219 stress="4.361206874745537e-06 2.9276778406719e-06 -4.5222619265379185e-06 2.9276778406719e-06 -9.758694265092882e-06 3.594252780471432e-06 -4.5222619265379185e-06 3.594252780471432e-06 -4.873130439291823e-06" pbc="T T T"
Cs       4.69230501       0.12911151       0.37465382        0      -0.00008184      -0.00060674      -0.00003297
Cs      -2.66432069      11.42937623       4.84952879        1       0.00004125       0.00032262       0.00010445
K       -0.47414281       2.95664700       2.88893790        2       0.00005963       0.00006171       0.00000323
In      20.99030539      -2.33871641      -0.99763811        3      -0.00032788       0.00007429       0.00051809
I       18.41426985       1.75153551       0.69357733        4      -0.00003750      -0.00024153       0.00019598
I        5.12875068      11.74740676       7.33396581        5      -0.00002868      -0.00016265       0.00013153
I        1.37620519       9.49294965       6.78088121        6       0.00005135      -0.00006891      -0.00052399
I        1.20438890       6.22598937       2.70934989        7       0.00015585       0.00042081       0.00019663
I        2.39045972       1.05414288       3.43967427        8       0.00032960       0.00016656       0.00008756
I        8.81131098       6.09593540       5.09894399        9      -0.00012007      -0.00036874       0.00000445
Cs      15.62888880      -0.96108213       0.02832242       10       0.00035314       0.00028322       0.00030901
Cs       8.27251305      10.34044083       4.50347754       11       0.00015926      -0.00000764      -0.00028834
K       10.46306014       1.86675057       2.54334892       12       0.00034373       0.00055726      -0.00007632
In      10.05234893      -1.24868237      -0.65135426       13       0.00001381      -0.00028468      -0.00052502
I        7.47692672       2.84059323       1.03965089       14       0.00019133       0.00027440      -0.00007310
I       16.06655141      10.65733080       6.98756248       15      -0.00010592       0.00005107       0.00000068
I       12.31314908       8.40381228       6.43432007       16      -0.00022408      -0.00004591       0.00033745
I       12.14330101       5.13612885       2.36355709       17      -0.00033037      -0.00003549      -0.00022817
I       13.32776233      -0.03535849       3.09392386       18      -0.00004116       0.00012042      -0.00030143
I       19.74903769       5.00666296       4.75299090       19      -0.00040144      -0.00051007       0.00016029
