80
Lattice="18.4435215845076 0.05979747681303033 0.08998620274713692 9.288911394211492 15.97426301423977 0.07168373714579422 9.286143496457191 5.357674127310681 13.934273445769486" Properties=species:S:1:pos:R:3:spacegroup_kinds:I:1:forces:R:3 spacegroup="P 1" unit_cell=conventional occupancy="_JSON {\"0\": {\"Cs\": 1.0}, \"1\": {\"Cs\": 1.0}, \"2\": {\"K\": 1.0}, \"3\": {\"In\": 1.0}, \"4\": {\"I\": 1.0}, \"5\": {\"I\": 1.0}, \"6\": {\"I\": 1.0}, \"7\": {\"I\": 1.0}, \"8\": {\"I\": 1.0}, \"9\": {\"I\": 1.0}, \"10\": {\"Cs\": 1.0}, \"11\": {\"Cs\": 1.0}, \"12\": {\"K\": 1.0}, \"13\": {\"In\": 1.0}, \"14\": {\"I\": 1.0}, \"15\": {\"I\": 1.0}, \"16\": {\"I\": 1.0}, \"17\": {\"I\": 1.0}, \"18\": {\"I\": 1.0}, \"19\": {\"I\": 1.0}, \"20\": {\"Cs\": 1.0}, \"21\": {\"Cs\": 1.0}, \"22\": {\"K\": 1.0}, \"23\": {\"In\": 1.0}, \"24\": {\"I\": 1.0}, \"25\": {\"I\": 1.0}, \"26\": {\"I\": 1.0}, \"27\": {\"I\": 1.0}, \"28\": {\"I\": 1.0}, \"29\": {\"I\": 1.0}, \"30\": {\"Cs\": 1.0}, \"31\": {\"Cs\": 1.0}, \"32\": {\"K\": 1.0}, \"33\": {\"In\": 1.0}, \"34\": {\"I\": 1.0}, \"35\": {\"I\": 1.0}, \"36\": {\"I\": 1.0}, \"37\": {\"I\": 1.0}, \"38\": {\"I\": 1.0}, \"39\": {\"I\": 1.0}, \"40\": {\"Cs\": 1.0}, \"41\": {\"Cs\": 1.0}, \"42\": {\"K\": 1.0}, \"43\": {\"In\": 1.0}, \"44\": {\"I\": 1.0}, \"45\": {\"I\": 1.0}, \"46\": {\"I\": 1.0}, \"47\": {\"I\": 1.0}, \"48\": {\"I\": 1.0}, \"49\": {\"I\": 1.0}, \"50\": {\"Cs\": 1.0}, \"51\": {\"Cs\": 1.0}, \"52\": {\"K\": 1.0}, \"53\": {\"In\": 1.0}, \"54\": {\"I\": 1.0}, \"55\": {\"I\": 1.0}, \"56\": {\"I\": 1.0}, \"57\": {\"I\": 1.0}, \"58\": {\"I\": 1.0}, \"59\": {\"I\": 1.0}, \"60\": {\"Cs\": 1.0}, \"61\": {\"Cs\": 1.0}, \"62\": {\"K\": 1.0}, \"63\": {\"In\": 1.0}, \"64\": {\"I\": 1.0}, \"65\": {\"I\": 1.0}, \"66\": {\"I\": 1.0}, \"67\": {\"I\": 1.0}, \"68\": {\"I\": 1.0}, \"69\": {\"I\": 1.0}, \"70\": {\"Cs\": 1.0}, \"71\": {\"Cs\": 1.0}, \"72\": {\"K\": 1.0}, \"73\": {\"In\": 1.0}, \"74\": {\"I\": 1.0}, \"75\": {\"I\": 1.0}, \"76\": {\"I\": 1.0}, \"77\": {\"I\": 1.0}, \"78\": {\"I\": 1.0}, \"79\": {\"I\": 1.0}}" energy=-205.1915706746926 free_energy=-205.1915706746926 stress="-8.68272298812383e-07 -4.6076427273939866e-07 5.078977928744129e-08 -4.6076427273939866e-07 4.240818864298618e-07 -7.899541546895529e-07 5.078977928744129e-08 -7.899541546895529e-07 -1.0672721189002263e-09" pbc="T T T"
Cs       4.63153197       2.69201734       1.95110623        0      -0.00020454       0.00001737       0.00000667
Cs      13.87865832       8.00364821       5.09623063        1       0.00005952      -0.00013612      -0.00007836
K        9.25427336       5.34743953       3.52429235        2       0.00012675       0.00029480       0.00004359
In      18.44376089       0.05962125       0.09047711        3      -0.00050365      -0.00012042      -0.00028027
I        6.99215324       3.23151856       5.23127231        4       0.00010149       0.00045884       0.00015917
I       11.51664022       7.46278028       1.81632388        5       0.00060363      -0.00049218      -0.00022664
I        9.95055651       2.36786427       1.74441867        6      -0.00053623      -0.00007613      -0.00004327
I        8.55858092       8.32750931       5.30419328        7       0.00048406       0.00000736       0.00006470
I        6.33486438       6.21426413       1.72656896        8       0.00005365      -0.00023085      -0.00025890
I       12.17416834       4.48270241       5.32259295        9       0.00005675      -0.00027050       0.00038475
Cs       9.27459498       5.37048471       8.91951780       10      -0.00038961       0.00001397      -0.00005719
Cs      18.52129854      10.68263000      12.06286267       11       0.00030658      -0.00027155       0.00013696
K       13.89744860       8.02657432      10.49113495       12      -0.00013504       0.00001456       0.00006719
In      23.08672088       2.73854361       7.05671644       13       0.00011961      -0.00022203       0.00037732
I       11.63534885       5.91078841      12.19937322       14       0.00034614       0.00011743      -0.00011581
I       16.16025624      10.14148665       8.78333283       15       0.00045318      -0.00016863      -0.00048802
I       14.59220538       5.04593648       8.71218590       16      -0.00028708       0.00032146       0.00008886
I       13.20313435      11.00649597      12.27134349       17       0.00012024      -0.00010702      -0.00010312
I       10.97773838       8.89274569       8.69314480       18       0.00012476      -0.00020509      -0.00038093
I       16.81669828       7.16121457      12.29052171       19      -0.00007921       0.00006481       0.00006243
Cs       9.27491463      10.67892963       1.98666214       20      -0.00038899       0.00016692       0.00002296
Cs      18.52394796      15.99053487       5.13298273       21       0.00021774      -0.00038117      -0.00009260
K       13.89887466      13.33492199       3.55973658       22      -0.00014008      -0.00008028      -0.00000346
In      23.08764410       8.04682733       0.12591753       23      -0.00044883      -0.00000591       0.00028398
I       11.63596236      11.21893189       5.26680474       24       0.00028224      -0.00015623       0.00014325
I       16.16259689      15.45001858       1.85309025       25       0.00013260       0.00000966      -0.00017755
I       14.59361969      10.35454386       1.78081345       26      -0.00012368      -0.00006115       0.00000887
I       13.20466967      16.31426328       5.34030230       27      -0.00013876       0.00015301       0.00016334
I       10.97944608      14.20060103       1.76227376       28       0.00025547      -0.00012000      -0.00005444
I       16.81765178      12.46962516       5.35869743       29      -0.00009104       0.00008677      -0.00001461
Cs      13.91914524      13.35865546       8.95437146       30      -0.00014781       0.00004862      -0.00005312
Cs      23.16609171      18.66898954      12.09833717       31       0.00003019      -0.00018984       0.00027221
K       18.54186375      16.01344463      10.52708582       32       0.00014222       0.00027605       0.00020587
In      27.73063258      10.72565746       7.09231003       33       0.00034346       0.00001651       0.00044288
I       16.27934179      13.89887005      12.23526740       34       0.00044297      -0.00008479      -0.00006835
I       20.80460477      18.12749391       8.81813466       35       0.00016870       0.00011711      -0.00016526
I       19.23683572      13.03383413       8.74689562       36      -0.00025004      -0.00016670       0.00004197
I       17.84718211      18.99332988      12.30769301       37       0.00032128       0.00038636      -0.00012136
I       15.62329561      16.88033400       8.72911164       38      -0.00025956      -0.00006474      -0.00024016
I       21.46064787      15.14868923      12.32662832       39       0.00002808      -0.00018230      -0.00023267
Cs      13.85335327       2.72274541       1.99674319       40       0.00005868      -0.00041494      -0.00005830
Cs      23.09893058       8.03331845       5.14199114       41      -0.00013521       0.00026745      -0.00007690
K       18.47682012       5.37788390       3.56850855       42      -0.00023203      -0.00000705      -0.00003958
In       9.22212332       0.02996936       0.04557897       43       0.00024570       0.00018394      -0.00033955
I       16.21458834       3.26409326       5.27741557       44      -0.00053456      -0.00030514       0.00049841
I       20.73839730       7.49304364       1.86080731       45      -0.00010899       0.00027771      -0.00018426
I       19.17152033       2.39777457       1.78909530       46       0.00017952      -0.00004643       0.00009833
I       17.78178466       8.35811821       5.34804195       47      -0.00018563       0.00012816       0.00032643
I       15.55692874       6.24306399       1.77021397       48       0.00042371       0.00038297       0.00040721
I       21.39583871       4.51141466       5.36658456       49      -0.00010201       0.00001113      -0.00028373
Cs      18.49532250       5.40146689       8.96467216       50       0.00018586      -0.00019098      -0.00015937
Cs      27.74316965      10.71301006      12.10738403       51      -0.00012562       0.00017182       0.00019132
K       23.11990764       8.05654730      10.53595050       52       0.00003580       0.00024571       0.00008580
In      13.86507787       2.70872926       7.01197824       53       0.00022709       0.00036435      -0.00073184
I       20.85688533       5.94189247      12.24383531       54      -0.00026205      -0.00024761       0.00013545
I       25.38171893      10.17291123       8.82796554       55      -0.00035828       0.00012214       0.00020336
I       23.81397487       5.07721280       8.75511223       56       0.00059965      -0.00009350      -0.00003024
I       22.42510644      11.03724863      12.31564683       57      -0.00056557      -0.00027784      -0.00023465
I       20.20050835       8.92224066       8.73686407       58      -0.00007466       0.00025748      -0.00002992
I       26.03927597       7.19105187      12.33466361       59      -0.00002209      -0.00014738      -0.00018558
Cs      18.49663871      10.71020552       2.03168988       60       0.00022815      -0.00010977      -0.00000076
Cs      27.74468985      16.02088952       5.17808913       61      -0.00013730      -0.00002249      -0.00017528
K       23.12125743      13.36474548       3.60488588       62      -0.00000231       0.00022798      -0.00007554
In      13.86588504       8.01688221       0.08129774       63       0.00006198       0.00062302      -0.00008466
I       20.85745294      11.25064331       5.31202123       64       0.00024959      -0.00014814       0.00010688
I       25.38372354      15.48029600       1.89719873       65      -0.00044066       0.00016248       0.00016046
I       23.81430661      10.38518999       1.82461918       66       0.00055320       0.00010258       0.00012220
I       22.42760120      16.34581554       5.38333694       67      -0.00035428      -0.00020716       0.00017211
I       20.20248072      14.23075707       1.80635044       68      -0.00001370      -0.00008730      -0.00002000
I       26.04037615      12.49902389       5.40217750       69      -0.00016530       0.00041744      -0.00004258
Cs      23.13962081      13.38936797       9.00100402       70       0.00007337      -0.00039773      -0.00015734
Cs      32.38750101      18.69890821      12.14397018       71      -0.00007077       0.00034935       0.00016806
K       27.76426924      16.04390447      10.57157214       72      -0.00011883      -0.00006832       0.00003978
In      18.50899433      10.69582120       7.04748151       73       0.00012901      -0.00008370       0.00048120
I       25.50116775      13.92992121      12.28044243       74      -0.00013066      -0.00009215       0.00003616
I       30.02676719      18.15925199       8.86394889       75      -0.00039833       0.00000596      -0.00000481
I       28.45923055      13.06431939       8.79060992       76      -0.00026322      -0.00012195       0.00006209
I       27.06923370      19.02381632      12.35247454       77       0.00010880      -0.00003342      -0.00008661
I       24.84494485      16.90915576       8.77307124       78       0.00033226       0.00014372       0.00003281
I       30.68301414      15.17768427      12.36976929       79      -0.00008741      -0.00012036      -0.00004743
