20
Lattice="33.7178551947327 -6.877361129489992 -3.675888445162891 11.722598756897849 3.4551906035246756 -1.2221370094784423 11.039850849638645 -2.9525622766381527 4.501253066192413" Properties=species:S:1:pos:R:3:spacegroup_kinds:I:1:forces:R:3 spacegroup="P 1" unit_cell=conventional occupancy="_JSON {\"0\": {\"Cs\": 1.0}, \"1\": {\"Cs\": 1.0}, \"2\": {\"K\": 1.0}, \"3\": {\"In\": 1.0}, \"4\": {\"I\": 1.0}, \"5\": {\"I\": 1.0}, \"6\": {\"I\": 1.0}, \"7\": {\"I\": 1.0}, \"8\": {\"I\": 1.0}, \"9\": {\"I\": 1.0}, \"10\": {\"Cs\": 1.0}, \"11\": {\"Cs\": 1.0}, \"12\": {\"K\": 1.0}, \"13\": {\"In\": 1.0}, \"14\": {\"I\": 1.0}, \"15\": {\"I\": 1.0}, \"16\": {\"I\": 1.0}, \"17\": {\"I\": 1.0}, \"18\": {\"I\": 1.0}, \"19\": {\"I\": 1.0}}" energy=-51.55156268603369 free_energy=-51.55156268603369 stress="7.367797035539287e-07 2.564603533634691e-07 1.8176493345447072e-07 2.564603533634691e-07 3.976416882079576e-07 6.188632709733049e-07 1.8176493345447072e-07 6.188632709733049e-07 1.3915899195347066e-06" pbc="T T T"
Cs      12.37462784      -1.53457771      -0.24126362        0      -0.00020890       0.00001905      -0.00010505
Cs      27.24687095      -1.40165520       1.68262633        1      -0.00011065       0.00013932      -0.00007223
K       19.81061040      -1.46794536       0.72060146        2       0.00007079      -0.00012258      -0.00001780
In      33.71796467      -6.87721595      -3.67597685        3      -0.00043789      -0.00048309       0.00026975
I       30.68066964      -1.36136979      -1.43801980        4       0.00006917       0.00031445      -0.00019303
I       42.65851590      -8.45218481      -0.79669908        5       0.00012602       0.00021820       0.00006112
I       23.37751983      -1.24937177       0.93642410        6      -0.00009605       0.00004177      -0.00007209
I       16.24387109      -1.68690376       0.50479017        7       0.00018670       0.00015804       0.00010818
I       29.94451825      -4.40823903       1.75824534        8       0.00006140      -0.00050385       0.00034027
I        9.67665295       1.47246858      -0.31731358        9       0.00023218       0.00027179       0.00006677
Cs      29.23336479      -4.97315386      -2.07919864       10       0.00008871      -0.00008305      -0.00007928
Cs      44.10562970      -4.84016962      -0.15526707       11       0.00014678      -0.00013529      -0.00025020
K       36.66982183      -4.90672860      -1.11736650       12      -0.00033058      -0.00002161      -0.00016100
In      16.85896471      -3.43872336      -1.83798965       13       0.00015998       0.00031299      -0.00003320
I       13.82160648       2.07740151       0.39993467       14       0.00028432       0.00003463       0.00008420
I       25.79955533      -5.01341756       1.04145151       15      -0.00006306       0.00000862      -0.00037236
I       40.23638213      -4.68798986      -0.90167916       16       0.00011993       0.00013837       0.00012389
I       33.10285465      -5.12549518      -1.33300416       17       0.00018769       0.00003966      -0.00045770
I       46.80388259      -7.84736672      -0.07980720       18      -0.00026990       0.00011389       0.00047002
I       26.53563531      -1.96600430      -2.15527680       19      -0.00021664      -0.00046132       0.00028975
