80
Lattice="21.40307603067721 0.0 0.0 -10.741436762938482 11.555221072453689 0.0 -2.152176893801572 3.325863422697945 14.226373032526796" Properties=species:S:1:pos:R:3 pbc="T T T"
Cs       4.26876365       2.52321729       0.02260137
Cs      -2.15789061       6.10142892       7.09048811
K       -0.53804422       0.83146586       3.55659326
In      -1.07193563       0.59206402       0.00004241
I       -2.67742642       2.44605315       1.42294852
I        4.78828827       6.17867172       5.69026075
I       -0.51708776       3.43068079       5.69028145
I        2.62794590       5.19390899       1.42296922
I       -3.85200146       6.68939647       1.42294843
I        5.96288686       1.93525206       5.69026066
Cs       3.19267520       4.18614900       7.13578789
Cs      -3.23397906       7.76436064      14.20367462
K       -1.61413267       2.49439757      10.66977977
In      -2.14802407       2.25499573       7.11322892
I       -3.75351487       4.10898486       8.53613503
I        3.71219982       7.84160343      12.80344726
I       -1.59317621       5.09361250      12.80346797
I        1.55185745       6.85684070       8.53615574
I       -4.92808991       8.35232819       8.53613494
I        4.88679842       3.59818377      12.80344717
Cs      -1.10195473       8.30082782       0.02260137
Cs      -7.52860899      11.87903946       7.09048811
K       -5.90876260       6.60907639       3.55659326
In      -6.44265401       6.36967456       0.00004241
I       -8.04814480       8.22366368       1.42294852
I       -0.58243011      11.95628225       5.69026075
I       -5.88780614       9.20829133       5.69028145
I       -2.74277248      10.97151952       1.42296922
I       -9.22271984      12.46700701       1.42294843
I        0.59216848       7.71286260       5.69026066
Cs      -2.17804318       9.96375954       7.13578789
Cs      -8.60469744      13.54197117      14.20367462
K       -6.98485105       8.27200810      10.66977977
In      -7.51874245       8.03260627       7.11322892
I       -9.12423325       9.88659539       8.53613503
I       -1.65851856      13.61921396      12.80344726
I       -6.96389459      10.87122304      12.80346797
I       -3.81886093      12.63445123       8.53615574
I      -10.29880829      14.12993872       8.53613494
I       -0.48391996       9.37579431      12.80344717
Cs      14.97030167       2.52321729       0.02260137
Cs       8.54364741       6.10142892       7.09048811
K       10.16349379       0.83146586       3.55659326
In       9.62960239       0.59206402       0.00004241
I        8.02411160       2.44605315       1.42294852
I       15.48982629       6.17867172       5.69026075
I       10.18445026       3.43068079       5.69028145
I       13.32948392       5.19390899       1.42296922
I        6.84953656       6.68939647       1.42294843
I       16.66442488       1.93525206       5.69026066
Cs      13.89421322       4.18614900       7.13578789
Cs       7.46755896       7.76436064      14.20367462
K        9.08740534       2.49439757      10.66977977
In       8.55351394       2.25499573       7.11322892
I        6.94802315       4.10898486       8.53613503
I       14.41373784       7.84160343      12.80344726
I        9.10836181       5.09361250      12.80346797
I       12.25339547       6.85684070       8.53615574
I        5.77344811       8.35232819       8.53613494
I       15.58833643       3.59818377      12.80344717
Cs       9.59958328       8.30082782       0.02260137
Cs       3.17292902      11.87903946       7.09048811
K        4.79277541       6.60907639       3.55659326
In       4.25888401       6.36967456       0.00004241
I        2.65339322       8.22366368       1.42294852
I       10.11910791      11.95628225       5.69026075
I        4.81373187       9.20829133       5.69028145
I        7.95876554      10.97151952       1.42296922
I        1.47881817      12.46700701       1.42294843
I       11.29370650       7.71286260       5.69026066
Cs       8.52349484       9.96375954       7.13578789
Cs       2.09684058      13.54197117      14.20367462
K        3.71668696       8.27200810      10.66977977
In       3.18279556       8.03260627       7.11322892
I        1.57730477       9.88659539       8.53613503
I        9.04301946      13.61921396      12.80344726
I        3.73764343      10.87122304      12.80346797
I        6.88267709      12.63445123       8.53615574
I        0.40272973      14.12993872       8.53613494
I       10.21761805       9.37579431      12.80344717
