20
Lattice="18.436558596030775 0.04934918447604938 0.09013644633496401 4.645352313174063 7.987123588563452 0.03659709064955495 4.639446574727706 2.6702354457011195 6.967889646583056" Properties=species:S:1:pos:R:3:spacegroup_kinds:I:1:forces:R:3 spacegroup="P 1" unit_cell=conventional occupancy="_JSON {\"0\": {\"Cs\": 1.0}, \"1\": {\"Cs\": 1.0}, \"2\": {\"K\": 1.0}, \"3\": {\"In\": 1.0}, \"4\": {\"I\": 1.0}, \"5\": {\"I\": 1.0}, \"6\": {\"I\": 1.0}, \"7\": {\"I\": 1.0}, \"8\": {\"I\": 1.0}, \"9\": {\"I\": 1.0}, \"10\": {\"Cs\": 1.0}, \"11\": {\"Cs\": 1.0}, \"12\": {\"K\": 1.0}, \"13\": {\"In\": 1.0}, \"14\": {\"I\": 1.0}, \"15\": {\"I\": 1.0}, \"16\": {\"I\": 1.0}, \"17\": {\"I\": 1.0}, \"18\": {\"I\": 1.0}, \"19\": {\"I\": 1.0}}" energy=-51.2978904030921 free_energy=-51.2978904030921 stress="-1.4768552674746477e-06 8.808487278654621e-07 -2.5670290915259693e-06 8.808487278654621e-07 -7.394579804971622e-08 -1.2849524544329414e-07 -2.5670290915259693e-06 -1.2849524544329414e-07 2.8240780962009954e-06" pbc="T T T"
Cs       4.63097455       2.68707280       1.95192180        0      -0.00022871       0.00013280       0.00014554
Cs      13.87253000       7.99492203       5.09718666        1      -0.00021861       0.00004309       0.00003643
K        9.25145714       5.34079345       3.52459255        2      -0.00003901       0.00026101       0.00013539
In      18.43640449       0.04939368       0.09016093        3       0.00001123      -0.00007317      -0.00000687
I        6.98993233       3.22753122       5.23589204        4       0.00025517      -0.00019665      -0.00042626
I       11.51299844       7.45493647       1.81422661        5       0.00009904      -0.00009575      -0.00011827
I        9.94520063       2.35832005       1.74961688        6       0.00008819       0.00004734      -0.00022547
I        8.55770407       8.32350300       5.30042761        7       0.00005059      -0.00007174      -0.00012055
I        6.33445264       6.20922276       1.72401295        8      -0.00009298      -0.00010577       0.00033363
I       12.16875798       4.47285083       5.32509483        9       0.00010119      -0.00017042       0.00022039
Cs      13.84924491       2.71174065       1.99698979       10      -0.00018827       0.00012204       0.00014610
Cs      23.09080375       8.01959143       5.14225602       11      -0.00020788       0.00005514       0.00003518
K       18.46970736       5.36545190       3.56966283       12       0.00007180       0.00027501       0.00011708
In       9.21808129       0.02469081       0.04510849       13       0.00026877       0.00005322      -0.00011563
I       16.20827005       3.25223278       5.28093135       14      -0.00004287      -0.00028975      -0.00022167
I       20.73130878       7.47963247       1.85928075       15       0.00002775      -0.00015358      -0.00007223
I       19.16344585       2.38296714       1.79466950       16       0.00019185       0.00020991      -0.00011647
I       17.77596158       8.34815792       5.34548430       17       0.00009924       0.00002446      -0.00005729
I       15.55275800       6.23387945       1.76910401       18      -0.00022731       0.00000055       0.00021869
I       21.38706156       4.49750583       5.37019311       19      -0.00001919      -0.00006773       0.00009228
