40
Lattice="16.77547688282905 0.0 0.0 -14.90413602245325 13.292673705208202 0.0 0.0 -2.6128304338716397 7.731322845134075" Properties=species:S:1:pos:R:3 pbc="T T T"
Cs       5.84904870      -2.19009276       7.72394951
Cs       0.56911321       2.63327187       0.00715949
K        0.00000000      -1.30641522       3.86566142
In       2.74127536      -1.79517947       0.00003940
I        8.92724295      -2.31323519       1.54650515
I       -2.50910092       2.75633221       6.18480232
I        2.99213778      -0.57727815       1.54653932
I        3.42608827       1.02048909       6.18483649
I        5.62778941       2.58339338       1.54652513
I        0.79037633      -2.14019576       6.18482230
Cs      -1.60301931       4.45624410       7.72394951
Cs      -6.88295480       9.27960873       0.00715949
K       -7.45206801       5.33992164       3.86566142
In      -4.71079265       4.85115738       0.00003940
I        1.47517494       4.33310166       1.54650515
I       -9.96116893       9.40266906       6.18480232
I       -4.45993023       6.06905870       1.54653932
I       -4.02597974       7.66682594       6.18483649
I       -1.82427861       9.22973024       1.54652513
I       -6.66169168       4.50614109       6.18482230
Cs      14.23678714      -2.19009276       7.72394951
Cs       8.95685166       2.63327187       0.00715949
K        8.38773844      -1.30641522       3.86566142
In      11.12901380      -1.79517947       0.00003940
I       17.31498139      -2.31323519       1.54650515
I        5.87863752       2.75633221       6.18480232
I       11.37987622      -0.57727815       1.54653932
I       11.81382671       1.02048909       6.18483649
I       14.01552785       2.58339338       1.54652513
I        9.17811478      -2.14019576       6.18482230
Cs       6.78471913       4.45624410       7.72394951
Cs       1.50478364       9.27960873       0.00715949
K        0.93567043       5.33992164       3.86566142
In       3.67694579       4.85115738       0.00003940
I        9.86291338       4.33310166       1.54650515
I       -1.57343049       9.40266906       6.18480232
I        3.92780821       6.06905870       1.54653932
I        4.36175870       7.66682594       6.18483649
I        6.56345984       9.22973024       1.54652513
I        1.72604676       4.50614109       6.18482230
