10
Lattice="9.558221143562326 -0.5650745919292639 -0.15723146158750861 -5.248557778231926 8.699345412522973 -0.558777397662158 -0.42668601721490235 1.69342856199017 8.920854324334838" Properties=species:S:1:pos:R:3:spacegroup_kinds:I:1:forces:R:3 spacegroup="P 1" unit_cell=conventional occupancy="_JSON {\"0\": {\"Cs\": 1.0}, \"1\": {\"Cs\": 1.0}, \"2\": {\"K\": 1.0}, \"3\": {\"In\": 1.0}, \"4\": {\"I\": 1.0}, \"5\": {\"I\": 1.0}, \"6\": {\"I\": 1.0}, \"7\": {\"I\": 1.0}, \"8\": {\"I\": 1.0}, \"9\": {\"I\": 1.0}}" energy=-25.278014967829208 free_energy=-25.278014967829208 stress="5.80402717837639e-06 -9.935343143967543e-06 6.656874181043551e-06 -9.935343143967543e-06 5.55101425904299e-06 -1.1804165184459492e-06 6.656874181043551e-06 -1.1804165184459492e-06 2.4577553662056012e-06" pbc="T T T"
Cs       1.52263136       8.47250380       8.34810103        0       0.00021812      -0.00003742       0.00004077
Cs       5.90036404       5.07269476       8.45877923        1       0.00042060       0.00020959       0.00006917
K        0.05762293       1.02815589       4.42484632        2      -0.00035466      -0.00005920      -0.00002627
In       2.01753799       1.01622067      -0.11345313        3      -0.00004988       0.00012617      -0.00008230
I        2.64972915       3.22668453       1.42233295        4       0.00017939       0.00028108       0.00013237
I       -5.77918664       7.29673158       6.11701264        5      -0.00036351      -0.00075821      -0.00029756
I        3.60756640       1.86082483       7.12188043        6       0.00016385      -0.00005537       0.00003757
I        6.94693110       1.00556252       2.27888308        7      -0.00031179      -0.00010339      -0.00015793
I       -3.82737539       7.70226723       1.16272269        8       0.00002884       0.00008897       0.00002680
I        8.98288777       2.78075850       7.01238256        9       0.00006905       0.00030777       0.00025739
