20
Lattice="16.737196271945454 0.0 0.0 -7.233847085815736 4.2077180395603255 0.0 0.0 0.0 7.945912994650824" Properties=species:S:1:pos:R:3 pbc="T T T"
Cs       6.07743263       1.41621138       7.93834647
Cs       0.87661756       2.81878406       0.00736967
K        2.90965851       0.01362603       3.97296097
In       2.90968004       0.01363491       0.00005529
I        9.08167165       0.01652234       1.58945863
I       -2.12763912       4.21839127       6.35649610
I        3.21266458       1.11556462       1.58947838
I        3.74145322       3.11947752       6.35651586
I        5.93798629       3.11654261       1.58945068
I        1.01606321       1.11847881       6.35648815
Cs      14.44603077       1.41621138       7.93834647
Cs       9.24521570       2.81878406       0.00736967
K       11.27825664       0.01362603       3.97296097
In      11.27827817       0.01363491       0.00005529
I       17.45026979       0.01652234       1.58945863
I        6.24095901       4.21839127       6.35649610
I       11.58126272       1.11556462       1.58947838
I       12.11005136       3.11947752       6.35651586
I       14.30658442       3.11654261       1.58945068
I        9.38466135       1.11847881       6.35648815
