40
Lattice="17.667040509275754 0.0 0.0 -4.400643351623829 15.186508191509912 0.0 -1.083121316398389 3.002432053736098 7.756283498239212" Properties=species:S:1:pos:R:3 pbc="T T T"
Cs       5.35575259       5.53670544       7.74895025
Cs       2.75889062       5.07100186       0.00724649
K        0.74072625       1.50722102       3.87814372
In       1.28229640       0.00600891       0.00002436
I        7.58431941       0.61185302       1.55151497
I        0.53031602       9.99581822       6.20478692
I        2.80885749       2.59509867       1.55152367
I        5.30581552       8.01262922       6.20479563
I        8.27042458       6.20608060       1.55151146
I       -0.15578167       4.40163815       6.20478342
Cs       3.15543092      13.12995954       7.74895025
Cs       0.55856895      12.66425595       0.00724649
K       -1.45959542       9.10047512       3.87814372
In      -0.91802527       7.59926300       0.00002436
I        5.38399773       8.20510712       1.55151497
I       -1.67000566      17.58907231       6.20478692
I        0.60853582      10.18835276       1.55152367
I        3.10549384      15.60588331       6.20479563
I        6.07010290      13.79933469       1.55151146
I       -2.35610334      11.99489225       6.20478342
Cs      14.18927285       5.53670544       7.74895025
Cs      11.59241088       5.07100186       0.00724649
K        9.57424651       1.50722102       3.87814372
In      10.11581666       0.00600891       0.00002436
I       16.41783966       0.61185302       1.55151497
I        9.36383627       9.99581822       6.20478692
I       11.64237775       2.59509867       1.55152367
I       14.13933577       8.01262922       6.20479563
I       17.10394483       6.20608060       1.55151146
I        8.67773859       4.40163815       6.20478342
Cs      11.98895117      13.12995954       7.74895025
Cs       9.39208920      12.66425595       0.00724649
K        7.37392483       9.10047512       3.87814372
In       7.91549498       7.59926300       0.00002436
I       14.21751799       8.20510712       1.55151497
I        7.16351460      17.58907231       6.20478692
I        9.44205607      10.18835276       1.55152367
I       11.93901409      15.60588331       6.20479563
I       14.90362315      13.79933469       1.55151146
I        6.47741691      11.99489225       6.20478342
