10
Lattice="9.03799609771951 -0.3215659108140045 1.7658213955425266 4.795488658172411 7.2616872314577305 0.6245004400612036 3.1944601586907013 2.998643717399885 8.088638169907693" Properties=species:S:1:pos:R:3:spacegroup_kinds:I:1:forces:R:3 spacegroup="P 1" unit_cell=conventional occupancy="_JSON {\"0\": {\"Cs\": 1.0}, \"1\": {\"Cs\": 1.0}, \"2\": {\"K\": 1.0}, \"3\": {\"In\": 1.0}, \"4\": {\"I\": 1.0}, \"5\": {\"I\": 1.0}, \"6\": {\"I\": 1.0}, \"7\": {\"I\": 1.0}, \"8\": {\"I\": 1.0}, \"9\": {\"I\": 1.0}}" energy=-25.648922453091092 free_energy=-25.648922453091092 stress="-8.006548304676146e-07 1.0743773620446106e-06 1.0643816835936576e-07 1.0743773620446106e-06 -4.902216374020471e-06 -2.4479189542732916e-06 1.0643816835936576e-07 -2.4479189542732916e-06 -1.2976861137137117e-06" pbc="T T T"
Cs       4.27410570       2.65607976       2.53901066        0      -0.00017401       0.00001374      -0.00019517
Cs      12.75424266       7.28235261       7.94017584        1      -0.00005026       0.00011195      -0.00002100
K        8.51387842       4.96982259       5.23940408        2       0.00009666      -0.00015682       0.00004750
In       9.03808255      -0.32130846       1.76580594        3      -0.00038951      -0.00031022       0.00011886
I        5.29261053       3.82189352       6.14551721        4      -0.00014484       0.00052000       0.00074579
I       11.73512968       6.11696750       4.33300875        5       0.00030853      -0.00021841      -0.00007652
I        9.51205501       2.14916142       3.35409375        6       0.00009484      -0.00009402      -0.00047482
I        7.51626530       7.78973849       7.12528594        7      -0.00041192      -0.00036851      -0.00017745
I        6.86496495       5.84975148       2.23530182        8       0.00040103       0.00002848      -0.00013927
I       10.16241315       4.08841712       8.24353732        9       0.00026947       0.00047382       0.00017207
