20
Lattice="21.08327987441017 0.0 0.0 4.718943419407851 7.28198994815985 0.0 1.5187001847443968 1.77098309497878 7.94907692917981" Properties=species:S:1:pos:R:3 pbc="T T T"
Cs       4.19472191       2.26321354       1.98727952
Cs      12.58456142       6.78975873       5.96179690
K        8.38964162       4.52648607       3.97453818
In       0.00000019       0.00000060       0.00000025
I        5.69650185       1.65984497       4.45671596
I       11.08278145       7.39312668       3.49236040
I       11.64442766       3.23226051       2.14025206
I        5.13485438       5.82071116       5.80882407
I        6.56052203       5.73806077       1.55433387
I       10.21876193       3.31491355       6.39474377
Cs      14.73636184       2.26321354       1.98727952
Cs      23.12620136       6.78975873       5.96179690
K       18.93128155       4.52648607       3.97453818
In      10.54164012       0.00000060       0.00000025
I       16.23814179       1.65984497       4.45671596
I       21.62442138       7.39312668       3.49236040
I       22.18606759       3.23226051       2.14025206
I       15.67649431       5.82071116       5.80882407
I       17.10216197       5.73806077       1.55433387
I       20.76040187       3.31491355       6.39474377
