20
Lattice="17.936701800499485 0.37991842675990434 3.909638019408802 4.215012876478768 7.492861276906943 1.4212904265760222 2.789649256701146 2.4160208247311488 8.45194226051114" Properties=species:S:1:pos:R:3:spacegroup_kinds:I:1:forces:R:3 spacegroup="P 1" unit_cell=conventional occupancy="_JSON {\"0\": {\"Cs\": 1.0}, \"1\": {\"Cs\": 1.0}, \"2\": {\"K\": 1.0}, \"3\": {\"In\": 1.0}, \"4\": {\"I\": 1.0}, \"5\": {\"I\": 1.0}, \"6\": {\"I\": 1.0}, \"7\": {\"I\": 1.0}, \"8\": {\"I\": 1.0}, \"9\": {\"I\": 1.0}, \"10\": {\"Cs\": 1.0}, \"11\": {\"Cs\": 1.0}, \"12\": {\"K\": 1.0}, \"13\": {\"In\": 1.0}, \"14\": {\"I\": 1.0}, \"15\": {\"I\": 1.0}, \"16\": {\"I\": 1.0}, \"17\": {\"I\": 1.0}, \"18\": {\"I\": 1.0}, \"19\": {\"I\": 1.0}}" energy=-51.29788999592383 free_energy=-51.29788999592383 stress="-4.6381346714231255e-07 4.570844186024817e-08 -1.8896061323506383e-08 4.570844186024817e-08 -2.9118500897034496e-06 2.801940567802406e-06 -1.8896061323506383e-08 2.801940567802406e-06 8.25500095985359e-07" pbc="T T T"
Cs       4.01672676       2.70202541       2.89461571        0       0.00026693       0.00027239      -0.00053059
Cs      11.95495338       7.39561085       8.93450716        1       0.00044140       0.00016245      -0.00026115
K        7.98658373       5.04924856       5.91441892        2       0.00005449      -0.00007285      -0.00047683
In      17.93684416       0.38012388       3.90951964        3      -0.00028252      -0.00069286       0.00004996
I        4.86416310       3.54583259       6.63463698        4       0.00019541       0.00062994       0.00021770
I       11.10944533       6.55226776       5.19270079        5      -0.00049612      -0.00009030       0.00053633
I        9.23405227       2.54302978       3.75187409        6      -0.00084417       0.00031248       0.00016685
I        6.73977246       7.55656352       8.07499440        7      -0.00046108      -0.00012083       0.00066739
I        6.34635677       6.10008857       2.96288647        8      -0.00007198      -0.00030092      -0.00006195
I        9.62668000       3.99968611       8.86578869        9       0.00005762       0.00008747      -0.00004989
Cs      12.98485844       2.89183521       4.84907189       10       0.00055520       0.00037313       0.00001458
Cs      20.92336890       7.58559630      10.88940784       11       0.00047435       0.00018434      -0.00031533
K       16.95454402       5.23883120       7.86862881       12       0.00063888       0.00041852       0.00037678
In       8.96839520       0.18997233       1.95462443       13       0.00071801       0.00020173       0.00010382
I       13.83293138       3.73622616       8.58990724       14      -0.00084270      -0.00014790      -0.00014552
I       20.07773014       6.74210525       7.14759906       15      -0.00012432       0.00016914       0.00013437
I       18.20215281       2.73318783       5.70665658       16      -0.00006607      -0.00011101       0.00011872
I       15.70789371       7.74667369      10.02982262       17       0.00010596      -0.00052134       0.00034398
I       15.31480014       6.29022584       4.91783407       18      -0.00027455      -0.00050800      -0.00051620
I       18.59507228       4.18994698      10.82079468       19      -0.00004474      -0.00024558      -0.00037301
