80
Lattice="17.667040509275754 0.0 0.0 -8.441043998472376 15.520086873862658 0.0 4.554011521417136 -3.412625835905624 15.779914412964832" Properties=species:S:1:pos:R:3 pbc="T T T"
Cs       7.27446150       0.88439730       7.88252420
Cs       0.65038848       5.17418396       0.00739800
K        1.65592745      -0.85073334       3.94497940
In       0.51742840       0.00242470       0.00000983
I        7.49019093      -0.33350571       1.57824852
I        0.43465592       6.39207241       6.31171611
I        2.18707890       1.69328533       1.57825203
I        5.73778311       4.36530423       6.31171963
I        6.68794483       5.38358698       1.57824710
I        1.23690503       0.67499890       6.31171470
Cs       9.55146726      -0.82191561      15.77248140
Cs       2.92739424       3.46787104       7.89735521
K        3.93293321      -2.55704626      11.83493660
In       2.79443416      -1.70388822       7.88996704
I        9.76719669      -2.03981862       9.46820572
I        2.71166168       4.68575950      14.20167332
I        4.46408466      -0.01302759       9.46820924
I        8.01478887       2.65899131      14.20167683
I        8.96495059       3.67727406       9.46820431
I        3.51391079      -1.03131402      14.20167190
Cs       3.05393950       8.64444074       7.88252420
Cs      -3.57013352      12.93422739       0.00739800
K       -2.56459455       6.90931010       3.94497940
In      -3.70309360       7.76246813       0.00000983
I        3.26966893       7.42653773       1.57824852
I       -3.78586608      14.15211585       6.31171611
I       -2.03344310       9.45332877       1.57825203
I        1.51726111      12.12534767       6.31171963
I        2.46742283      13.14363041       1.57824710
I       -2.98361697       8.43504234       6.31171470
Cs       5.33094526       6.93812782      15.77248140
Cs      -1.29312776      11.22791447       7.89735521
K       -0.28758879       5.20299718      11.83493660
In      -1.42608784       6.05615522       7.88996704
I        5.54667469       5.72022481       9.46820572
I       -1.50886032      12.44580293      14.20167332
I        0.24356266       7.74701585       9.46820924
I        3.79426687      10.41903475      14.20167683
I        4.74442859      11.43731750       9.46820431
I       -0.70661121       6.72872942      14.20167190
Cs      16.10798175       0.88439730       7.88252420
Cs       9.48390874       5.17418396       0.00739800
K       10.48944771      -0.85073334       3.94497940
In       9.35094866       0.00242470       0.00000983
I       16.32371118      -0.33350571       1.57824852
I        9.26817617       6.39207241       6.31171611
I       11.02059915       1.69328533       1.57825203
I       14.57130336       4.36530423       6.31171963
I       15.52146509       5.38358698       1.57824710
I       10.07042528       0.67499890       6.31171470
Cs      18.38498752      -0.82191561      15.77248140
Cs      11.76091450       3.46787104       7.89735521
K       12.76645347      -2.55704626      11.83493660
In      11.62795442      -1.70388822       7.88996704
I       18.60071694      -2.03981862       9.46820572
I       11.54518193       4.68575950      14.20167332
I       13.29760491      -0.01302759       9.46820924
I       16.84830912       2.65899131      14.20167683
I       17.79847085       3.67727406       9.46820431
I       12.34743104      -1.03131402      14.20167190
Cs      11.88745976       8.64444074       7.88252420
Cs       5.26338674      12.93422739       0.00739800
K        6.26892571       6.90931010       3.94497940
In       5.13042666       7.76246813       0.00000983
I       12.10318918       7.42653773       1.57824852
I        5.04765417      14.15211585       6.31171611
I        6.80007715       9.45332877       1.57825203
I       10.35078136      12.12534767       6.31171963
I       11.30094309      13.14363041       1.57824710
I        5.84990328       8.43504234       6.31171470
Cs      14.16446552       6.93812782      15.77248140
Cs       7.54039250      11.22791447       7.89735521
K        8.54593147       5.20299718      11.83493660
In       7.40743242       6.05615522       7.88996704
I       14.38019494       5.72022481       9.46820572
I        7.32465993      12.44580293      14.20167332
I        9.07708291       7.74701585       9.46820924
I       12.62778712      10.41903475      14.20167683
I       13.57794885      11.43731750       9.46820431
I        8.12690904       6.72872942      14.20167190
