20
Lattice="18.57561841591593 -0.9085377853066965 0.0003513378115531423 -4.250391456183554 8.270843204069191 -0.006480821981486912 -0.0016345137289157923 0.004971402591124601 8.828679162661619" Properties=species:S:1:pos:R:3:spacegroup_kinds:I:1:forces:R:3 spacegroup="P 1" unit_cell=conventional occupancy="_JSON {\"0\": {\"Cs\": 1.0}, \"1\": {\"Cs\": 1.0}, \"2\": {\"K\": 1.0}, \"3\": {\"In\": 1.0}, \"4\": {\"I\": 1.0}, \"5\": {\"I\": 1.0}, \"6\": {\"I\": 1.0}, \"7\": {\"I\": 1.0}, \"8\": {\"I\": 1.0}, \"9\": {\"I\": 1.0}, \"10\": {\"Cs\": 1.0}, \"11\": {\"Cs\": 1.0}, \"12\": {\"K\": 1.0}, \"13\": {\"In\": 1.0}, \"14\": {\"I\": 1.0}, \"15\": {\"I\": 1.0}, \"16\": {\"I\": 1.0}, \"17\": {\"I\": 1.0}, \"18\": {\"I\": 1.0}, \"19\": {\"I\": 1.0}}" energy=-51.58763331546932 free_energy=-51.58763331546932 stress="9.591476475516408e-07 -1.934875155980219e-06 -4.148762689581364e-06 -1.934875155980219e-06 -9.318187214201734e-07 1.5462940455869108e-07 -4.148762689581364e-06 1.5462940455869108e-07 -6.395439741847664e-08" pbc="T T T"
Cs       6.53056716       2.38346312       8.83151591        0      -0.00011525      -0.00053333      -0.00022259
Cs       2.01990246       5.28611519      -0.00889599        1       0.00016883       0.00011915      -0.00033834
K        1.75653910      -0.07385488       4.41419294        2       0.00001648       0.00003619       0.00017100
In       1.75742651      -0.07631411       0.00021532        3       0.00008343       0.00018915      -0.00067324
I        8.60942567      -0.41264801       1.76624537        4       0.00026565      -0.00070704       0.00009272
I        4.19135277      -0.18849813       7.06248106        5       0.00012946      -0.00001483       0.00049398
I        3.07513678       1.97626116       1.76524008        6       0.00047189      -0.00028083      -0.00006440
I        5.47530095       5.69301523       7.05716697        7      -0.00034284      -0.00010376       0.00037423
I        7.91221966       5.57409046       1.76148613        8      -0.00042228       0.00067956       0.00040752
I        0.63868594       2.09438629       7.06093054        9      -0.00025537       0.00061573      -0.00024088
Cs      15.81837636       1.92919422       8.83169158       10      -0.00011525      -0.00053333      -0.00022259
Cs      11.30771166       4.83184630      -0.00872032       11       0.00016883       0.00011915      -0.00033834
K       11.04434831      -0.52812378       4.41436861       12       0.00001648       0.00003619       0.00017100
In      11.04523571      -0.53058301       0.00039099       13       0.00008343       0.00018915      -0.00067324
I       17.89723488      -0.86691691       1.76642104       14       0.00026565      -0.00070704       0.00009272
I       13.47916198      -0.64276702       7.06265673       15       0.00012946      -0.00001483       0.00049398
I       12.36294598       1.52199227       1.76541575       16       0.00047189      -0.00028083      -0.00006440
I       14.76311016       5.23874634       7.05734264       17      -0.00034284      -0.00010376       0.00037423
I       -1.37558955       6.02835935       1.76131046       18      -0.00042228       0.00067956       0.00040752
I        9.92649515       1.64011740       7.06110621       19      -0.00025537       0.00061573      -0.00024088
