10
Lattice="11.667115943793917 2.3996980421982346 2.988425300613175 6.829621083840767 9.49279501535668 3.7393509060615986 12.029830338353875 7.12016309161819 10.186566814112194" Properties=species:S:1:pos:R:3:spacegroup_kinds:I:1:forces:R:3 spacegroup="P 1" unit_cell=conventional occupancy="_JSON {\"0\": {\"Cs\": 1.0}, \"1\": {\"Cs\": 1.0}, \"2\": {\"K\": 1.0}, \"3\": {\"In\": 1.0}, \"4\": {\"I\": 1.0}, \"5\": {\"I\": 1.0}, \"6\": {\"I\": 1.0}, \"7\": {\"I\": 1.0}, \"8\": {\"I\": 1.0}, \"9\": {\"I\": 1.0}}" energy=-25.775776060335943 free_energy=-25.775776060335943 stress="-8.512299103209716e-07 -5.662482838903524e-06 -3.820314782332202e-06 -5.662482838903524e-06 -1.1217733285262446e-05 -3.718489799053445e-06 -3.820314782332202e-06 -3.718489799053445e-06 -5.6442918617065325e-06" pbc="T T T"
Cs       9.26249857       5.66245428       6.12567905        0      -0.00007194       0.00031563       0.00012603
Cs      21.26390946      13.35042395      10.78753668        1       0.00001452      -0.00048956       0.00065792
K       15.26285382       9.50643590       8.45756195        2       0.00049092       0.00017222      -0.00073187
In      11.66723100       2.39950082       2.98870423        3      -0.00013033       0.00033731      -0.00022894
I       12.58819579       7.44673736       7.26848645        4       0.00029524      -0.00011306      -0.00024607
I       17.93803907      11.56573152       9.64638522        5       0.00030730       0.00030845      -0.00038618
I       18.10936063       8.95186862       6.35729110        6      -0.00015308      -0.00049722       0.00027630
I       12.41737905      10.06080900      10.55735124        7      -0.00000128       0.00003911      -0.00007433
I        9.75137138       9.07955285       4.21921822        8      -0.00042498       0.00021516       0.00032971
I       20.77582760       9.93313391      12.69475211        9      -0.00032636      -0.00028802       0.00027742
