20
Lattice="18.48995011687735 -1.9553667747368382 -0.20442285330985058 -3.7985760564297517 8.413748071369932 -1.132214182424972 0.23861798671148948 1.2784129722664601 8.731947285673288" Properties=species:S:1:pos:R:3:spacegroup_kinds:I:1:forces:R:3 spacegroup="P 1" unit_cell=conventional occupancy="_JSON {\"0\": {\"Cs\": 1.0}, \"1\": {\"Cs\": 1.0}, \"2\": {\"K\": 1.0}, \"3\": {\"In\": 1.0}, \"4\": {\"I\": 1.0}, \"5\": {\"I\": 1.0}, \"6\": {\"I\": 1.0}, \"7\": {\"I\": 1.0}, \"8\": {\"I\": 1.0}, \"9\": {\"I\": 1.0}, \"10\": {\"Cs\": 1.0}, \"11\": {\"Cs\": 1.0}, \"12\": {\"K\": 1.0}, \"13\": {\"In\": 1.0}, \"14\": {\"I\": 1.0}, \"15\": {\"I\": 1.0}, \"16\": {\"I\": 1.0}, \"17\": {\"I\": 1.0}, \"18\": {\"I\": 1.0}, \"19\": {\"I\": 1.0}}" energy=-51.58761353635742 free_energy=-51.58761353635742 stress="-1.1355813595603276e-06 1.436021598682589e-06 9.289386408178236e-06 1.436021598682589e-06 7.062723951345688e-06 -2.7886913439734968e-06 9.289386408178236e-06 -2.7886913439734968e-06 -1.3528696972591951e-06" pbc="T T T"
Cs       2.52118333       2.54858995      -0.48214339        0      -0.00033785      -0.00015412       0.00017611
Cs      -1.58668186       6.96771603       7.98809049        1      -0.00021912      -0.00006604      -0.00002580
K       -2.25588929       1.04013744       4.37019085        2      -0.00008551      -0.00010063       0.00014057
In      16.11449897      -1.55460137      -0.20003237        3      -0.00024124       0.00006796       0.00021719
I       15.14123130       0.89615259       1.25283569        4       0.00048622       0.00050388       0.00010120
I        4.28266565       6.66440987       6.04917621        5      -0.00019198      -0.00011205      -0.00043551
I       17.71301828       1.43269114       6.45956202        6       0.00028577      -0.00020749      -0.00039582
I        1.71043295       6.12834893       0.84240190        7       0.00059692      -0.00010116       0.00035366
I       18.58900482      -1.52918085       1.51538784        8      -0.00044401      -0.00026522      -0.00014417
I        4.63393304       0.67611546       6.91844219        9      -0.00006168       0.00030893       0.00014703
Cs      11.76616548       1.57090425      -0.58435480       10      -0.00037935      -0.00014577       0.00017703
Cs       7.65828614       5.99003511       7.88587887       11      -0.00017773      -0.00007448      -0.00002666
K        6.98907670       0.06245249       4.26797389       12      -0.00002643      -0.00006181       0.00019165
In       6.86946785      -0.57695340      -0.09776872       13       0.00012505       0.00028120      -0.00010203
I        5.89626616       1.87382828       1.35504657       14       0.00044211       0.00053570       0.00011578
I       13.52763112       5.68673444       5.94696521       15      -0.00014805      -0.00014416      -0.00045008
I        8.46805602       2.41040399       6.56174489       16       0.00017554      -0.00035976      -0.00023407
I       10.95539515       5.15063581       0.74021914       17       0.00070745       0.00005135       0.00019166
I        9.34404195      -0.55150105       1.61760320       18      -0.00051428      -0.00026524      -0.00017083
I       13.87889609      -0.30156433       6.81622708       19       0.00000817       0.00030889       0.00017311
