20
Lattice="16.006114048494567 0.0 0.0 8.75212285512284 5.412036868652108 0.0 4.353529330426859 -4.933488434393579 3.791620912374768" Properties=species:S:1:pos:R:3 pbc="T T T"
Cs       5.27711855       0.11962009       0.94792480
Cs      15.83159058       0.35892785       2.84369578
K       10.55435462       0.23927380       1.89581024
In       0.00000017       0.00000027       0.00000012
I        7.81327262      -3.34603809       2.08902948
I       13.29543659       3.82458556       1.70259103
I       10.75246347       0.13128353       1.76744679
I       10.35624461       0.34726416       2.02417329
I        9.99862391       2.21115988      -0.00519027
I       11.11008544      -1.73261025       3.79681206
Cs      13.28017558       0.11962009       0.94792480
Cs      23.83464760       0.35892785       2.84369578
K       18.55741164       0.23927380       1.89581024
In       8.00305720       0.00000027       0.00000012
I       15.81632964      -3.34603809       2.08902948
I       21.29849362       3.82458556       1.70259103
I       18.75552049       0.13128353       1.76744679
I       18.35930163       0.34726416       2.02417329
I       18.00168093       2.21115988      -0.00519027
I       19.11314246      -1.73261025       3.79681206
