10
Lattice="9.08604659872034 -0.8918312396378897 1.7651849412578369 -3.56817290653558 8.377906516084945 -1.885908260387292 -1.543323113995827 1.27950454965286 8.59795927764199" Properties=species:S:1:pos:R:3:spacegroup_kinds:I:1:forces:R:3 spacegroup="P 1" unit_cell=conventional occupancy="_JSON {\"0\": {\"Cs\": 1.0}, \"1\": {\"Cs\": 1.0}, \"2\": {\"K\": 1.0}, \"3\": {\"In\": 1.0}, \"4\": {\"I\": 1.0}, \"5\": {\"I\": 1.0}, \"6\": {\"I\": 1.0}, \"7\": {\"I\": 1.0}, \"8\": {\"I\": 1.0}, \"9\": {\"I\": 1.0}}" energy=-25.79381685027419 free_energy=-25.79381685027419 stress="1.3731137129401454e-06 1.64909782890248e-06 2.9766373302710155e-06 1.64909782890248e-06 6.4467593500178165e-06 5.563148668471983e-07 2.9766373302710155e-06 5.563148668471983e-07 1.4498909141869228e-06" pbc="T T T"
Cs       3.53911612       3.26945853       0.14436251        0       0.00028836      -0.00052404       0.00012084
Cs      -2.22319282       7.63981711       7.53649749        1      -0.00009134      -0.00028662       0.00009499
K        6.98514943       0.81948652       5.66623718        2       0.00001707      -0.00006217      -0.00023553
In       7.75687932       0.17971256       1.36718876        3      -0.00038186      -0.00001155       0.00007638
I        6.50878155       2.63049288       2.59208910        4       0.00008256       0.00020194       0.00005997
I        3.89318237       7.38623138       6.85423611        5       0.00023708      -0.00015836      -0.00021658
I       -1.11996563       4.05977474       6.44684108        6       0.00025905       0.00022658       0.00007148
I        2.43594790       6.84883334       1.23434983        7      -0.00012501       0.00009075      -0.00007257
I        0.74483426       1.09665960       1.78447144        8       0.00002307       0.00027934      -0.00015194
I        4.13956612       1.43382267       7.78259866        9      -0.00030898       0.00024411       0.00025296
