10
Lattice="9.764122514128767 0.0 0.0 -4.8820612570643815 8.455978142899093 0.0 0.0 0.0 9.270154487074638" Properties=species:S:1:pos:R:3 pbc="T T T"
Cs       2.09929444       5.63732076      -0.00006269
Cs       6.98135570       2.81866138      -0.00006269
K        2.09930572       0.00000200       4.63508620
In       2.09931847       0.00000200       0.00003981
I        3.37939854       2.21716245       1.85468264
I        5.70130343       6.23881969       7.41553482
I        2.56015637      -0.00000000       7.41550333
I        7.20396615      -0.00000000       1.85465116
I       -1.50269205       6.23884675       1.85466713
I        0.81921284       2.21718951       7.41551931
