20
Lattice="18.447841987932936 -2.36305918307201 -0.006826700574659009 -3.596042797824245 8.579589709234252 -0.00612516719985436 0.005670707986530217 0.010365188947431249 8.827549924066222" Properties=species:S:1:pos:R:3:spacegroup_kinds:I:1:forces:R:3 spacegroup="P 1" unit_cell=conventional occupancy="_JSON {\"0\": {\"Cs\": 1.0}, \"1\": {\"Cs\": 1.0}, \"2\": {\"K\": 1.0}, \"3\": {\"In\": 1.0}, \"4\": {\"I\": 1.0}, \"5\": {\"I\": 1.0}, \"6\": {\"I\": 1.0}, \"7\": {\"I\": 1.0}, \"8\": {\"I\": 1.0}, \"9\": {\"I\": 1.0}, \"10\": {\"Cs\": 1.0}, \"11\": {\"Cs\": 1.0}, \"12\": {\"K\": 1.0}, \"13\": {\"In\": 1.0}, \"14\": {\"I\": 1.0}, \"15\": {\"I\": 1.0}, \"16\": {\"I\": 1.0}, \"17\": {\"I\": 1.0}, \"18\": {\"I\": 1.0}, \"19\": {\"I\": 1.0}}" energy=-51.587615772767265 free_energy=-51.587615772767265 stress="-1.8071644223347484e-06 -1.3465501757812512e-05 2.1734844866010028e-06 -1.3465501757812512e-05 6.153512982038385e-06 7.542436904856644e-07 2.1734844866010028e-06 7.542436904856644e-07 -8.630792327782428e-06" pbc="T T T"
Cs       2.17370125       6.14471925       8.85784188        0       0.00073097      -0.00013253      -0.00042786
Cs       6.45028722       2.89040954       8.78603546        1      -0.00062989      -0.00000063      -0.00015449
K        1.49465616       0.81370758       4.41214534        2       0.00035884      -0.00022603       0.00017774
In       1.49262085       0.80797072      -0.00187704        3      -0.00016366       0.00008795       0.00030097
I        2.98827943       2.73625284       1.76140695        4       0.00021013       0.00032602      -0.00003736
I        5.63030161       6.28793894       7.05343989        5      -0.00035056       0.00003178       0.00015503
I        3.91282220       0.48425014       7.05869435        6       0.00000361       0.00018431       0.00009487
I        8.30208945      -0.03884294       1.76214216        7      -0.00064833      -0.00056958      -0.00011742
I       17.26597293       4.76879692       1.75402669        8       0.00010357       0.00019077      -0.00017495
I        0.57585751       3.07426267       7.05765621        9       0.00038314       0.00011217       0.00018968
Cs      11.39762234       4.96318950       8.85442867       10       0.00073043      -0.00013138      -0.00042868
Cs      15.67420811       1.70888010       8.78262197       11      -0.00062935      -0.00000177      -0.00015366
K       10.71857714      -0.36782201       4.40873101       12       0.00035894      -0.00022599       0.00018335
In      10.71654180      -0.37355886      -0.00528576       13      -0.00016324       0.00008806       0.00027449
I       12.21220020       1.55472291       1.75799290       14       0.00021277       0.00032933      -0.00003335
I       -3.59361915       7.46946888       7.05685398       15      -0.00035323       0.00002842       0.00015097
I       13.13674378      -0.69727967       7.05528026       16      -0.00000116       0.00018509       0.00009914
I       -0.92183214       1.14268686       1.76555626       17      -0.00064355      -0.00057037      -0.00012168
I        8.04205156       5.95032709       1.75743930       18       0.00010551       0.00018647      -0.00017068
I        9.79977815       1.89273365       7.05424213       19       0.00038506       0.00010790       0.00019390
