10
Lattice="8.4175023050568 -1.088860941853425 -1.40531187036556 -1.675813385409372 10.763096845202183 -0.0996960574322813 -4.053377663679636 2.1106642216101066 7.666281733083374" Properties=species:S:1:pos:R:3:spacegroup_kinds:I:1:forces:R:3 spacegroup="P 1" unit_cell=conventional occupancy="_JSON {\"0\": {\"Cs\": 1.0}, \"1\": {\"Cs\": 1.0}, \"2\": {\"K\": 1.0}, \"3\": {\"In\": 1.0}, \"4\": {\"I\": 1.0}, \"5\": {\"I\": 1.0}, \"6\": {\"I\": 1.0}, \"7\": {\"I\": 1.0}, \"8\": {\"I\": 1.0}, \"9\": {\"I\": 1.0}}" energy=-25.61829197686876 free_energy=-25.61829197686876 stress="-2.8597289802079356e-06 -1.369786323147593e-06 6.140750211657856e-07 -1.369786323147593e-06 3.537378642307875e-06 1.1166679273510757e-06 6.140750211657856e-07 1.1166679273510757e-06 -3.119956870324313e-07" pbc="T T T"
Cs      -1.74675738       9.66921145       6.83417887        0       0.00002288       0.00002509      -0.00000870
Cs      -5.18516124       6.22978892       5.25612072        1       0.00011775       0.00004829      -0.00003821
K       -0.70726034       1.40265104       2.31165604        2      -0.00006501      -0.00011599      -0.00001577
In       3.31275393       2.14978023      -0.57798014        3      -0.00032813       0.00014197      -0.00037550
I        5.09310705       2.61888321       1.52222990        4       0.00043172       0.00032841       0.00053729
I       -4.24334853      12.91946844       7.28760770        5      -0.00016581      -0.00006368      -0.00010941
I        1.15563769       2.38558014       5.65002394        6      -0.00002154       0.00004307      -0.00012309
I        1.19080682       4.02402147       0.74309377        7      -0.00003792      -0.00012903       0.00008675
I       -3.87536992       9.37665708       3.60241704        8       0.00016510      -0.00017711      -0.00001368
I       -0.53249504       6.14796611       5.02947719        9      -0.00011903      -0.00010103       0.00006032
