80
Lattice="15.382412809660703 0.0 0.0 -18.38570915378139 11.060890130361711 0.0 -6.7353547381954915 -5.930954973550874 12.415376956789975" Properties=species:S:1:pos:R:3 pbc="T T T"
Cs      -3.36089260       3.77427712      -0.00000547
Cs       2.26712772       1.93079543      -0.00000547
K       -1.47989594      -1.39542574       3.10384573
In       0.20394398       0.08731435       0.00000449
I       -0.86354932       0.94410478       1.24195673
I       -3.59788789       1.79549089       4.96573911
I       -0.67727953      -2.37218357       4.96573543
I        5.00080857      -0.59329392       1.24195305
I       -7.45624567       3.48706650       1.24195305
I       -4.90034506      -0.83478241       4.96573692
Cs      -6.72856997       0.80879963       6.20768301
Cs      -1.10054965      -1.03468205       6.20768301
K       -4.84757331      -4.36090323       9.31153421
In      -3.16373339      -2.87816313       6.20769297
I       -4.23122669      -2.02137271       7.44964521
I       -6.96556526      -1.16998659      11.17342759
I       -4.04495690      -5.33766106      11.17342391
I        1.63313120      -3.55877140       7.44964153
I      -10.82392304       0.52158902       7.44964153
I       -8.26802243      -3.80025990      11.17342540
Cs     -12.55374718       9.30472219      -0.00000547
Cs      -6.92572685       7.46124050      -0.00000547
K      -10.67275052       4.13501932       3.10384573
In      -8.98891060       5.61775942       0.00000449
I      -10.05640390       6.47454984       1.24195673
I      -12.79074247       7.32593596       4.96573911
I       -9.87013411       3.15826149       4.96573543
I       -4.19204601       4.93715115       1.24195305
I      -16.64910024       9.01751157       1.24195305
I      -14.09319964       4.69566265       4.96573692
Cs     -15.92142455       6.33924470       6.20768301
Cs     -10.29340422       4.49576301       6.20768301
K      -14.04042789       1.16954184       9.31153421
In     -12.35658797       2.65228193       6.20769297
I      -13.42408127       3.50907236       7.44964521
I      -16.15841984       4.36045847      11.17342759
I      -13.23781148       0.19278401      11.17342391
I       -7.55972338       1.97167366       7.44964153
I      -20.01677761       6.05203408       7.44964153
I      -17.46087701       1.73018516      11.17342540
Cs       4.33031380       3.77427712      -0.00000547
Cs       9.95833413       1.93079543      -0.00000547
K        6.21131046      -1.39542574       3.10384573
In       7.89515038       0.08731435       0.00000449
I        6.82765709       0.94410478       1.24195673
I        4.09331851       1.79549089       4.96573911
I        7.01392687      -2.37218357       4.96573543
I       12.69201497      -0.59329392       1.24195305
I        0.23496074       3.48706650       1.24195305
I        2.79086134      -0.83478241       4.96573692
Cs       0.96263643       0.80879963       6.20768301
Cs       6.59065676      -1.03468205       6.20768301
K        2.84363309      -4.36090323       9.31153421
In       4.52747302      -2.87816313       6.20769297
I        3.45997972      -2.02137271       7.44964521
I        0.72564114      -1.16998659      11.17342759
I        3.64624950      -5.33766106      11.17342391
I        9.32433760      -3.55877140       7.44964153
I       -3.13271663       0.52158902       7.44964153
I       -0.57681603      -3.80025990      11.17342540
Cs      -4.86254078       9.30472219      -0.00000547
Cs       0.76547955       7.46124050      -0.00000547
K       -2.98154411       4.13501932       3.10384573
In      -1.29770419       5.61775942       0.00000449
I       -2.36519749       6.47454984       1.24195673
I       -5.09953607       7.32593596       4.96573911
I       -2.17892771       3.15826149       4.96573543
I        3.49916040       4.93715115       1.24195305
I       -8.95789384       9.01751157       1.24195305
I       -6.40199323       4.69566265       4.96573692
Cs      -8.23021814       6.33924470       6.20768301
Cs      -2.60219782       4.49576301       6.20768301
K       -6.34922148       1.16954184       9.31153421
In      -4.66538156       2.65228193       6.20769297
I       -5.73287486       3.50907236       7.44964521
I       -8.46721343       4.36045847      11.17342759
I       -5.54660507       0.19278401      11.17342391
I        0.13148303       1.97167366       7.44964153
I      -12.32557121       6.05203408       7.44964153
I       -9.76967060       1.73018516      11.17342540
