40
Lattice="13.793126210283868 0.0 0.0 6.984617498519178 12.511396433408807 0.0 -0.13954943098387726 -1.0616077622117177 11.738325060215136" Properties=species:S:1:pos:R:3:oxi_states:R:1 pbc="T T T"
Cs       5.15973260       2.86226313       2.93458126       1.00000000
Pb      -0.00000000      -0.00000000       0.00000000       2.00000000
I       -0.03488736      -0.26540194       2.93458127      -1.00000000
I        3.44828155       0.00000000      -0.00000000      -1.00000000
I        1.74615437       3.12784911       0.00000000      -1.00000000
Cs       5.08995789       2.33145925       8.80374379       1.00000000
Pb      -0.06977472      -0.53080388       5.86916253       2.00000000
I       -0.10466207      -0.79620582       8.80374380      -1.00000000
I        3.37850684      -0.53080388       5.86916253      -1.00000000
I        1.67637966       2.59704523       5.86916253      -1.00000000
Cs       8.65204135       9.11796135       2.93458126       1.00000000
Pb       3.49230875       6.25569822       0.00000000       2.00000000
I        3.45742139       5.99029628       2.93458127      -1.00000000
I        6.94059030       6.25569822      -0.00000000      -1.00000000
I        5.23846312       9.38354733       0.00000000      -1.00000000
Cs       8.58226664       8.58715747       8.80374379       1.00000000
Pb       3.42253403       5.72489434       5.86916253       2.00000000
I        3.38764668       5.45949240       8.80374380      -1.00000000
I        6.87081559       5.72489434       5.86916253      -1.00000000
I        5.16868841       8.85274344       5.86916253      -1.00000000
Cs      12.05629571       2.86226313       2.93458126       1.00000000
Pb       6.89656311      -0.00000000       0.00000000       2.00000000
I        6.86167575      -0.26540194       2.93458127      -1.00000000
I       10.34484466       0.00000000      -0.00000000      -1.00000000
I        8.64271748       3.12784911       0.00000000      -1.00000000
Cs      11.98652099       2.33145925       8.80374379       1.00000000
Pb       6.82678839      -0.53080388       5.86916253       2.00000000
I        6.79190103      -0.79620582       8.80374380      -1.00000000
I       10.27506994      -0.53080388       5.86916253      -1.00000000
I        8.57294276       2.59704523       5.86916253      -1.00000000
Cs      15.54860446       9.11796135       2.93458126       1.00000000
Pb      10.38887185       6.25569822       0.00000000       2.00000000
I       10.35398450       5.99029628       2.93458127      -1.00000000
I       13.83715341       6.25569822      -0.00000000      -1.00000000
I       12.13502623       9.38354733       0.00000000      -1.00000000
Cs      15.47882974       8.58715747       8.80374379       1.00000000
Pb      10.31909714       5.72489434       5.86916253       2.00000000
I       10.28420978       5.45949240       8.80374380      -1.00000000
I       13.76737869       5.72489434       5.86916253      -1.00000000
I       12.06525151       8.85274344       5.86916253      -1.00000000
