40
Lattice="12.359532066455115 -3.3197425334770476 -0.00024755984781766374 3.3136824185315117 12.336318433575117 0.6040847272720854 0.019317336192458893 -0.6329710844492961 12.808375129841691" Properties=species:S:1:pos:R:3:spacegroup_kinds:I:1:forces:R:3 spacegroup="P 1" unit_cell=conventional occupancy="_JSON {\"0\": {\"Cs\": 1.0}, \"1\": {\"Pb\": 1.0}, \"2\": {\"I\": 1.0}, \"3\": {\"I\": 1.0}, \"4\": {\"I\": 1.0}, \"5\": {\"Cs\": 1.0}, \"6\": {\"Pb\": 1.0}, \"7\": {\"I\": 1.0}, \"8\": {\"I\": 1.0}, \"9\": {\"I\": 1.0}, \"10\": {\"Cs\": 1.0}, \"11\": {\"Pb\": 1.0}, \"12\": {\"I\": 1.0}, \"13\": {\"I\": 1.0}, \"14\": {\"I\": 1.0}, \"15\": {\"Cs\": 1.0}, \"16\": {\"Pb\": 1.0}, \"17\": {\"I\": 1.0}, \"18\": {\"I\": 1.0}, \"19\": {\"I\": 1.0}, \"20\": {\"Cs\": 1.0}, \"21\": {\"Pb\": 1.0}, \"22\": {\"I\": 1.0}, \"23\": {\"I\": 1.0}, \"24\": {\"I\": 1.0}, \"25\": {\"Cs\": 1.0}, \"26\": {\"Pb\": 1.0}, \"27\": {\"I\": 1.0}, \"28\": {\"I\": 1.0}, \"29\": {\"I\": 1.0}, \"30\": {\"Cs\": 1.0}, \"31\": {\"Pb\": 1.0}, \"32\": {\"I\": 1.0}, \"33\": {\"I\": 1.0}, \"34\": {\"I\": 1.0}, \"35\": {\"Cs\": 1.0}, \"36\": {\"Pb\": 1.0}, \"37\": {\"I\": 1.0}, \"38\": {\"I\": 1.0}, \"39\": {\"I\": 1.0}}" energy=-111.87535330342747 free_energy=-111.87535330342747 stress="-4.0766172080629975e-07 -5.489228702417965e-07 -8.525690898084253e-06 -5.489228702417965e-07 1.8573723919722076e-06 -1.8921510960497949e-06 -8.525690898084253e-06 -1.8921510960497949e-06 -1.4529811073255358e-06" pbc="T T T"
Cs       3.75040627       2.15681024       3.02497449        0       0.00012625       0.00023360      -0.00011849
Pb       0.00426943      -0.00117191      -0.00094203        1      -0.00051013       0.00001662       0.00051593
I        0.13358505      -0.19432907       3.25062571        2       0.00008792      -0.00008275      -0.00008058
I        3.11715956      -0.84388643       0.14599814        3      -0.00038331      -0.00007095       0.00016795
I        0.84087585       3.07415522       0.28521348        4       0.00008817       0.00028744      -0.00000552
Cs       3.75997029       1.84040388       9.42861024        5       0.00029848       0.00018987       0.00024932
Pb       0.01389027      -0.31770972       6.40351744        6       0.00010901       0.00053935      -0.00034915
I        0.14364487      -0.51127930       9.65465360        7      -0.00002001      -0.00005012       0.00016196
I        3.12688606      -1.16043925       6.55037275        8      -0.00038790      -0.00001189      -0.00027672
I        0.85052700       2.75783743       6.68972267        9      -0.00008218      -0.00021200      -0.00008482
Cs       5.40722887       8.32506328       3.32708490       10       0.00015930       0.00012497      -0.00012995
Pb       1.66114512       6.16696102       0.30128180       11       0.00006831      -0.00001980      -0.00009378
I        1.79060831       5.97343091       3.55245821       12      -0.00000928      -0.00002586       0.00051062
I        4.77386387       5.32437005       0.44798772       13       0.00018901      -0.00019720       0.00009407
I       14.85718752       5.92269624       0.58713115       14      -0.00000980      -0.00009219       0.00007256
Cs       5.41675995       8.00871924       9.73065292       15       0.00033863      -0.00000624       0.00027379
Pb       1.67074683       5.85073562       6.70546676       16      -0.00012274      -0.00074296       0.00000645
I        1.80032781       5.65720959       9.95677534       17      -0.00004499       0.00000282      -0.00016876
I        4.78356656       5.00786320       6.85244632       18       0.00014492      -0.00017863      -0.00019890
I       14.86691909       5.60613162       6.99141903       19       0.00003607       0.00038048      -0.00014849
Cs       9.93054648       0.49656544       3.02480376       20      -0.00003999       0.00021878      -0.00017294
Pb       6.18379143      -1.66085614      -0.00064173       21       0.00057862      -0.00004894      -0.00021197
I        6.31385089      -1.85481500       3.25044687       22      -0.00000031       0.00007285       0.00023525
I        9.29695742      -2.50370126       0.14607741       23      -0.00004537      -0.00014462      -0.00024192
I        7.02039886       1.41460816       0.28485045       24       0.00017205       0.00001720       0.00027745
Cs       9.94004586       0.18027385       9.42873430       25      -0.00001667       0.00026752       0.00011940
Pb       6.19370820      -1.97747236       6.40354141       26      -0.00013062      -0.00023036      -0.00016606
I        6.32287841      -2.17060544       9.65465730       27       0.00016613      -0.00009577       0.00008524
I        9.30661127      -2.82027895       6.55031461       28       0.00002898      -0.00015598       0.00000224
I        7.03019995       1.09809026       6.68931303       29       0.00004100      -0.00014154       0.00000112
Cs      11.58736303       6.66482990       3.32682114       30      -0.00006111       0.00033475      -0.00015507
Pb       7.84106973       4.50723855       0.30146896       31      -0.00072842       0.00003545      -0.00021716
I        7.97048342       4.31361789       3.55275354       32       0.00003301      -0.00001344       0.00007082
I       10.95368611       3.66448993       0.44797774       33       0.00007739      -0.00020612      -0.00001717
I        8.67729417       7.58284057       0.58692405       34       0.00007887      -0.00033860       0.00018610
Cs      11.59689898       6.34852869       9.73083237       35      -0.00010537       0.00020052       0.00010150
Pb       7.85049663       4.19055728       6.70552284       36      -0.00009249       0.00046986       0.00034956
I        7.97986172       3.99735696       9.95708102       37       0.00019762      -0.00003957      -0.00070260
I       10.96341954       3.34788185       6.85220080       38      -0.00027483      -0.00003579      -0.00001615
I        8.68704473       7.26625647       6.99127542       39       0.00004577      -0.00025079       0.00007488
