40
Lattice="19.010402443534375 2.862750656651526 -0.9678458556537679 4.037216562796408 14.685612543567373 1.0265830963430198 2.766416539421894 2.4645425495473976 8.93895516047517" Properties=species:S:1:pos:R:3:spacegroup_kinds:I:1:forces:R:3 spacegroup="P 1" unit_cell=conventional occupancy="_JSON {\"0\": {\"Cs\": 1.0}, \"1\": {\"Cs\": 1.0}, \"2\": {\"K\": 1.0}, \"3\": {\"In\": 1.0}, \"4\": {\"I\": 1.0}, \"5\": {\"I\": 1.0}, \"6\": {\"I\": 1.0}, \"7\": {\"I\": 1.0}, \"8\": {\"I\": 1.0}, \"9\": {\"I\": 1.0}, \"10\": {\"Cs\": 1.0}, \"11\": {\"Cs\": 1.0}, \"12\": {\"K\": 1.0}, \"13\": {\"In\": 1.0}, \"14\": {\"I\": 1.0}, \"15\": {\"I\": 1.0}, \"16\": {\"I\": 1.0}, \"17\": {\"I\": 1.0}, \"18\": {\"I\": 1.0}, \"19\": {\"I\": 1.0}, \"20\": {\"Cs\": 1.0}, \"21\": {\"Cs\": 1.0}, \"22\": {\"K\": 1.0}, \"23\": {\"In\": 1.0}, \"24\": {\"I\": 1.0}, \"25\": {\"I\": 1.0}, \"26\": {\"I\": 1.0}, \"27\": {\"I\": 1.0}, \"28\": {\"I\": 1.0}, \"29\": {\"I\": 1.0}, \"30\": {\"Cs\": 1.0}, \"31\": {\"Cs\": 1.0}, \"32\": {\"K\": 1.0}, \"33\": {\"In\": 1.0}, \"34\": {\"I\": 1.0}, \"35\": {\"I\": 1.0}, \"36\": {\"I\": 1.0}, \"37\": {\"I\": 1.0}, \"38\": {\"I\": 1.0}, \"39\": {\"I\": 1.0}}" energy=-97.94074591736901 free_energy=-97.94074591736901 stress="-1.4676315844965267e-05 -7.401494325034546e-06 2.2273324288100483e-06 -7.401494325034546e-06 3.527499345540409e-06 -2.4782519738949646e-06 2.2273324288100483e-06 -2.4782519738949646e-06 -6.332897937899273e-07" pbc="T T T"
Cs       4.48216952       2.71823845       1.49235565        0      -0.00026062      -0.00029567      -0.00033996
Cs      10.10229691       8.54333354       7.52675647        1      -0.00032711      -0.00014032      -0.00026110
K        6.44384478       5.97994460       5.08624373        2       0.00038813      -0.00008046       0.00023436
In      19.37440246       2.89688780      -1.73503916        3       0.00001830       0.00065728      -0.00000592
I       11.31991860      15.04687221       4.03600335        4       0.00019626       0.00013800      -0.00031701
I        6.84655694       9.61261980       5.85191980        5       0.00012064      -0.00016814      -0.00058803
I       10.23862394       6.16780461       1.26292329        6       0.00007707       0.00043553      -0.00001074
I       23.29738348       8.66189906       7.06159462        7      -0.00012685       0.00007454      -0.00023191
I        5.00077439       6.51549987       1.77343841        8       0.00029535      -0.00015397       0.00042733
I        9.25169442       4.83270061       7.08573627        9      -0.00003129      -0.00024312       0.00016047
Cs       6.50262217      10.06013571       2.00746587       10      -0.00008286      -0.00051121       0.00036512
Cs      12.12174602      15.88505116       8.04360223       11       0.00027059       0.00010377       0.00033234
K        8.46051066      13.32437234       5.60159346       12       0.00017152      -0.00061548      -0.00006092
In      21.39485658      10.24713653      -1.21939142       13      -0.00027597      -0.00010235       0.00034499
I        9.30585734       7.69996111       3.51864984       14      -0.00029448       0.00009875       0.00001346
I        4.83346821       2.27271862       5.33581451       15      -0.00009427       0.00027130       0.00022768
I       12.25697967      13.51525016       1.78283779       16      -0.00037661       0.00006957      -0.00018481
I       25.31954894      16.01192443       7.57695140       17      -0.00021075       0.00072286       0.00003414
I        7.01793190      13.85859262       2.28882449       18       0.00029306      -0.00028975       0.00001144
I       11.26846686      12.17633935       7.59845856       19       0.00027959      -0.00002122       0.00014612
Cs      13.98717132       4.14954604       1.00834242       20       0.00001905       0.00011206      -0.00009015
Cs      19.60737487       9.97464984       7.04257127       21       0.00004386       0.00004221       0.00007896
K       15.94896610       7.41159977       4.60259183       22       0.00049337      -0.00027711      -0.00011258
In       9.86927824       1.46588564      -1.25114822       23      -0.00006709       0.00014124      -0.00019429
I       20.82531932      16.47841583       3.55187567       24      -0.00018273      -0.00007062      -0.00013247
I       16.35197908      11.04396997       5.36713677       25      -0.00023397       0.00014344       0.00071496
I        0.73337036       4.73638532       1.74718762       26       0.00009425       0.00051762      -0.00045365
I       13.79222235       7.23034392       7.54535899       27      -0.00012360       0.00052494      -0.00029322
I       14.50627168       7.94732437       1.28982319       28      -0.00026930      -0.00078954      -0.00002543
I       18.75678949       6.26404236       6.60192968       29       0.00006785      -0.00020844       0.00011245
Cs      16.00760846      11.49148412       1.52364760       30       0.00027012      -0.00024767      -0.00007476
Cs      21.62713995      17.31640216       7.55990814       31      -0.00028894       0.00011169      -0.00012255
K       17.96547490      14.75555628       5.11771611       32       0.00047905      -0.00040787      -0.00015291
In      11.88956127       8.81543730      -0.73552330       33       0.00022058       0.00019733       0.00005730
I       18.81103216       9.13141002       3.03485259       34      -0.00030975      -0.00001667      -0.00008572
I       14.33855488       3.70421964       4.85172437       35       0.00012024       0.00007999       0.00045431
I        2.75165628      12.08374257       2.26666176       36      -0.00002769       0.00016122      -0.00012572
I       15.81446891      14.58065037       8.06111520       37      -0.00047158       0.00051061      -0.00030489
I       16.52324241      15.29007494       1.80452433       38       0.00024301      -0.00043013       0.00032242
I       20.77391627      13.60772752       7.11446240       39      -0.00010641      -0.00004424       0.00013087
