40
Lattice="21.872917251529895 -2.152672353387675 -0.7024255342737518 -15.684124857472858 15.377975352236259 1.511299264925201 0.9530334980962257 7.245402498756536 7.365489333469566" Properties=species:S:1:pos:R:3:spacegroup_kinds:I:1:forces:R:3 spacegroup="P 1" unit_cell=conventional occupancy="_JSON {\"0\": {\"Cs\": 1.0}, \"1\": {\"Cs\": 1.0}, \"2\": {\"K\": 1.0}, \"3\": {\"In\": 1.0}, \"4\": {\"I\": 1.0}, \"5\": {\"I\": 1.0}, \"6\": {\"I\": 1.0}, \"7\": {\"I\": 1.0}, \"8\": {\"I\": 1.0}, \"9\": {\"I\": 1.0}, \"10\": {\"Cs\": 1.0}, \"11\": {\"Cs\": 1.0}, \"12\": {\"K\": 1.0}, \"13\": {\"In\": 1.0}, \"14\": {\"I\": 1.0}, \"15\": {\"I\": 1.0}, \"16\": {\"I\": 1.0}, \"17\": {\"I\": 1.0}, \"18\": {\"I\": 1.0}, \"19\": {\"I\": 1.0}, \"20\": {\"Cs\": 1.0}, \"21\": {\"Cs\": 1.0}, \"22\": {\"K\": 1.0}, \"23\": {\"In\": 1.0}, \"24\": {\"I\": 1.0}, \"25\": {\"I\": 1.0}, \"26\": {\"I\": 1.0}, \"27\": {\"I\": 1.0}, \"28\": {\"I\": 1.0}, \"29\": {\"I\": 1.0}, \"30\": {\"Cs\": 1.0}, \"31\": {\"Cs\": 1.0}, \"32\": {\"K\": 1.0}, \"33\": {\"In\": 1.0}, \"34\": {\"I\": 1.0}, \"35\": {\"I\": 1.0}, \"36\": {\"I\": 1.0}, \"37\": {\"I\": 1.0}, \"38\": {\"I\": 1.0}, \"39\": {\"I\": 1.0}}" energy=-103.03702417651955 free_energy=-103.03702417651955 stress="4.497193879576882e-06 4.3156165729814065e-06 3.487299456119974e-06 4.3156165729814065e-06 -8.700609375114072e-07 4.555109986237399e-06 3.487299456119974e-06 4.555109986237399e-06 -5.5147155330105255e-06" pbc="T T T"
Cs       4.69063766       0.13690271       0.36984601        0      -0.00032946       0.00021150      -0.00023881
Cs      -2.68065609      11.45160292       4.80495825        1       0.00012875      -0.00018316       0.00006705
K       -0.47272722       2.96830166       2.87704358        2      -0.00013421      -0.00028644      -0.00008575
In      20.98945977      -2.31554516      -1.00677577        3       0.00003297       0.00016356      -0.00024159
I       18.41042336       1.77730446       0.66799897        4       0.00020415       0.00022253       0.00028698
I        5.12397494      11.78629685       7.28943610        5       0.00005308       0.00046740      -0.00000605
I        1.37778240       9.51852452       6.74397341        6      -0.00001360       0.00009235       0.00009429
I        1.19282549       6.24384992       2.68277416        7      -0.00016691      -0.00029817       0.00002246
I       -5.44988690       8.75669978       4.18755399        8       0.00023756      -0.00007973      -0.00004289
I        8.80753242       6.12946156       5.07110564        9       0.00049297       0.00045266       0.00041257
Cs      -3.14535326       7.82253787       1.12714067       10       0.00050925       0.00016122       0.00006892
Cs     -10.50812414      19.13277785       5.56680301       11      -0.00018314      -0.00013546      -0.00006527
K       13.55665004       8.50418051       2.93173868       12       0.00036926      -0.00003326      -0.00004372
In      13.14451104       5.37499260      -0.25051838       13       0.00013101       0.00002031      -0.00005455
I       10.56799576       9.47014438       1.42968020       14      -0.00015224      -0.00010679      -0.00029208
I       -2.72054567      19.47021681       8.03700322       15      -0.00044827      -0.00027144       0.00014563
I       -6.47484782      17.21282743       7.49697876       16      -0.00018192       0.00002862      -0.00011455
I       -6.63747601      13.92645007       3.44235518       17       0.00001407      -0.00003465      -0.00011442
I        2.39430704       1.07299246       3.43536251       18       0.00003478       0.00010619       0.00016165
I        0.96784067      13.81342154       5.82107535       19      -0.00013625      -0.00073081      -0.00011744
Cs      15.62699544      -0.93911847       0.01768112       20      -0.00063569      -0.00005357       0.00016967
Cs       8.25535450      10.37514846       4.45349845       21       0.00032548       0.00014451       0.00049333
K       10.46390516       1.89185628       2.52672662       22      -0.00034606      -0.00035307      -0.00031927
In      10.05242214      -1.23929998      -0.65550230       23      -0.00036379       0.00030441       0.00017267
I        7.47465349       2.85360795       1.01948738       24      -0.00052841       0.00029862       0.00004133
I       16.05975827      10.70987738       6.93866250       25       0.00056004      -0.00025279       0.00008037
I       12.31384856       8.44204081       6.39327081       26      -0.00012665       0.00003279      -0.00001651
I       12.12817496       5.16763674       2.33209204       27       0.00019644       0.00001175      -0.00026602
I        5.48688480       7.68032207       3.83674511       28      -0.00022886      -0.00000704      -0.00030605
I       19.74468761       5.05336386       4.71978297       29      -0.00016962       0.00028698      -0.00012516
Cs       7.79158403       6.74617619       0.77620194       30       0.00061255       0.00004561      -0.00013847
Cs       0.42776161      18.05612850       5.21568849       31       0.00006799       0.00029266      -0.00035840
K        2.62014755       9.57954160       3.28181042       32       0.00026725       0.00071552       0.00029517
In       2.20874109       6.45161874       0.09997898       33       0.00035233      -0.00018514      -0.00024786
I       -0.36901597      10.54679381       1.78045077       34       0.00041638      -0.00044843       0.00004288
I        8.21645533      18.39386371       7.68585277       35      -0.00052913       0.00001760      -0.00001570
I        4.46183398      16.13715583       7.14521214       36      -0.00000098      -0.00057072      -0.00015333
I        4.29946932      12.84981907       3.09087708       37      -0.00026308      -0.00002716       0.00055447
I       13.33074292      -0.00373116       3.08387254       38       0.00016632       0.00009338       0.00030148
I       11.90410267      12.73580885       5.46992920       39      -0.00023437      -0.00011235      -0.00004702
