10
Lattice="10.759411943506873 0.7494431897242765 1.1396994205144433 -8.696318207659418 6.393214887953688 1.046298380082701 -5.503144000128669 -8.249056853304024 4.6692149584113" Properties=species:S:1:pos:R:3:spacegroup_kinds:I:1 spacegroup="_JSON {\"number\": 1, \"setting\": 1}" unit_cell=conventional occupancy="_JSON {\"0\": {\"Cs\": 1.0}, \"1\": {\"Cs\": 1.0}, \"2\": {\"K\": 1.0}, \"3\": {\"In\": 1.0}, \"4\": {\"I\": 1.0}, \"5\": {\"I\": 1.0}, \"6\": {\"I\": 1.0}, \"7\": {\"I\": 1.0}, \"8\": {\"I\": 1.0}, \"9\": {\"I\": 1.0}}" pbc="T T T"
Cs      -7.72303032      -2.23747993       4.30108410        0
Cs       0.28494686      -5.61347788       7.77562788        1
K       -1.99858379      -3.37121152       2.61143774        2
In       0.75297440       0.75254386       0.27670567        3
I       -1.75612235      -0.36557653       0.63997981        4
I       -1.02662717      -2.17688438       5.86807026        5
I        1.12011565      -4.68688667       3.96430100        6
I       -3.05361644       5.08405588       3.44385170        7
I       -8.91366961       0.66560684       1.59557729        8
I       -4.99340370      -5.21848304       3.38747628        9
