40
Lattice="18.581509740563305 0.7742179354526644 -0.012361215898297771 -9.962461006269976 15.70514941220743 0.0027011336580255963 0.005047557828938712 0.0002738243132579267 8.82879290268369" Properties=species:S:1:pos:R:3:spacegroup_kinds:I:1:forces:R:3 spacegroup="P 1" unit_cell=conventional occupancy="_JSON {\"0\": {\"Cs\": 1.0}, \"1\": {\"Cs\": 1.0}, \"2\": {\"K\": 1.0}, \"3\": {\"In\": 1.0}, \"4\": {\"I\": 1.0}, \"5\": {\"I\": 1.0}, \"6\": {\"I\": 1.0}, \"7\": {\"I\": 1.0}, \"8\": {\"I\": 1.0}, \"9\": {\"I\": 1.0}, \"10\": {\"Cs\": 1.0}, \"11\": {\"Cs\": 1.0}, \"12\": {\"K\": 1.0}, \"13\": {\"In\": 1.0}, \"14\": {\"I\": 1.0}, \"15\": {\"I\": 1.0}, \"16\": {\"I\": 1.0}, \"17\": {\"I\": 1.0}, \"18\": {\"I\": 1.0}, \"19\": {\"I\": 1.0}, \"20\": {\"Cs\": 1.0}, \"21\": {\"Cs\": 1.0}, \"22\": {\"K\": 1.0}, \"23\": {\"In\": 1.0}, \"24\": {\"I\": 1.0}, \"25\": {\"I\": 1.0}, \"26\": {\"I\": 1.0}, \"27\": {\"I\": 1.0}, \"28\": {\"I\": 1.0}, \"29\": {\"I\": 1.0}, \"30\": {\"Cs\": 1.0}, \"31\": {\"Cs\": 1.0}, \"32\": {\"K\": 1.0}, \"33\": {\"In\": 1.0}, \"34\": {\"I\": 1.0}, \"35\": {\"I\": 1.0}, \"36\": {\"I\": 1.0}, \"37\": {\"I\": 1.0}, \"38\": {\"I\": 1.0}, \"39\": {\"I\": 1.0}}" energy=-103.17526826524646 free_energy=-103.17526826524646 stress="-1.9276214402279826e-06 -1.5062398398540415e-07 -5.452289909572258e-07 -1.5062398398540415e-07 -5.797808445784804e-07 -2.9178252710411583e-06 -5.452289909572258e-07 -2.9178252710411583e-06 4.660737782115953e-07" pbc="T T T"
Cs       4.79554864       2.76976510       8.83238060        0      -0.00005345       0.00022210       0.00030849
Cs       0.03295636       5.25821429      -0.00855849        1       0.00011531      -0.00028078      -0.00000507
K       -9.70292262      15.59944858       4.41686911        2      -0.00019301      -0.00013344       0.00023102
In      -9.70534476      15.59905735       0.00232731        3      -0.00054135       0.00024357       0.00051590
I       -2.84944328      15.88024816       1.76418785        4      -0.00013322       0.00000120      -0.00001316
I       -2.28433193       7.85291435       7.06204238        5      -0.00001196      -0.00012505      -0.00016160
I        1.38360924       2.05695119       1.76524114        6       0.00029173       0.00028057      -0.00035067
I        3.44467066       5.97058518       7.05866022        7       0.00028784       0.00062068      -0.00032141
I        5.87776741       6.07797769       1.76118289        8       0.00013502      -0.00066722      -0.00036368
I       -1.04919253       1.95034688       7.06258562        9       0.00010940      -0.00015904       0.00016014
Cs      -0.18568186      10.62233981       8.83373116       10      -0.00005341       0.00022206       0.00030851
Cs      -4.94827414      13.11078900      -0.00720793       11       0.00011530      -0.00028081      -0.00000507
K       -4.72169212       7.74687387       4.41551854       12      -0.00019297      -0.00013344       0.00023103
In      -4.72411430       7.74648265       0.00097675       13      -0.00054108       0.00024354       0.00051589
I        2.13178718       8.02767344       1.76283730       14      -0.00013299       0.00000122      -0.00001329
I       -7.26556245      15.70548906       7.06339295       15      -0.00001186      -0.00012505      -0.00016164
I       -3.59762126       9.90952590       1.76659171       16       0.00029170       0.00028056      -0.00035069
I       -1.53655983      13.82315989       7.06001079       17       0.00028777       0.00062061      -0.00032148
I        0.89653692      13.93055239       1.76253347       18       0.00013496      -0.00066717      -0.00036373
I       -6.03042303       9.80292158       7.06393619       19       0.00010936      -0.00015899       0.00016012
Cs      14.08630342       3.15687399       8.82619998       20      -0.00005290       0.00022265       0.00030860
Cs       9.32371133       5.64532335      -0.01473909       21       0.00011478      -0.00028140      -0.00000515
K       -0.41216745      15.98655766       4.41068852       22      -0.00019474      -0.00013414       0.00023084
In      -0.41458806      15.98616700      -0.00385336       23      -0.00055219       0.00023918       0.00051646
I        6.44131225      16.26735721       1.75800702       24      -0.00013719       0.00000088      -0.00001117
I        7.00642222       8.24002322       7.05586201       25      -0.00000763      -0.00012470      -0.00016377
I       10.67436382       2.44405984       1.75906036       26       0.00029331       0.00028298      -0.00034920
I       12.73542584       6.35769448       7.05247978       27       0.00028615       0.00061819      -0.00032297
I       -3.41298729       5.69086874       1.76736355       28       0.00013396      -0.00066723      -0.00036411
I        8.24156218       2.33745582       7.05640497       29       0.00011036      -0.00015893       0.00016050
Cs       9.10507291      11.00944869       8.82755055       30      -0.00005289       0.00022268       0.00030859
Cs       4.34248083      13.49789805      -0.01338852       31       0.00011475      -0.00028137      -0.00000517
K        4.56906307       8.13398295       4.40933796       32      -0.00019484      -0.00013416       0.00023083
In       4.56664256       8.13359232      -0.00520393       33      -0.00055286       0.00023908       0.00051650
I       11.42254277       8.41478251       1.75665645       34      -0.00013730       0.00000087      -0.00001112
I        2.02519176      16.09259793       7.05721256       35      -0.00000787      -0.00012472      -0.00016364
I        5.69313331      10.29663454       1.76041092       36       0.00029340       0.00028305      -0.00034912
I        7.75419533      14.21026918       7.05383035       37       0.00028618       0.00061820      -0.00032295
I       -8.39421780      13.54344345       1.76871412       38       0.00013400      -0.00066728      -0.00036409
I        3.26033167      10.19003053       7.05775553       39       0.00011042      -0.00015898       0.00016055
