40
Lattice="17.2560205064527 0.0 0.0 -9.960204942850282 17.25158101481536 0.0 0.0 0.0 9.91153358120625" Properties=species:S:1:pos:R:3 pbc="T T T"
Cs       4.33575722       2.75037554       9.90220883
Cs      -0.20028036       5.62563904       0.00930628
K        0.24378521      -0.12488798       4.95576627
In       0.24378715      -0.12488913       0.00000375
I        6.60885923      -0.11889625       1.98262484
I       -2.47338407       8.49490364       7.92890843
I        1.20508564       2.13400559       1.98262758
I        2.93039691       6.24201206       7.92891117
I        5.19332890       6.23601610       1.98262609
I       -1.05785179       2.14000025       7.92890967
Cs      -0.64434525      11.37616605       9.90220883
Cs      -5.18038283      14.25142955       0.00930628
K       -4.73631726       8.50090253       4.95576627
In      -4.73631532       8.50090138       0.00000375
I        1.62875676       8.50689425       1.98262484
I       -7.45348655      17.12069414       7.92890843
I       -3.77501683      10.75979610       1.98262758
I       -2.04970556      14.86780257       7.92891117
I        0.21322643      14.86180661       1.98262609
I       -6.03795426      10.76579076       7.92890967
Cs      12.96376747       2.75037554       9.90220883
Cs       8.42772989       5.62563904       0.00930628
K        8.87179546      -0.12488798       4.95576627
In       8.87179741      -0.12488913       0.00000375
I       15.23686948      -0.11889625       1.98262484
I        6.15462618       8.49490364       7.92890843
I        9.83309589       2.13400559       1.98262758
I       11.55840717       6.24201206       7.92891117
I       13.82133916       6.23601610       1.98262609
I        7.57015846       2.14000025       7.92890967
Cs       7.98366500      11.37616605       9.90220883
Cs       3.44762742      14.25142955       0.00930628
K        3.89169299       8.50090253       4.95576627
In       3.89169494       8.50090138       0.00000375
I       10.25676701       8.50689425       1.98262484
I        1.17452371      17.12069414       7.92890843
I        4.85299342      10.75979610       1.98262758
I        6.57830469      14.86780257       7.92891117
I        8.84123669      14.86180661       1.98262609
I        2.59005599      10.76579076       7.92890967
