10
Lattice="13.243572358857511 -0.05268956615292023 -0.23132276147557435 -6.193480082889568 7.659463144008124 -0.4034408140314224 4.925824198580679 8.96283861824131 4.687334930430464" Properties=species:S:1:pos:R:3:spacegroup_kinds:I:1:forces:R:3 spacegroup="P 1" unit_cell=conventional occupancy="_JSON {\"0\": {\"Cs\": 1.0}, \"1\": {\"Cs\": 1.0}, \"2\": {\"K\": 1.0}, \"3\": {\"In\": 1.0}, \"4\": {\"I\": 1.0}, \"5\": {\"I\": 1.0}, \"6\": {\"I\": 1.0}, \"7\": {\"I\": 1.0}, \"8\": {\"I\": 1.0}, \"9\": {\"I\": 1.0}}" energy=-24.3101737728768 free_energy=-24.3101737728768 stress="5.0113855920901694e-06 -6.115686367707882e-06 -5.332541486568098e-06 -6.115686367707882e-06 8.987230918723473e-06 9.653379601710906e-07 -5.332541486568098e-06 9.653379601710906e-07 -1.2393477044933371e-05" pbc="T T T"
Cs      13.20098143      12.09097141       4.73837191        0       0.00012392      -0.00020805       0.00017401
Cs       0.67436798       5.01233697      -1.57085941        1       0.00004427       0.00006365      -0.00024343
K        8.39355546       9.76201547       3.07231150        2       0.00006329      -0.00004513       0.00007946
In      -6.32219619       8.03798104      -0.36195925        3      -0.00002125       0.00029793       0.00007417
I        5.92840340      10.70346553       0.83772824        4      -0.00000680       0.00009080       0.00014349
I        1.61655523      14.10369499       1.75732469        5       0.00008937      -0.00003007      -0.00046051
I        4.15492898       3.32919716       1.91219704        6      -0.00013094      -0.00021832      -0.00006881
I       10.04755431      13.36856139       2.29761187        7       0.00003516      -0.00018028       0.00016142
I       -0.50443342       8.03319040       0.46792828        8      -0.00008210       0.00006510       0.00004876
I        1.85356819       8.60837947       4.11041384        9      -0.00011493       0.00016437       0.00009143
