10
Lattice="10.442680112800934 0.0 0.0 -4.887076327175907 5.7509353339796485 0.0 3.9235545406251346 7.029308694431744 4.2548956620634595" Properties=species:S:1:pos:R:3 pbc="T T T"
Cs       9.88847376       8.88447679       4.25087466
Cs       0.86237564       3.78535976       0.00397707
K        1.96177727       3.51465435       2.12744783
In       0.63585222      -0.05520496       0.00001167
I        9.12527108       1.35487186       0.85111945
I        1.62557435      11.31494664       3.40378358
I        2.88283016       2.85692358       0.85112426
I        7.86803403       9.81292278       3.40378839
I        8.25223538       5.59178970       0.85111859
I        2.49861401       7.07805233       3.40378272
