80
Lattice="16.987415849174653 -0.14830984713121922 1.1314179019115755 -8.026429597132596 14.415847656443708 -3.5677125196119595 2.610910860194829 5.389426009154365 15.931825068901395" Properties=species:S:1:pos:R:3:spacegroup_kinds:I:1:forces:R:3 spacegroup="P 1" unit_cell=conventional occupancy="_JSON {\"0\": {\"Cs\": 1.0}, \"1\": {\"Cs\": 1.0}, \"2\": {\"K\": 1.0}, \"3\": {\"In\": 1.0}, \"4\": {\"I\": 1.0}, \"5\": {\"I\": 1.0}, \"6\": {\"I\": 1.0}, \"7\": {\"I\": 1.0}, \"8\": {\"I\": 1.0}, \"9\": {\"I\": 1.0}, \"10\": {\"Cs\": 1.0}, \"11\": {\"Cs\": 1.0}, \"12\": {\"K\": 1.0}, \"13\": {\"In\": 1.0}, \"14\": {\"I\": 1.0}, \"15\": {\"I\": 1.0}, \"16\": {\"I\": 1.0}, \"17\": {\"I\": 1.0}, \"18\": {\"I\": 1.0}, \"19\": {\"I\": 1.0}, \"20\": {\"Cs\": 1.0}, \"21\": {\"Cs\": 1.0}, \"22\": {\"K\": 1.0}, \"23\": {\"In\": 1.0}, \"24\": {\"I\": 1.0}, \"25\": {\"I\": 1.0}, \"26\": {\"I\": 1.0}, \"27\": {\"I\": 1.0}, \"28\": {\"I\": 1.0}, \"29\": {\"I\": 1.0}, \"30\": {\"Cs\": 1.0}, \"31\": {\"Cs\": 1.0}, \"32\": {\"K\": 1.0}, \"33\": {\"In\": 1.0}, \"34\": {\"I\": 1.0}, \"35\": {\"I\": 1.0}, \"36\": {\"I\": 1.0}, \"37\": {\"I\": 1.0}, \"38\": {\"I\": 1.0}, \"39\": {\"I\": 1.0}, \"40\": {\"Cs\": 1.0}, \"41\": {\"Cs\": 1.0}, \"42\": {\"K\": 1.0}, \"43\": {\"In\": 1.0}, \"44\": {\"I\": 1.0}, \"45\": {\"I\": 1.0}, \"46\": {\"I\": 1.0}, \"47\": {\"I\": 1.0}, \"48\": {\"I\": 1.0}, \"49\": {\"I\": 1.0}, \"50\": {\"Cs\": 1.0}, \"51\": {\"Cs\": 1.0}, \"52\": {\"K\": 1.0}, \"53\": {\"In\": 1.0}, \"54\": {\"I\": 1.0}, \"55\": {\"I\": 1.0}, \"56\": {\"I\": 1.0}, \"57\": {\"I\": 1.0}, \"58\": {\"I\": 1.0}, \"59\": {\"I\": 1.0}, \"60\": {\"Cs\": 1.0}, \"61\": {\"Cs\": 1.0}, \"62\": {\"K\": 1.0}, \"63\": {\"In\": 1.0}, \"64\": {\"I\": 1.0}, \"65\": {\"I\": 1.0}, \"66\": {\"I\": 1.0}, \"67\": {\"I\": 1.0}, \"68\": {\"I\": 1.0}, \"69\": {\"I\": 1.0}, \"70\": {\"Cs\": 1.0}, \"71\": {\"Cs\": 1.0}, \"72\": {\"K\": 1.0}, \"73\": {\"In\": 1.0}, \"74\": {\"I\": 1.0}, \"75\": {\"I\": 1.0}, \"76\": {\"I\": 1.0}, \"77\": {\"I\": 1.0}, \"78\": {\"I\": 1.0}, \"79\": {\"I\": 1.0}}" energy=-205.76054537675913 free_energy=-205.76054537675913 stress="8.814636584658634e-06 -4.498528746225723e-06 -7.017167902595049e-06 -4.498528746225723e-06 2.115547461829144e-06 -1.3609195154774666e-05 -7.017167902595049e-06 -1.3609195154774666e-05 -4.714858603678911e-06" pbc="T T T"
Cs       4.30636828      10.70053003      13.03139329        0       0.00006217      -0.00045697      -0.00031996
Cs       8.73826970       9.30212417      17.38891041        1      -0.00034725       0.00016928       0.00021520
K        2.32451220       2.39217499       3.86965060        2      -0.00017072      -0.00004376      -0.00028233
In       1.67145102       1.04384194      -0.11357359        3      -0.00021227       0.00047510       0.00040522
I        1.97813317       3.86580575       0.71238814        4      -0.00009206      -0.00022928       0.00013483
I        7.14959809       8.05099201       5.80916689        5       0.00024709      -0.00005385      -0.00007350
I        4.86922685       4.20486797       5.47346904        6      -0.00029760      -0.00008169      -0.00007510
I        8.27148179       0.50438171       2.83249692        7       0.00016850       0.00005259      -0.00007815
I       -0.04895191       7.50484663      -0.18677604        8      -0.00017031       0.00005819      -0.00014504
I        0.68257865       4.48670084       6.14419316        9       0.00000981       0.00010909       0.00008282
Cs       3.00173085       8.00428821       5.06539371       10      -0.00017580       0.00013591       0.00005478
Cs       7.43155578       6.60739327       9.42408422       11      -0.00002796       0.00010264      -0.00013555
K        3.62897538       5.08439445      11.83611173       12      -0.00030260       0.00041133       0.00024015
In       2.97653840       3.73899792       7.85271324       13      -0.00039201      -0.00023204       0.00016347
I        3.28241478       6.56052802       8.68007864       14      -0.00007214       0.00010159      -0.00023188
I        8.45373304      10.74569605      13.77506975       15       0.00037169       0.00039323      -0.00012140
I        6.17458816       6.89712447      13.43834715       16      -0.00004660       0.00059323       0.00012342
I        9.57791845       3.19822286      10.79886392       17      -0.00010682       0.00001040       0.00020683
I        1.25782152      10.20037199       7.77821892       18      -0.00045368      -0.00004240       0.00001149
I        1.98817348       7.18056104      14.10996236       19       0.00008415       0.00009930      -0.00005501
Cs       0.29299102      17.90447952      11.24661346       20       0.00008533       0.00060203       0.00032325
Cs       4.72252160      16.51106261      15.60580023       21       0.00017659      -0.00029932      -0.00001774
K       -1.69065479       9.59917560       2.08747868       22       0.00006224       0.00004737      -0.00005548
In      -2.34283429       8.25245633      -1.89540044       23       0.00033216       0.00050403      -0.00008372
I       -2.03692438      11.07442582      -1.06882093       24      -0.00006735      -0.00046129      -0.00029946
I        3.13802367      15.25871051       4.02459833       25      -0.00025590       0.00004254      -0.00006960
I        0.85465885      11.41271231       3.68958264       26       0.00016462      -0.00003840       0.00013782
I        4.25797145       7.71322907       1.04927552       27       0.00014204       0.00004602       0.00004331
I       -4.06085748      14.71285939      -1.97275825       28      -0.00017473      -0.00035868       0.00022202
I       -3.33151730      11.69403144       4.36194111       29       0.00013624      -0.00010696      -0.00022358
Cs      -1.01234102      15.21078587       3.28100596       30       0.00005437       0.00012324      -0.00006317
Cs       3.41840857      13.81619366       7.63925201       31       0.00008277      -0.00010972       0.00007297
K       -0.38391867      12.29536427      10.05272237       32       0.00020308      -0.00027673      -0.00025739
In      -1.03689082      10.94716656       6.07010415       33       0.00009780      -0.00032280       0.00000872
I       -0.73049665      13.76904660       6.89588413       34      -0.00018431       0.00007561       0.00010599
I        4.44255627      17.95320820      11.99064776       35      -0.00023071       0.00026206       0.00009941
I        2.16063705      14.10826658      11.65677722       36       0.00012520      -0.00024708      -0.00019512
I        5.56375733      10.40754113       9.01473347       37      -0.00006735       0.00004798       0.00013280
I       -2.75607689      17.40704934       5.99350376       38       0.00019230      -0.00030288       0.00014147
I       -2.02555007      14.38958127      12.32718779       39      -0.00025024      -0.00000927      -0.00002318
Cs      12.80168616      10.62572637      13.59730000       40      -0.00034497      -0.00020672      -0.00022149
Cs      17.22985333       9.22649843      17.95420486       41       0.00027814       0.00005561       0.00019985
K       10.81606523       2.31735876       4.43606371       42       0.00035107       0.00002776       0.00009625
In      10.16430225       0.96983818       0.45272984       43      -0.00001671      -0.00014938       0.00007234
I       10.47069235       3.79157940       1.27954796       44       0.00005057       0.00035736      -0.00020338
I       -1.34295378       8.12518868       5.24404091       45      -0.00008335       0.00023247      -0.00005159
I       13.36119089       4.13123118       6.03856236       46       0.00009319      -0.00017269       0.00017073
I       16.76665905       0.43106323       3.39838580       47      -0.00027780      -0.00025141      -0.00002094
I        8.44427821       7.43002039       0.37806365       48       0.00014449      -0.00000926       0.00024996
I        9.17490462       4.41154756       6.71111932       49       0.00013489      -0.00003835      -0.00027935
Cs      11.49431980       7.92932639       5.63094213       50      -0.00003897       0.00011987       0.00019232
Cs      15.92640937       6.53422355       9.98985430       51      -0.00017010      -0.00034209      -0.00011405
K       12.12262017       5.01153363      12.40187368       52       0.00021708       0.00039395      -0.00013760
In      11.46969067       3.66471513       8.41887038       53       0.00051634       0.00058407      -0.00002200
I       11.77525116       6.48673362       9.24562750       54       0.00013261      -0.00068144      -0.00012290
I       -0.03766151      10.82034687      13.20902458       55       0.00003585      -0.00063906       0.00002771
I       14.66809413       6.82463891      14.00520369       56      -0.00010477       0.00001412       0.00014187
I       18.07105269       3.12428467      11.36378509       57       0.00024344       0.00023396      -0.00007459
I        9.75031198      10.12532235       8.34412053       58      -0.00010673      -0.00021383      -0.00001399
I       10.48169999       7.10708131      14.67583776       59      -0.00001553      -0.00022390      -0.00006372
Cs       8.78586646      17.83148902      11.81236826       60       0.00032228       0.00024264       0.00011430
Cs      13.21813973      16.43679470      16.17180767       61      -0.00032798      -0.00004179       0.00007552
K        6.80364809       9.52573907       2.65227825       62       0.00008672      -0.00015815      -0.00005264
In       6.15037874       8.17804078      -1.33031881       63       0.00000249      -0.00040716      -0.00051736
I        6.45773428      10.99982610      -0.50454710       64       0.00016104       0.00010000       0.00010678
I       -5.35635499      15.33298114       3.45851202       65       0.00011719       0.00003828      -0.00020962
I        9.34920474      11.33778319       4.25566689       66      -0.00000431       0.00005248      -0.00003848
I       12.75183234       7.63788682       1.61473031       67       0.00001605       0.00020598       0.00028483
I        4.43146771      14.63801453      -1.40582104       68       0.00003294       0.00001789      -0.00002372
I        5.16283001      11.62081874       4.92643308       69       0.00004199      -0.00022177       0.00002257
Cs       7.48247848      15.13852817       3.84642808       70      -0.00004151      -0.00010655       0.00010672
Cs      11.91052997      13.74128178       8.20476883       71       0.00017262       0.00005055       0.00019519
K        8.10834870      12.22051449      10.61810298       72       0.00025271      -0.00029774       0.00034724
In       7.45643389      10.87273152       6.63535161       73      -0.00002004       0.00007622      -0.00018538
I        7.76315429      13.69460225       7.46133908       74      -0.00014592       0.00033811      -0.00010000
I       -4.05153183      18.02703540      11.42555093       75      -0.00001251      -0.00005690      -0.00004866
I       10.65389476      14.03203128      12.22141714       76       0.00006582       0.00022630       0.00022280
I       14.05876488      10.33325750       9.58154097       77      -0.00014426      -0.00000799       0.00000485
I        5.73805504      17.33382618       6.55919910       78      -0.00032634       0.00015932      -0.00010650
I        6.46760979      14.31574864      12.89269684       79       0.00001252      -0.00009038      -0.00014350
