80
Lattice="19.28089336621519 0.0 0.0 -9.202352635494345 15.938942313841572 0.0 2.3289402789915403 9.402512227447026 14.675124936553182" Properties=species:S:1:pos:R:3 pbc="T T T"
Cs       2.24532455       6.62008720      -0.00005338
Cs       6.99253222       3.96359681      -0.00005338
K        2.68153955       3.65772335       3.66879950
In       2.09931722       1.30711552       0.00004911
I        3.65358953       4.33727489       1.46804424
I        6.74878921      10.94767430       5.86959982
I        5.55851794       5.06777173       5.86959451
I        7.34569010       0.94056578       1.46800345
I       -1.06248598       8.12757431       1.46801853
I        1.82435648       7.15742400       5.86957411
Cs       3.40979469      11.32134331       7.33750909
Cs       8.15700235       8.66485293       7.33750909
K        3.84600969       8.35897947      11.00636196
In       3.26378736       6.00837164       7.33761158
I        4.81805967       9.03853100       8.80560671
I        7.91325935      15.64893041      13.20716228
I        6.72298808       9.76902784      13.20715698
I        8.51016024       5.64182189       8.80556591
I        0.10198416      12.82883042       8.80558100
I        2.98882662      11.85868011      13.20713657
Cs      -2.35585177      14.58955835      -0.00005338
Cs       2.39135590      11.93306797      -0.00005338
K       -1.91963677      11.62719451       3.66879950
In      -2.50185909       9.27658668       0.00004911
I       -0.94758679      12.30674604       1.46804424
I        2.14761289      18.91714545       5.86959982
I        0.95734162      13.03724289       5.86959451
I        2.74451379       8.91003694       1.46800345
I       -5.66366230      16.09704546       1.46801853
I       -2.77681983      15.12689516       5.86957411
Cs      -1.19138163      19.29081447       7.33750909
Cs       3.55582604      16.63432408       7.33750909
K       -0.75516663      16.32845063      11.00636196
In      -1.33738895      13.97784279       7.33761158
I        0.21688335      17.00800216       8.80560671
I        3.31208303      23.61840157      13.20716228
I        2.12181176      17.73849900      13.20715698
I        3.90898393      13.61129305       8.80556591
I       -4.49919216      20.79830158       8.80558100
I       -1.61234970      19.82815127      13.20713657
Cs      11.88577123       6.62008720      -0.00005338
Cs      16.63297890       3.96359681      -0.00005338
K       12.32198623       3.65772335       3.66879950
In      11.73976391       1.30711552       0.00004911
I       13.29403621       4.33727489       1.46804424
I       16.38923590      10.94767430       5.86959982
I       15.19896462       5.06777173       5.86959451
I       16.98613679       0.94056578       1.46800345
I        8.57796070       8.12757431       1.46801853
I       11.46480317       7.15742400       5.86957411
Cs      13.05024137      11.32134331       7.33750909
Cs      17.79744904       8.66485293       7.33750909
K       13.48645637       8.35897947      11.00636196
In      12.90423405       6.00837164       7.33761158
I       14.45850635       9.03853100       8.80560671
I       17.55370603      15.64893041      13.20716228
I       16.36343476       9.76902784      13.20715698
I       18.15060693       5.64182189       8.80556591
I        9.74243084      12.82883042       8.80558100
I       12.62927331      11.85868011      13.20713657
Cs       7.28459491      14.58955835      -0.00005338
Cs      12.03180258      11.93306797      -0.00005338
K        7.72080991      11.62719451       3.66879950
In       7.13858759       9.27658668       0.00004911
I        8.69285989      12.30674604       1.46804424
I       11.78805958      18.91714545       5.86959982
I       10.59778830      13.03724289       5.86959451
I       12.38496047       8.91003694       1.46800345
I        3.97678438      16.09704546       1.46801853
I        6.86362685      15.12689516       5.86957411
Cs       8.44906505      19.29081447       7.33750909
Cs      13.19627272      16.63432408       7.33750909
K        8.88528005      16.32845063      11.00636196
In       8.30305773      13.97784279       7.33761158
I        9.85733003      17.00800216       8.80560671
I       12.95252972      23.61840157      13.20716228
I       11.76225844      17.73849900      13.20715698
I       13.54943061      13.61129305       8.80556591
I        5.14125452      20.79830158       8.80558100
I        8.02809699      19.82815127      13.20713657
