40
Lattice="18.405333453913443 0.323811734080023 0.37828131082063826 -9.113778831575003 17.660278773391678 0.4226372409200888 0.18103042983542494 3.890424283826672 7.674400599384869" Properties=species:S:1:pos:R:3:spacegroup_kinds:I:1:forces:R:3 spacegroup="P 1" unit_cell=conventional occupancy="_JSON {\"0\": {\"Cs\": 1.0}, \"1\": {\"Cs\": 1.0}, \"2\": {\"K\": 1.0}, \"3\": {\"In\": 1.0}, \"4\": {\"I\": 1.0}, \"5\": {\"I\": 1.0}, \"6\": {\"I\": 1.0}, \"7\": {\"I\": 1.0}, \"8\": {\"I\": 1.0}, \"9\": {\"I\": 1.0}, \"10\": {\"Cs\": 1.0}, \"11\": {\"Cs\": 1.0}, \"12\": {\"K\": 1.0}, \"13\": {\"In\": 1.0}, \"14\": {\"I\": 1.0}, \"15\": {\"I\": 1.0}, \"16\": {\"I\": 1.0}, \"17\": {\"I\": 1.0}, \"18\": {\"I\": 1.0}, \"19\": {\"I\": 1.0}, \"20\": {\"Cs\": 1.0}, \"21\": {\"Cs\": 1.0}, \"22\": {\"K\": 1.0}, \"23\": {\"In\": 1.0}, \"24\": {\"I\": 1.0}, \"25\": {\"I\": 1.0}, \"26\": {\"I\": 1.0}, \"27\": {\"I\": 1.0}, \"28\": {\"I\": 1.0}, \"29\": {\"I\": 1.0}, \"30\": {\"Cs\": 1.0}, \"31\": {\"Cs\": 1.0}, \"32\": {\"K\": 1.0}, \"33\": {\"In\": 1.0}, \"34\": {\"I\": 1.0}, \"35\": {\"I\": 1.0}, \"36\": {\"I\": 1.0}, \"37\": {\"I\": 1.0}, \"38\": {\"I\": 1.0}, \"39\": {\"I\": 1.0}}" energy=-102.61408296755911 free_energy=-102.61408296755911 stress="2.958582375086411e-07 3.2363304525826174e-06 -5.714207763681078e-06 3.2363304525826174e-06 5.12031551000313e-07 -1.93313602704531e-06 -5.714207763681078e-06 -1.93313602704531e-06 7.873279305246823e-07" pbc="T T T"
Cs       5.49173302       6.17008554       6.51360610        0      -0.00026080       0.00031623      -0.00005138
Cs       0.78891486       6.14285106       1.57063440        1      -0.00026657       0.00034357      -0.00009888
K       -8.29724349      19.32110237       4.26469559        2       0.00020032       0.00001977      -0.00004330
In      -8.38689043      17.37614558       0.42737322        3       0.00004451      -0.00077499       0.00010897
I       -1.66609765      18.28776349       2.12993075        4       0.00012520       0.00007842       0.00007916
I       -1.16755873      11.68609156       6.37672892        5       0.00006881      -0.00000184       0.00018590
I        1.88392678       2.42910806       0.59500912        6      -0.00018697       0.00009511      -0.00003879
I        4.39687358       9.88466540       7.48975471        7      -0.00012946      -0.00020876      -0.00001966
I        6.55536163       7.59213107       2.93583421        8       0.00020000      -0.00037437       0.00010132
I       -0.27487595       4.72230219       5.14860425        9       0.00011572      -0.00010550      -0.00004825
Cs       0.93484438      15.00021982       6.72492424       10      -0.00026952       0.00035098      -0.00004971
Cs      -3.76797539      14.97299632       1.78195260       11      -0.00025731       0.00030317      -0.00009453
K       -3.74035431      10.49094792       4.05338511       12       0.00020385       0.00012441      -0.00011186
In      -3.83000364       8.54591730       0.21608599       13       0.00006869      -0.00013130      -0.00012939
I        2.89078543       9.45763384       1.91861448       14       0.00017349       0.00001357       0.00006778
I       -5.72444902      20.51622391       6.58805059       15       0.00007286       0.00004759       0.00016565
I       -2.67294805      11.25928785       0.80633438       16      -0.00029834      -0.00017476      -0.00006246
I       -0.16003297      18.71475635       7.70106531       17      -0.00000179       0.00010644       0.00000822
I        1.99848296      16.42225712       3.14717775       18       0.00011893      -0.00027063      -0.00006575
I       -4.83177677      13.55245661       5.35989617       19       0.00020369      -0.00022128       0.00013256
Cs      14.69440367       6.33198699       6.70274455       20      -0.00029269       0.00034263      -0.00003672
Cs       9.99157738       6.30476217       1.75977625       21      -0.00023304       0.00031139      -0.00010759
K        0.90542224      19.48300259       4.45384478       22       0.00021533       0.00005390      -0.00010608
In       0.81576834      17.53799439       0.61651562       23       0.00012884      -0.00039851       0.00009955
I        7.53656917      18.44966706       2.31907006       24       0.00013126       0.00009316       0.00008749
I        8.03510027      11.84800323       6.56587743       25       0.00011890      -0.00003476       0.00014200
I       11.08660400       2.59104234       0.78415511       26      -0.00026565      -0.00008551      -0.00005923
I       13.59952702      10.04653331       7.67888796       27      -0.00003359       0.00002230       0.00000722
I       -2.64730274       7.43022221       2.74670421       28       0.00019340      -0.00035432       0.00004645
I        8.92778824       4.88421258       5.33773413       29       0.00012705      -0.00013547       0.00001380
Cs      10.13751459      15.16212050       6.91406377       30      -0.00029913       0.00038245      -0.00004159
Cs       5.43468784      15.13490630       1.97109529       31      -0.00022724       0.00027769      -0.00010888
K        5.46231227      10.65285096       4.24254196       32       0.00021564       0.00014391      -0.00021865
In       5.37266151       8.70774599       0.40520488       33       0.00010154       0.00035420      -0.00000415
I       12.09345797       9.61953500       2.10775031       34       0.00013636       0.00004199       0.00009889
I        3.47821886      20.67813230       6.77719161       35       0.00006005       0.00003261       0.00016339
I        6.52972849      11.42122075       0.99547966       36      -0.00037992      -0.00036687      -0.00008088
I        9.04262603      18.87664099       7.89020187       37       0.00006521       0.00026042       0.00002512
I       -7.20418095      16.26034670       2.95804668       38       0.00010683      -0.00024136      -0.00012080
I        4.37088881      13.71436516       5.54903138       39       0.00020555      -0.00023568       0.00016506
