40
Lattice="20.456573221266666 0.0 0.0 -15.826827164035524 10.251182959438655 0.0 0.0 0.0 9.711671437906563" Properties=species:S:1:pos:R:3 pbc="T T T"
Cs       4.47201817       1.70989436       9.70253392
Cs      -1.57521523       3.41842486       0.00911783
K        0.29096585       0.00136260       4.85583617
In       0.29096800       0.00136349       0.00000553
I        7.83520238       0.00492229       1.94264824
I       -4.93840121       5.12338874       7.76902737
I        0.90428835       1.34363828       1.94265021
I        1.99252135       3.78468561       7.76902935
I        4.67656624       3.78112206       1.94264744
I       -1.77976336       1.34719975       7.76902658
Cs      -3.44139541       6.83548584       9.70253392
Cs      -9.48862881       8.54401634       0.00911783
K       -7.62244773       5.12695408       4.85583617
In      -7.62244558       5.12695497       0.00000553
I       -0.07821120       5.13051377       1.94264824
I      -12.85181479      10.24898022       7.76902737
I       -7.00912523       6.46922976       1.94265021
I       -5.92089223       8.91027709       7.76902935
I       -3.23684734       8.90671354       1.94264744
I       -9.69317695       6.47279123       7.76902658
Cs      14.70030478       1.70989436       9.70253392
Cs       8.65307138       3.41842486       0.00911783
K       10.51925246       0.00136260       4.85583617
In      10.51925461       0.00136349       0.00000553
I       18.06348899       0.00492229       1.94264824
I        5.28988540       5.12338874       7.76902737
I       11.13257496       1.34363828       1.94265021
I       12.22080796       3.78468561       7.76902935
I       14.90485285       3.78112206       1.94264744
I        8.44852325       1.34719975       7.76902658
Cs       6.78689120       6.83548584       9.70253392
Cs       0.73965780       8.54401634       0.00911783
K        2.60583888       5.12695408       4.85583617
In       2.60584103       5.12695497       0.00000553
I       10.15007541       5.13051377       1.94264824
I       -2.62352818      10.24898022       7.76902737
I        3.21916138       6.46922976       1.94265021
I        4.30739438       8.91027709       7.76902935
I        6.99143927       8.90671354       1.94264744
I        0.53510966       6.47279123       7.76902658
