80
Lattice="20.33690586033107 0.0 0.0 3.924103877819125 19.490611213008165 0.0 10.457224878418632 0.9828096012196638 12.14614975643056" Properties=species:S:1:pos:R:3 pbc="T T T"
Cs       4.33965014       2.55913915       1.51830832
Cs      13.01946701       7.67757018       4.55476584
K        8.67955853       5.11835443       3.03653695
In       0.00000025       0.00000062       0.00000028
I        8.10075721       0.84850159       2.81980561
I        9.25835974       9.38820688       3.25326835
I       12.82158511       2.59423702       3.16688406
I        4.53752950       7.64247188       2.90618904
I        5.89419769       6.01689604      -0.34432253
I       11.46491965       4.21981701       6.41739917
Cs       9.56826258       3.05054395       7.59138320
Cs      18.24807945       8.16897498      10.62784072
K       13.90817097       5.60975923       9.10961183
In       5.22861269       0.49140542       6.07307515
I       13.32936965       1.33990639       8.89288049
I       14.48697218       9.87961168       9.32634323
I       18.05019755       3.08564182       9.23995894
I        9.76614194       8.13387668       8.97926392
I       11.12281013       6.50830084       5.72875235
I       16.69353209       4.71122181      12.49047405
Cs       6.30170208      12.30444475       1.51830832
Cs      14.98151895      17.42287578       4.55476584
K       10.64161047      14.86366004       3.03653695
In       1.96205219       9.74530622       0.00000028
I       10.06280915      10.59380719       2.81980561
I       11.22041168      19.13351249       3.25326835
I       14.78363705      12.33954262       3.16688406
I        6.49958144      17.38777749       2.90618904
I        7.85624962      15.76220164      -0.34432253
I       13.42697159      13.96512261       6.41739917
Cs      11.53031452      12.79584955       7.59138320
Cs      20.21013139      17.91428058      10.62784072
K       15.87022291      15.35506484       9.10961183
In       7.19066463      10.23671102       6.07307515
I       15.29142159      11.08521200       8.89288049
I       16.44902412      19.62491729       9.32634323
I       20.01224949      12.83094742       9.23995894
I       11.72819388      17.87918229       8.97926392
I       13.08486206      16.25360644       5.72875235
I       18.65558403      14.45652741      12.49047405
Cs      14.50810307       2.55913915       1.51830832
Cs      23.18791994       7.67757018       4.55476584
K       18.84801146       5.11835443       3.03653695
In      10.16845318       0.00000062       0.00000028
I       18.26921014       0.84850159       2.81980561
I       19.42681267       9.38820688       3.25326835
I       22.99003804       2.59423702       3.16688406
I       14.70598243       7.64247188       2.90618904
I       16.06265062       6.01689604      -0.34432253
I       21.63337258       4.21981701       6.41739917
Cs      19.73671551       3.05054395       7.59138320
Cs      28.41653238       8.16897498      10.62784072
K       24.07662390       5.60975923       9.10961183
In      15.39706562       0.49140542       6.07307515
I       23.49782258       1.33990639       8.89288049
I       24.65542511       9.87961168       9.32634323
I       28.21865048       3.08564182       9.23995894
I       19.93459487       8.13387668       8.97926392
I       21.29126306       6.50830084       5.72875235
I       26.86198502       4.71122181      12.49047405
Cs      16.47015501      12.30444475       1.51830832
Cs      25.14997188      17.42287578       4.55476584
K       20.81006340      14.86366004       3.03653695
In      12.13050512       9.74530622       0.00000028
I       20.23126208      10.59380719       2.81980561
I       21.38886461      19.13351249       3.25326835
I       24.95208998      12.33954262       3.16688406
I       16.66803437      17.38777749       2.90618904
I       18.02470256      15.76220164      -0.34432253
I       23.59542452      13.96512261       6.41739917
Cs      21.69876745      12.79584955       7.59138320
Cs      30.37858432      17.91428058      10.62784072
K       26.03867584      15.35506484       9.10961183
In      17.35911756      10.23671102       6.07307515
I       25.45987452      11.08521200       8.89288049
I       26.61747705      19.62491729       9.32634323
I       30.18070242      12.83094742       9.23995894
I       21.89664681      17.87918229       8.97926392
I       23.25331499      16.25360644       5.72875235
I       28.82403696      14.45652741      12.49047405
