80
Lattice="25.669634426483427 2.66107403240484 2.8780964456771145 6.841166045849285 18.20851634297935 -0.5028127059662493 14.499926618194658 1.6666887547953968 12.697328802031786" Properties=species:S:1:pos:R:3:spacegroup_kinds:I:1:forces:R:3 spacegroup="P 1" unit_cell=conventional occupancy="_JSON {\"0\": {\"Cs\": 1.0}, \"1\": {\"Cs\": 1.0}, \"2\": {\"K\": 1.0}, \"3\": {\"In\": 1.0}, \"4\": {\"I\": 1.0}, \"5\": {\"I\": 1.0}, \"6\": {\"I\": 1.0}, \"7\": {\"I\": 1.0}, \"8\": {\"I\": 1.0}, \"9\": {\"I\": 1.0}, \"10\": {\"Cs\": 1.0}, \"11\": {\"Cs\": 1.0}, \"12\": {\"K\": 1.0}, \"13\": {\"In\": 1.0}, \"14\": {\"I\": 1.0}, \"15\": {\"I\": 1.0}, \"16\": {\"I\": 1.0}, \"17\": {\"I\": 1.0}, \"18\": {\"I\": 1.0}, \"19\": {\"I\": 1.0}, \"20\": {\"Cs\": 1.0}, \"21\": {\"Cs\": 1.0}, \"22\": {\"K\": 1.0}, \"23\": {\"In\": 1.0}, \"24\": {\"I\": 1.0}, \"25\": {\"I\": 1.0}, \"26\": {\"I\": 1.0}, \"27\": {\"I\": 1.0}, \"28\": {\"I\": 1.0}, \"29\": {\"I\": 1.0}, \"30\": {\"Cs\": 1.0}, \"31\": {\"Cs\": 1.0}, \"32\": {\"K\": 1.0}, \"33\": {\"In\": 1.0}, \"34\": {\"I\": 1.0}, \"35\": {\"I\": 1.0}, \"36\": {\"I\": 1.0}, \"37\": {\"I\": 1.0}, \"38\": {\"I\": 1.0}, \"39\": {\"I\": 1.0}, \"40\": {\"Cs\": 1.0}, \"41\": {\"Cs\": 1.0}, \"42\": {\"K\": 1.0}, \"43\": {\"In\": 1.0}, \"44\": {\"I\": 1.0}, \"45\": {\"I\": 1.0}, \"46\": {\"I\": 1.0}, \"47\": {\"I\": 1.0}, \"48\": {\"I\": 1.0}, \"49\": {\"I\": 1.0}, \"50\": {\"Cs\": 1.0}, \"51\": {\"Cs\": 1.0}, \"52\": {\"K\": 1.0}, \"53\": {\"In\": 1.0}, \"54\": {\"I\": 1.0}, \"55\": {\"I\": 1.0}, \"56\": {\"I\": 1.0}, \"57\": {\"I\": 1.0}, \"58\": {\"I\": 1.0}, \"59\": {\"I\": 1.0}, \"60\": {\"Cs\": 1.0}, \"61\": {\"Cs\": 1.0}, \"62\": {\"K\": 1.0}, \"63\": {\"In\": 1.0}, \"64\": {\"I\": 1.0}, \"65\": {\"I\": 1.0}, \"66\": {\"I\": 1.0}, \"67\": {\"I\": 1.0}, \"68\": {\"I\": 1.0}, \"69\": {\"I\": 1.0}, \"70\": {\"Cs\": 1.0}, \"71\": {\"Cs\": 1.0}, \"72\": {\"K\": 1.0}, \"73\": {\"In\": 1.0}, \"74\": {\"I\": 1.0}, \"75\": {\"I\": 1.0}, \"76\": {\"I\": 1.0}, \"77\": {\"I\": 1.0}, \"78\": {\"I\": 1.0}, \"79\": {\"I\": 1.0}}" energy=-194.43743821735518 free_energy=-194.43743821735518 stress="8.572489380700529e-07 -1.2057464231487825e-05 9.472091247557355e-06 -1.2057464231487825e-05 -6.251627958008353e-06 9.502750826838592e-07 9.472091247557355e-06 9.502750826838592e-07 7.426429272966965e-06" pbc="T T T"
Cs       4.93973873       2.61451107       2.19051592        0       0.00004943       0.00011237      -0.00025872
Cs      18.37279117       8.68350638       5.43157458        1       0.00013226       0.00013611      -0.00008613
K       11.72676236       5.65192881       3.70375231        2      -0.00002001      -0.00006899       0.00046650
In      25.19241745       2.32436951       2.36325339        3      -0.00010954       0.00010440       0.00044294
I       11.62907741       1.85126048       4.44702192        4      -0.00014175      -0.00018694      -0.00021698
I       12.68980931       9.53878565       3.23461423        5       0.00006935      -0.00001307      -0.00019649
I       14.18625464       3.40056774       5.25232986        6      -0.00002455      -0.00022954      -0.00007585
I        9.23233168       8.02765354       2.69926891        7       0.00012681       0.00025649       0.00003100
I       18.61774579       7.70364857      13.32719956        8      -0.00004594       0.00000109       0.00010673
I       19.35588208       5.23778379       6.83907545        9       0.00010428       0.00003801      -0.00012670
Cs      12.18952870       3.44810242       8.53907301       10       0.00005472      -0.00018313      -0.00013211
Cs      25.62344669       9.51707222      11.78017639       11      -0.00013684      -0.00006985      -0.00009774
K       18.97672874       6.48542233      10.05243139       12       0.00007913      -0.00022165       0.00024660
In      32.44204887       3.15783696       8.71232810       13      -0.00009609       0.00018061       0.00005815
I       18.87920440       2.68476628      10.79582450       14      -0.00017930      -0.00061254      -0.00053442
I       19.94014061      10.37222597       9.58308898       15       0.00017815       0.00001720       0.00018456
I       21.43638786       4.23383524      11.60076803       16      -0.00004057       0.00000769       0.00030352
I       16.48239903       8.86090487       9.04770065       17       0.00009503       0.00039872       0.00026222
I       11.36800669       6.87033878       6.97896496       18      -0.00022260       0.00015967      -0.00040699
I       12.10607400       4.40434820       0.49031172       19       0.00011415       0.00018149       0.00005007
Cs       8.36072241      11.71915610       1.93916990       20      -0.00018911      -0.00033584      -0.00034860
Cs      21.79398053      17.78799233       5.18003823       21      -0.00012849       0.00008860      -0.00002066
K       15.14736733      14.75626636       3.45268422       22       0.00006934      -0.00016446       0.00000315
In      28.61296225      11.42872812       2.11227368       23      -0.00001828       0.00009667      -0.00004921
I       15.04963531      10.95554230       4.19565819       24      -0.00000703      -0.00026645      -0.00008922
I       16.11036107      18.64303866       2.98297133       25       0.00024966       0.00009630       0.00021668
I       17.60681063      12.50462750       5.00112958       26       0.00003351       0.00006111      -0.00006451
I       12.65302551      17.13194637       2.44753058       27      -0.00004250       0.00007954       0.00026121
I       22.03833390      16.80791432      13.07594214       28       0.00007179       0.00010347      -0.00011993
I       22.77638582      14.34208208       6.58762376       29       0.00019521      -0.00003735      -0.00018895
Cs      15.61007775      12.55211257       8.28792533       30       0.00015343       0.00006746      -0.00018614
Cs      29.04387677      18.62115518      11.52887396       31      -0.00009522       0.00011035      -0.00023368
K       22.39708094      15.58942787       9.80090633       32       0.00020541      -0.00001936       0.00050504
In      35.86284250      12.26203933       8.46096214       33      -0.00007339      -0.00011785       0.00018828
I       22.30008172      11.78891201      10.54425567       34      -0.00037748      -0.00025859      -0.00023277
I       23.36054690      19.47636666       9.33190460       35       0.00034244       0.00019682      -0.00004001
I       24.85710950      13.33812225      11.34956217       36      -0.00013316      -0.00006513       0.00001081
I       19.90286609      17.96543433       8.79657633       37      -0.00017929       0.00001845      -0.00012937
I       14.78811428      15.97470432       6.72739672       38       0.00011396      -0.00020463      -0.00015920
I       15.52646119      13.50853795       0.23903805       39       0.00019040       0.00029622       0.00003644
Cs      17.77475773       3.94530280       3.62949479       40      -0.00021009      -0.00017902      -0.00000626
Cs      31.20786613      10.01436298       6.87026671       41       0.00005484      -0.00019264       0.00014419
K       24.56155969       6.98248851       5.14275426       42       0.00011841      -0.00012812       0.00033898
In      12.35736011       0.99371853       0.92489922       43      -0.00020041       0.00061530      -0.00033964
I       24.46417757       3.18181666       5.88591792       44       0.00031852       0.00006218       0.00015845
I       25.52489204      10.86933207       4.67366985       45       0.00000359      -0.00006595      -0.00001168
I       27.02116551       4.73114885       6.69127332       46      -0.00004293      -0.00015021       0.00006265
I       22.06720761       9.35815482       4.13831825       47      -0.00015313       0.00011777      -0.00015705
I       31.45223594       9.03445484      14.76627801       48       0.00037410      -0.00042097       0.00034862
I       32.19068801       6.56829591       8.27830800       49       0.00013608       0.00014164      -0.00021636
Cs      25.02469402       4.77838867       9.97830962       50      -0.00007767       0.00015954      -0.00031968
Cs      38.45836488      10.84764639      13.21928455       51      -0.00013746      -0.00001751      -0.00003458
K       31.81208273       7.81580584      11.49181279       52      -0.00029588       0.00006728      -0.00003438
In      19.60737121       1.82704237       7.27319083       53      -0.00011759       0.00041386      -0.00000961
I       31.71422780       4.01500965      12.23491447       54      -0.00062257      -0.00018396      -0.00037852
I       32.77482672      11.70261358      11.02212634       55      -0.00017743      -0.00004206       0.00016010
I       34.27143428       5.56422360      13.04026900       56      -0.00009360       0.00018033      -0.00001263
I       29.31701552      10.19151965      10.48671326       57       0.00050389       0.00021426       0.00033430
I       24.20235632       8.20096243       8.41759293       58       0.00024179      -0.00028155       0.00022340
I       24.94066635       5.73477236       1.92944533       59       0.00015826       0.00031658      -0.00020037
Cs      21.19515046      13.04942021       3.37818659       60      -0.00006124      -0.00004020      -0.00021542
Cs      34.62845561      19.11845220       6.61925095       61       0.00008925       0.00007297      -0.00018396
K       27.98253018      16.08672760       4.89137799       62      -0.00015593       0.00000676       0.00027741
In      15.77809404      10.09812331       0.67323333       63      -0.00033851       0.00033818      -0.00033819
I       27.88475787      12.28608035       5.63473308       64      -0.00010147      -0.00016577      -0.00031362
I       28.94569660      19.97358247       4.42220618       65      -0.00065351      -0.00026625      -0.00016465
I       30.44188489      13.83540760       6.43982484       66      -0.00002624      -0.00013971       0.00013063
I       25.48783905      18.46238525       3.88673104       67       0.00013783       0.00029088       0.00009048
I       34.87284080      18.13870784      14.51489741       68       0.00033790      -0.00055413       0.00033045
I       35.61151161      15.67242947       8.02656877       69       0.00005354       0.00035855       0.00027974
Cs      28.44510702      13.88275434       9.72669745       70       0.00002839      -0.00002926      -0.00021421
Cs      41.87775707      19.95194602      12.96745012       71       0.00048368      -0.00038123       0.00028899
K       35.23232373      16.92022732      11.24013869       72      -0.00013547      -0.00013227       0.00006686
In      23.02778475      10.93106859       7.02180207       73      -0.00007500       0.00065159       0.00008758
I       35.13455932      13.11941522      11.98328258       74      -0.00017553      -0.00024289      -0.00031816
I       36.19535901      20.80695327      10.77091286       75       0.00032593       0.00005225       0.00016257
I       37.69160617      14.66875048      12.78828487       76       0.00008331      -0.00003074       0.00046082
I       32.73783976      19.29589273      10.23538446       77       0.00003837      -0.00006455       0.00016031
I       27.62316002      17.30530817       8.16594358       78       0.00011599      -0.00021314       0.00049142
I       28.36150648      14.83921734       1.67820296       79      -0.00011929       0.00010878      -0.00050848
