80
Lattice="30.16460000019275 -0.8809061281503013 -3.7780428096126046 -14.759519192205428 12.183633387292918 1.0333119579933236 8.992086783350445 12.576179784859265 10.989449461462375" Properties=species:S:1:pos:R:3:spacegroup_kinds:I:1:forces:R:3 spacegroup="P 1" unit_cell=conventional occupancy="_JSON {\"0\": {\"Cs\": 1.0}, \"1\": {\"Cs\": 1.0}, \"2\": {\"K\": 1.0}, \"3\": {\"In\": 1.0}, \"4\": {\"I\": 1.0}, \"5\": {\"I\": 1.0}, \"6\": {\"I\": 1.0}, \"7\": {\"I\": 1.0}, \"8\": {\"I\": 1.0}, \"9\": {\"I\": 1.0}, \"10\": {\"Cs\": 1.0}, \"11\": {\"Cs\": 1.0}, \"12\": {\"K\": 1.0}, \"13\": {\"In\": 1.0}, \"14\": {\"I\": 1.0}, \"15\": {\"I\": 1.0}, \"16\": {\"I\": 1.0}, \"17\": {\"I\": 1.0}, \"18\": {\"I\": 1.0}, \"19\": {\"I\": 1.0}, \"20\": {\"Cs\": 1.0}, \"21\": {\"Cs\": 1.0}, \"22\": {\"K\": 1.0}, \"23\": {\"In\": 1.0}, \"24\": {\"I\": 1.0}, \"25\": {\"I\": 1.0}, \"26\": {\"I\": 1.0}, \"27\": {\"I\": 1.0}, \"28\": {\"I\": 1.0}, \"29\": {\"I\": 1.0}, \"30\": {\"Cs\": 1.0}, \"31\": {\"Cs\": 1.0}, \"32\": {\"K\": 1.0}, \"33\": {\"In\": 1.0}, \"34\": {\"I\": 1.0}, \"35\": {\"I\": 1.0}, \"36\": {\"I\": 1.0}, \"37\": {\"I\": 1.0}, \"38\": {\"I\": 1.0}, \"39\": {\"I\": 1.0}, \"40\": {\"Cs\": 1.0}, \"41\": {\"Cs\": 1.0}, \"42\": {\"K\": 1.0}, \"43\": {\"In\": 1.0}, \"44\": {\"I\": 1.0}, \"45\": {\"I\": 1.0}, \"46\": {\"I\": 1.0}, \"47\": {\"I\": 1.0}, \"48\": {\"I\": 1.0}, \"49\": {\"I\": 1.0}, \"50\": {\"Cs\": 1.0}, \"51\": {\"Cs\": 1.0}, \"52\": {\"K\": 1.0}, \"53\": {\"In\": 1.0}, \"54\": {\"I\": 1.0}, \"55\": {\"I\": 1.0}, \"56\": {\"I\": 1.0}, \"57\": {\"I\": 1.0}, \"58\": {\"I\": 1.0}, \"59\": {\"I\": 1.0}, \"60\": {\"Cs\": 1.0}, \"61\": {\"Cs\": 1.0}, \"62\": {\"K\": 1.0}, \"63\": {\"In\": 1.0}, \"64\": {\"I\": 1.0}, \"65\": {\"I\": 1.0}, \"66\": {\"I\": 1.0}, \"67\": {\"I\": 1.0}, \"68\": {\"I\": 1.0}, \"69\": {\"I\": 1.0}, \"70\": {\"Cs\": 1.0}, \"71\": {\"Cs\": 1.0}, \"72\": {\"K\": 1.0}, \"73\": {\"In\": 1.0}, \"74\": {\"I\": 1.0}, \"75\": {\"I\": 1.0}, \"76\": {\"I\": 1.0}, \"77\": {\"I\": 1.0}, \"78\": {\"I\": 1.0}, \"79\": {\"I\": 1.0}}" energy=-195.9320522144224 free_energy=-195.9320522144224 stress="3.525789677899728e-06 -2.6525155529464815e-06 -7.415601242787385e-06 -2.6525155529464815e-06 5.16057079697684e-07 3.534049064296446e-07 -7.415601242787385e-06 3.534049064296446e-07 -5.002231522998567e-06" pbc="T T T"
Cs      18.31790169       7.55072543       3.93611774        0      -0.00005870       0.00001733       0.00036255
Cs       3.53295670       2.48725280      -1.82433267        1      -0.00026203      -0.00002134      -0.00012107
K        5.08610188       3.93277809       2.92627644        2       0.00023581       0.00029488       0.00017384
In     -12.38459216      10.81529578       3.21876246        3       0.00009672      -0.00013493       0.00027286
I        2.59508310      13.76686279       1.00108992        4       0.00002370      -0.00000719       0.00011117
I        4.55521945       7.45466619       2.29131881        5      -0.00000407      -0.00053612       0.00016509
I        5.65262388      -0.34777319       0.83733648        6      -0.00040343      -0.00009851      -0.00003188
I       14.68641675       6.41541758       1.80135422        7      -0.00017961      -0.00025799      -0.00018121
I       11.72858422       4.20557761      -2.82681507        8       0.00010471       0.00027509      -0.00002960
I        3.90384182       4.31757159       6.34865933        9       0.00008249       0.00014301       0.00015370
Cs      22.81345838      13.83910557       9.43081635       10       0.00004355      -0.00008508       0.00027812
Cs       8.02921509       8.77348349       3.67093062       11       0.00017894       0.00008969      -0.00012502
K       24.98691702      21.52427767       5.67709735       12       0.00008369      -0.00007860      -0.00001937
In      -7.88919092      17.10373132       8.71473224       13      -0.00009943       0.00012894      -0.00024647
I        7.09174349      20.05626019       6.49543757       14      -0.00019007      -0.00000324      -0.00007375
I        9.05093985      13.74308137       7.78678269       15       0.00015688      -0.00049102      -0.00003451
I       10.14675147       5.93964155       6.33284057       16       0.00018593       0.00018294      -0.00006137
I       19.18068212      12.70317314       7.29762311       17       0.00043345       0.00007792       0.00022054
I       16.22609100      10.49349547       2.66743362       18       0.00018348       0.00023687      -0.00004972
I        8.39976510      10.60742491      11.84423270       19      -0.00010721      -0.00039772      -0.00004317
Cs      10.93974477      13.64890824       4.45608056       20       0.00020284       0.00007377      -0.00003381
Cs      -3.84289867       8.57136942      -1.30832873       21      -0.00011077       0.00009895       0.00003639
K       -2.28944427      10.02510691       3.44406617       22      -0.00010015      -0.00028948       0.00011619
In      -5.00735640       4.72509800       2.71042146       23       0.00037365       0.00003264      -0.00003398
I        9.97569740       7.67570200       0.49124503       24      -0.00019697      -0.00017424      -0.00008292
I       -2.82136782      13.54878792       2.80799995       25       0.00010298      -0.00009181      -0.00015111
I       -1.73590391       5.73349765       1.35213112       26       0.00004682       0.00049333       0.00015253
I        7.32323972      12.51876386       2.31346331       27      -0.00052670       0.00028880      -0.00027869
I        4.35044121      10.30525786      -2.30380876       28       0.00013540      -0.00004858       0.00011137
I       -3.47562287      10.41661533       6.86342699       29       0.00037652      -0.00035047       0.00013743
Cs      15.43755972      19.93796028       9.95064599       30      -0.00007524      -0.00001758      -0.00008668
Cs       0.65404302      14.86007303       4.18681350       31      -0.00001321      -0.00015429      -0.00007979
K       32.37107862      15.43138152       5.16144252       32       0.00005146       0.00007027       0.00013602
In      -0.51122463      11.01303364       8.20436614       33      -0.00005400      -0.00064972      -0.00014536
I       14.47047288      13.96317345       5.98599975       34      -0.00018082      -0.00000207      -0.00013650
I        1.67417390      19.83517732       8.30251707       35      -0.00003117       0.00036528       0.00004863
I        2.76123550      12.02191721       6.84745425       36      -0.00029896       0.00005216       0.00030600
I       11.82093152      18.81116263       7.80623943       37      -0.00014410      -0.00066604      -0.00018301
I        8.84744256      16.59434019       3.19116867       38      -0.00000088      -0.00022094       0.00009896
I        1.02058244      16.70368937      12.35945589       39      -0.00004942      -0.00022998      -0.00001663
Cs      33.39164092       7.11059378       2.04563239       40       0.00019638       0.00045139      -0.00003315
Cs      18.62137274       2.04137046      -3.71298783       41      -0.00039568       0.00004683       0.00015730
K       20.17164389       3.49530139       1.03611407       42      -0.00007299      -0.00033638       0.00015030
In       2.70135352      10.37457840       1.32456046       43       0.00018312       0.00015822       0.00021879
I       17.67203787      13.32461542      -0.88761555       44       0.00034294       0.00028627      -0.00029571
I       19.64222026       7.01558441       0.40290894       45       0.00009326       0.00019841      -0.00003638
I       20.74142488      -0.78657450      -1.05079282       46       0.00030276      -0.00008149      -0.00005897
I       29.75029922       5.95736341      -0.07557438       47      -0.00009290       0.00026871      -0.00041576
I       -3.34925945       4.65426256      -0.95096350       48       0.00029860       0.00015066       0.00052243
I       18.98764788       3.87507193       4.46070800       49       0.00006936       0.00018111       0.00003924
Cs      37.88796813      13.40023659       7.54096700       50      -0.00011273       0.00038780      -0.00023564
Cs      23.11611917       8.33051789       1.78061874       51       0.00005122      -0.00004161       0.00021199
K        9.90680989      21.96933309       7.56472407       52       0.00018829      -0.00054369      -0.00019213
In       7.19833842      16.66399464       6.81879684       53      -0.00009199      -0.00021040      -0.00000710
I       22.16770876      19.61368971       4.60706041       54      -0.00010945      -0.00020613       0.00008772
I       24.13902719      13.30596476       5.89754995       55      -0.00022714       0.00000440       0.00003502
I       25.23926783       5.50330219       4.44350970       56      -0.00040023      -0.00018273      -0.00020639
I       34.24743526      12.24650094       5.41926059       57       0.00029499       0.00020878      -0.00017924
I        1.14731437      10.94200583       4.54525255       58      -0.00027771       0.00022160      -0.00016027
I       23.48256013      10.16291284       9.95568017       59      -0.00023544       0.00056685      -0.00000298
Cs      26.01972371      13.21065266       2.56278592       60      -0.00014843      -0.00015851      -0.00007087
Cs      11.24222751       8.12317234      -3.19148849       61       0.00008885      -0.00013725      -0.00016433
K       12.79107094       9.58853793       1.55724464       62      -0.00028063      -0.00010426      -0.00008483
In      10.07692234       4.28266631       0.81640202       63       0.00017905       0.00009749       0.00039004
I       25.05522908       7.23485983      -1.40294446       64       0.00000894       0.00023450       0.00021295
I       12.26252031      13.11202685       0.92232057       65      -0.00006524      -0.00007301      -0.00006802
I       13.35267632       5.29656307      -0.53523208       66       0.00053953       0.00054524       0.00026404
I       22.39424741      12.07055435       0.42909001       67       0.00003620       0.00013620       0.00028146
I      -10.73422620      10.74942650      -0.41986160       68      -0.00008789      -0.00000058      -0.00028884
I       11.60564994       9.97249584       4.97826919       69      -0.00003231       0.00001942      -0.00002261
Cs      30.51469529      19.49779271       8.05730034       70      -0.00002895      -0.00016207      -0.00005711
Cs      15.73818619      14.41019678       2.30336911       71       0.00025104       0.00024780      -0.00002088
K       17.28563859      15.87585097       7.05195311       72       0.00009502       0.00027281      -0.00021403
In      14.57270242      10.57070797       6.31258612       73       0.00012244      -0.00006758      -0.00009466
I       29.55169186      13.52236385       4.09220562       74       0.00018820       0.00035399       0.00010297
I       16.75834565      19.39946622       6.41636408       75       0.00013748      -0.00009347       0.00012955
I       17.84866364      11.58456860       4.96000565       76      -0.00036034      -0.00006781      -0.00016639
I       26.88642805      18.35685859       5.92655814       77      -0.00034392      -0.00030973      -0.00031036
I       -6.23761656      17.03707305       5.07389632       78      -0.00005887      -0.00010080      -0.00006274
I       16.10107370      16.26126663      10.47232807       79      -0.00025689      -0.00007594       0.00000979
