40
Lattice="18.404817670155435 0.05269527041541277 0.09241031098863699 9.267917555986507 16.003954215308617 0.04486026992523771 4.630819478454557 2.6651088679159125 6.963413546128077" Properties=species:S:1:pos:R:3:spacegroup_kinds:I:1:forces:R:3 spacegroup="P 1" unit_cell=conventional occupancy="_JSON {\"0\": {\"Cs\": 1.0}, \"1\": {\"Cs\": 1.0}, \"2\": {\"K\": 1.0}, \"3\": {\"In\": 1.0}, \"4\": {\"I\": 1.0}, \"5\": {\"I\": 1.0}, \"6\": {\"I\": 1.0}, \"7\": {\"I\": 1.0}, \"8\": {\"I\": 1.0}, \"9\": {\"I\": 1.0}, \"10\": {\"Cs\": 1.0}, \"11\": {\"Cs\": 1.0}, \"12\": {\"K\": 1.0}, \"13\": {\"In\": 1.0}, \"14\": {\"I\": 1.0}, \"15\": {\"I\": 1.0}, \"16\": {\"I\": 1.0}, \"17\": {\"I\": 1.0}, \"18\": {\"I\": 1.0}, \"19\": {\"I\": 1.0}, \"20\": {\"Cs\": 1.0}, \"21\": {\"Cs\": 1.0}, \"22\": {\"K\": 1.0}, \"23\": {\"In\": 1.0}, \"24\": {\"I\": 1.0}, \"25\": {\"I\": 1.0}, \"26\": {\"I\": 1.0}, \"27\": {\"I\": 1.0}, \"28\": {\"I\": 1.0}, \"29\": {\"I\": 1.0}, \"30\": {\"Cs\": 1.0}, \"31\": {\"Cs\": 1.0}, \"32\": {\"K\": 1.0}, \"33\": {\"In\": 1.0}, \"34\": {\"I\": 1.0}, \"35\": {\"I\": 1.0}, \"36\": {\"I\": 1.0}, \"37\": {\"I\": 1.0}, \"38\": {\"I\": 1.0}, \"39\": {\"I\": 1.0}}" energy=-102.59571088004668 free_energy=-102.59571088004668 stress="-9.849005244414178e-06 -1.696258193313747e-06 4.677235195373063e-06 -1.696258193313747e-06 4.39555985374503e-06 8.069170985126813e-07 4.677235195373063e-06 8.069170985126813e-07 2.365456856678806e-06" pbc="T T T"
Cs       4.62919814       2.68623614       1.94729783        0      -0.00008785       0.00027408       0.00016697
Cs      13.83830657       8.00665384       5.08475155        1      -0.00011631       0.00047047      -0.00021803
K        9.23365585       5.34677983       3.51549609        2      -0.00017992      -0.00001450       0.00028862
In      18.40475356       0.05277347       0.09238605        3       0.00009040       0.00046549       0.00030411
I        6.98248557       3.23310335       5.23735429        4       0.00000650      -0.00019764      -0.00052023
I       11.48523141       7.46051815       1.79535087        5      -0.00028099       0.00003599       0.00025439
I        9.92693369       2.35035156       1.76283919        6      -0.00007513       0.00001096      -0.00000361
I        8.54103199       8.34349060       5.26894430        7      -0.00024928      -0.00054017      -0.00005181
I        6.32194999       6.21447085       1.70400095        8       0.00050124       0.00012620      -0.00020531
I       12.14460516       4.47939950       5.32852767        9       0.00044398      -0.00055586       0.00024784
Cs       9.26371117      10.68759359       1.96956741       10      -0.00028974       0.00024148       0.00011261
Cs      18.47171972      16.00884256       5.10720280       11      -0.00013379       0.00014393      -0.00013066
K       13.86742908      13.34904745       3.53775246       12       0.00002014      -0.00023448       0.00036383
In      23.03887918       8.05494378       0.11462003       13       0.00000010      -0.00041305       0.00029513
I       11.61639344      11.23487361       5.25905354       14       0.00002461      -0.00027177       0.00002226
I       16.11880258      15.46302793       1.81805484       15       0.00021157       0.00028509      -0.00017707
I       14.56047368      10.35248254       1.78520655       16       0.00007553      -0.00027225      -0.00019059
I       13.17484911      16.34553812       5.29127915       17      -0.00016920      -0.00024067      -0.00001238
I       10.95576349      14.21621402       1.72640713       18       0.00018828      -0.00006394      -0.00007526
I       16.77828446      12.48095801       5.35104139       19       0.00012860       0.00017054      -0.00028471
Cs      13.83217242       2.71214474       1.99372917       20      -0.00019976       0.00033097       0.00012314
Cs      23.04061457       8.03323215       5.13088832       21       0.00001142       0.00019772      -0.00012512
K       18.43590777       5.37325912       3.56185978       22      -0.00009138      -0.00022480       0.00022050
In       9.20231770       0.02651732       0.04635831       23      -0.00003461      -0.00023548      -0.00056621
I       16.18492757       3.25868261       5.28332883       24      -0.00024280      -0.00010248      -0.00023859
I       20.68769640       7.48700179       1.84172241       25      -0.00018734      -0.00000196       0.00003113
I       19.12894408       2.37654535       1.80934020       26       0.00000777       0.00006063       0.00015441
I       17.74330962       8.36989128       5.31487943       27      -0.00032604      -0.00039521       0.00003354
I       15.52436075       6.24060230       1.74982124       28       0.00046877       0.00008606       0.00023167
I       21.34683498       4.50573838       5.37517538       29       0.00019868      -0.00016863      -0.00038914
Cs      18.46574431      10.71383983       2.01564150       30      -0.00009884       0.00034673       0.00018095
Cs      27.67468188      16.03478557       5.15377081       31      -0.00018180       0.00015739      -0.00030110
K       23.06964678      13.37542440       3.58406705       32       0.00011697      -0.00023697       0.00038088
In      13.83634579       8.02850515       0.06848345       33       0.00028682      -0.00000404      -0.00000066
I       20.81879441      11.26096768       5.30548355       34      -0.00002415       0.00014528      -0.00023935
I       25.32128328      15.48912169       1.86393796       35      -0.00009879      -0.00028949       0.00035010
I       23.76293576      10.37874355       1.83124183       36       0.00027778       0.00034683       0.00000459
I       22.37661111      16.37172445       5.33764925       37       0.00015429       0.00030563       0.00058301
I       20.15810661      14.24258051       1.77285662       38      -0.00017986      -0.00006182      -0.00035744
I       25.98066334      12.50708341       5.39703678       39       0.00003416       0.00032375      -0.00026238
