20
Lattice="24.46527209178273 1.8010177503802292 -1.2685185806994577 8.737336467894623 8.527247985412831 1.3402521805827834 2.952598259306375 9.098524243156804 7.703793063033676" Properties=species:S:1:pos:R:3:spacegroup_kinds:I:1:forces:R:3 spacegroup="P 1" unit_cell=conventional occupancy="_JSON {\"0\": {\"Cs\": 1.0}, \"1\": {\"Cs\": 1.0}, \"2\": {\"K\": 1.0}, \"3\": {\"In\": 1.0}, \"4\": {\"I\": 1.0}, \"5\": {\"I\": 1.0}, \"6\": {\"I\": 1.0}, \"7\": {\"I\": 1.0}, \"8\": {\"I\": 1.0}, \"9\": {\"I\": 1.0}, \"10\": {\"Cs\": 1.0}, \"11\": {\"Cs\": 1.0}, \"12\": {\"K\": 1.0}, \"13\": {\"In\": 1.0}, \"14\": {\"I\": 1.0}, \"15\": {\"I\": 1.0}, \"16\": {\"I\": 1.0}, \"17\": {\"I\": 1.0}, \"18\": {\"I\": 1.0}, \"19\": {\"I\": 1.0}}" energy=-51.55156293843075 free_energy=-51.55156293843075 stress="1.5091031034706217e-07 -5.851573204822803e-09 -8.216049797326675e-08 -5.851573204822803e-09 -5.3574805576139835e-08 -1.0740527042296794e-07 -8.216049797326675e-08 -1.0740527042296794e-07 -1.1705201613408509e-07" pbc="T T T"
Cs       8.22997132       3.42563268       1.33693483        0      -0.00018920      -0.00001012       0.00014142
Cs      15.69264380      15.10064289       7.07269799        1       0.00001123      -0.00000551       0.00006716
K       11.96108395       9.26318398       4.20506016        2       0.00033501      -0.00005272      -0.00019851
In       0.00013180       0.00003036       0.00000093        3      -0.00048235      -0.00002987      -0.00012529
I        8.60541831      10.39059460       3.67396303        4      -0.00023475       0.00018566      -0.00005371
I       15.31744051       8.13569105       4.73578459        5      -0.00030257       0.00005651       0.00005944
I       12.47468491       8.92646970       7.73172964        6      -0.00009659      -0.00024135       0.00011620
I       35.91322389      11.40084598      -0.59060024        7      -0.00009213      -0.00011705       0.00017561
I       10.01447343       6.47148203       3.09475612        8       0.00025156      -0.00010213       0.00004965
I       13.90799097      12.05485990       5.31514654        9      -0.00009833      -0.00007587      -0.00021517
Cs      20.46231324       4.32613242       0.70287342       10       0.00021047      -0.00000651      -0.00012954
Cs      27.92547414      16.00121550       6.43855977       11      -0.00004370      -0.00000672      -0.00007361
K       24.19410386      10.16362196       3.57048342       12      -0.00032808       0.00006274       0.00019496
In      12.23250885       0.90045044      -0.63426317       13       0.00050656       0.00010254       0.00006101
I       20.83772671      11.29111078       3.03968276       14       0.00028120      -0.00016199       0.00011164
I       27.54976654       9.03613522       4.10158855       15       0.00032356      -0.00002590      -0.00005539
I        0.24212059       8.02594564       8.36608826       16       0.00008446       0.00023220      -0.00014473
I       23.68041299      10.50033157       0.04386755       17       0.00001932       0.00007791      -0.00018186
I       22.24735646       7.37196159       2.46046102       18      -0.00027705       0.00003698      -0.00005369
I       26.14064475      12.95527566       4.68066065       19       0.00012137       0.00008120       0.00025441
