40
Lattice="18.360404878726577 -0.02875223178241927 0.009177441446156277 9.172970610516735 16.001816416840793 -0.045471024978051014 4.574627348487039 2.6287533112886203 6.933996232772452" Properties=species:S:1:pos:R:3:spacegroup_kinds:I:1:forces:R:3 spacegroup="P 1" unit_cell=conventional occupancy="_JSON {\"0\": {\"Cs\": 1.0}, \"1\": {\"Cs\": 1.0}, \"2\": {\"K\": 1.0}, \"3\": {\"In\": 1.0}, \"4\": {\"I\": 1.0}, \"5\": {\"I\": 1.0}, \"6\": {\"I\": 1.0}, \"7\": {\"I\": 1.0}, \"8\": {\"I\": 1.0}, \"9\": {\"I\": 1.0}, \"10\": {\"Cs\": 1.0}, \"11\": {\"Cs\": 1.0}, \"12\": {\"K\": 1.0}, \"13\": {\"In\": 1.0}, \"14\": {\"I\": 1.0}, \"15\": {\"I\": 1.0}, \"16\": {\"I\": 1.0}, \"17\": {\"I\": 1.0}, \"18\": {\"I\": 1.0}, \"19\": {\"I\": 1.0}, \"20\": {\"Cs\": 1.0}, \"21\": {\"Cs\": 1.0}, \"22\": {\"K\": 1.0}, \"23\": {\"In\": 1.0}, \"24\": {\"I\": 1.0}, \"25\": {\"I\": 1.0}, \"26\": {\"I\": 1.0}, \"27\": {\"I\": 1.0}, \"28\": {\"I\": 1.0}, \"29\": {\"I\": 1.0}, \"30\": {\"Cs\": 1.0}, \"31\": {\"Cs\": 1.0}, \"32\": {\"K\": 1.0}, \"33\": {\"In\": 1.0}, \"34\": {\"I\": 1.0}, \"35\": {\"I\": 1.0}, \"36\": {\"I\": 1.0}, \"37\": {\"I\": 1.0}, \"38\": {\"I\": 1.0}, \"39\": {\"I\": 1.0}}" energy=-102.59578227776578 free_energy=-102.59578227776578 stress="4.076314767740943e-07 5.546637095908056e-08 1.7686049165227228e-06 5.546637095908056e-08 -9.625351102551121e-07 8.232757505162653e-07 1.7686049165227228e-06 8.232757505162653e-07 -1.246159257960963e-06" pbc="T T T"
Cs       4.59902608       2.64198647       1.91869590        0      -0.00007536      -0.00013204      -0.00007824
Cs      13.74257346       7.97424449       4.99798951        1      -0.00016058      -0.00021787      -0.00031722
K        9.17059691       5.30761773       3.45658673        2       0.00016855      -0.00020686       0.00080656
In      18.36024654      -0.02884234       0.00886693        3       0.00015382       0.00038589       0.00020688
I        6.95786913       3.20938908       5.24810785        4       0.00004278       0.00003873      -0.00000990
I       11.38305459       7.40620531       1.66728766        5       0.00005629       0.00008710       0.00029466
I        9.87297043       2.29335560       1.74522250        6      -0.00011181       0.00063075      -0.00013050
I        8.46896068       8.32048749       5.17167616        7      -0.00009930       0.00029253      -0.00041886
I        6.24515408       6.19922876       1.67555193        8      -0.00000256      -0.00025539      -0.00005435
I       12.09619655       4.41646577       5.24039541        9      -0.00011841       0.00014598      -0.00009182
Cs       9.18550246      10.64285483       1.89585909       10       0.00001348      -0.00019304      -0.00011069
Cs      18.32882493      15.97485381       4.97531062       11      -0.00009585      -0.00018092      -0.00026687
K       13.75697627      13.30856382       3.43372300       12       0.00022581      -0.00019415       0.00084521
In      22.94674778       7.97207881      -0.01386089       13       0.00023107      -0.00002643       0.00022879
I       11.54443196      11.21046964       5.22548341       14       0.00004750      -0.00014626      -0.00012848
I       15.96933027      15.40701168       1.64426245       15       0.00014357       0.00023768       0.00032241
I       14.45943328      10.29453490       1.72223274       16       0.00009137       0.00026079      -0.00021259
I       13.05540092      16.32131236       5.14886580       17      -0.00029023       0.00061720      -0.00027676
I       10.83162035      14.19999196       1.65254454       18       0.00000057      -0.00011865       0.00013934
I       16.68237273      12.41724827       5.21790596       19      -0.00016121      -0.00008458      -0.00027275
Cs      13.77930272       2.62771750       1.92330078       20       0.00000966      -0.00021013      -0.00012919
Cs      22.92286150       7.95986213       5.00288376       21      -0.00016985      -0.00035005      -0.00035404
K       18.35083171       5.29325313       3.46128833       22       0.00009445      -0.00014905       0.00076631
In       9.18013996      -0.01432689       0.00440241       23       0.00013139      -0.00015425       0.00006181
I       16.13825179       3.19492301       5.25280392       24       0.00007163       0.00003914      -0.00006013
I       20.56310038       7.39169311       1.67152080       25      -0.00007330       0.00014412       0.00033786
I       19.05303838       2.27904526       1.74998079       26      -0.00002728       0.00008497      -0.00064943
I       17.64909465       8.30598848       5.17661506       27      -0.00035610       0.00026454      -0.00061226
I       15.42551460       6.18478401       1.67993643       28       0.00008274       0.00000373       0.00026273
I       21.27613277       4.40224430       5.24512354       29       0.00032648      -0.00036727       0.00006879
Cs      18.36584968      10.62862069       1.90076123       30      -0.00008198      -0.00024311      -0.00010288
Cs      27.50923136      15.96060635       4.98009785       31      -0.00012370      -0.00031612      -0.00039435
K       22.93729102      13.29421051       3.43861988       32       0.00006334      -0.00015599       0.00069735
In      13.76662572       7.98648696      -0.01832648       33      -0.00000538      -0.00007443       0.00016493
I       20.72442902      11.19570486       5.22978747       34       0.00031399       0.00020974      -0.00012044
I       25.14963273      15.39275269       1.64887560       35      -0.00009693      -0.00007608       0.00030557
I       23.63964403      10.27976600       1.72707205       36      -0.00029777       0.00079149      -0.00024214
I       22.23548915      16.30725695       5.15370290       37      -0.00016584      -0.00008465      -0.00066816
I       20.01192419      14.18579812       1.65741688       38      -0.00001021      -0.00026876       0.00007700
I       25.86256342      12.40282901       5.22213907       39       0.00025517      -0.00002827       0.00011590
