80
Lattice="18.23527400641417 0.0 0.0 -11.627411178211702 12.265807723617717 0.0 3.448998859468952 12.561232964233598 10.52882206047461" Properties=species:S:1:pos:R:3 pbc="T T T"
Cs       3.37679027       2.14993387       0.01672604
Cs       0.11319316      10.43485402       5.24761107
K        0.86224971       3.14030824       2.63220552
In      -0.76922776       0.08563992       0.00002680
I       -1.93466937       2.95690712       1.05310664
I        5.42464596       9.62793567       4.21130944
I        1.49326216       6.71098020       4.21132580
I        1.99671100       5.87376472       1.05312300
I       -3.84457350       7.46120778       1.05311217
I        7.33456543       5.12358108       4.21131497
Cs       5.10128970       8.43055035       5.28113707
Cs       1.83769259      16.71547050      10.51202211
K        2.58674914       9.42092472       7.89661655
In       0.95527167       6.36625640       5.26443783
I       -0.21016994       9.23752360       6.31751767
I        7.14914539      15.90855215       9.47572047
I        3.21776159      12.99159668       9.47573683
I        3.72121043      12.15438120       6.31753403
I       -2.12007407      13.74182426       6.31752320
I        9.05906486      11.40419756       9.47572600
Cs      -2.43691532       8.28283773       0.01672604
Cs      -5.70051243      16.56775788       5.24761107
K       -4.95145587       9.27321210       2.63220552
In      -6.58293334       6.21854378       0.00002680
I       -7.74837496       9.08981098       1.05310664
I       -0.38905963      15.76083953       4.21130944
I       -4.32044343      12.84388406       4.21132580
I       -3.81699459      12.00666858       1.05312300
I       -9.65827908      13.59411164       1.05311217
I        1.52085984      11.25648494       4.21131497
Cs      -0.71241589      14.56345422       5.28113707
Cs      -3.97601300      22.84837436      10.51202211
K       -3.22695644      15.55382858       7.89661655
In      -4.85843391      12.49916026       5.26443783
I       -6.02387553      15.37042746       6.31751767
I        1.33543980      22.04145601       9.47572047
I       -2.59594400      19.12450055       9.47573683
I       -2.09249516      18.28728506       6.31753403
I       -7.93377965      19.87472812       6.31752320
I        3.24535927      17.53710143       9.47572600
Cs      12.49442727       2.14993387       0.01672604
Cs       9.23083016      10.43485402       5.24761107
K        9.97988672       3.14030824       2.63220552
In       8.34840925       0.08563992       0.00002680
I        7.18296763       2.95690712       1.05310664
I       14.54228296       9.62793567       4.21130944
I       10.61089916       6.71098020       4.21132580
I       11.11434801       5.87376472       1.05312300
I        5.27306351       7.46120778       1.05311217
I       16.45220243       5.12358108       4.21131497
Cs      14.21892670       8.43055035       5.28113707
Cs      10.95532959      16.71547050      10.51202211
K       11.70438615       9.42092472       7.89661655
In      10.07290868       6.36625640       5.26443783
I        8.90746706       9.23752360       6.31751767
I       16.26678239      15.90855215       9.47572047
I       12.33539859      12.99159668       9.47573683
I       12.83884744      12.15438120       6.31753403
I        6.99756294      13.74182426       6.31752320
I       18.17670186      11.40419756       9.47572600
Cs       6.68072168       8.28283773       0.01672604
Cs       3.41712457      16.56775788       5.24761107
K        4.16618113       9.27321210       2.63220552
In       2.53470366       6.21854378       0.00002680
I        1.36926204       9.08981098       1.05310664
I        8.72857738      15.76083953       4.21130944
I        4.79719357      12.84388406       4.21132580
I        5.30064242      12.00666858       1.05312300
I       -0.54064208      13.59411164       1.05311217
I       10.63849684      11.25648494       4.21131497
Cs       8.40522111      14.56345422       5.28113707
Cs       5.14162400      22.84837436      10.51202211
K        5.89068056      15.55382858       7.89661655
In       4.25920309      12.49916026       5.26443783
I        3.09376147      15.37042746       6.31751767
I       10.45307680      22.04145601       9.47572047
I        6.52169300      19.12450055       9.47573683
I        7.02514185      18.28728506       6.31753403
I        1.18385735      19.87472812       6.31752320
I       12.36299627      17.53710143       9.47572600
