10
Lattice="9.08790223241524 -0.027304003914649204 -1.9712935921148074 -4.723984844437249 8.012149716162481 0.07211934056779944 1.862212348772527 1.0184503441146529 8.569338047210374" Properties=species:S:1:pos:R:3:spacegroup_kinds:I:1:forces:R:3 spacegroup="P 1" unit_cell=conventional occupancy="_JSON {\"0\": {\"Cs\": 1.0}, \"1\": {\"Cs\": 1.0}, \"2\": {\"K\": 1.0}, \"3\": {\"In\": 1.0}, \"4\": {\"I\": 1.0}, \"5\": {\"I\": 1.0}, \"6\": {\"I\": 1.0}, \"7\": {\"I\": 1.0}, \"8\": {\"I\": 1.0}, \"9\": {\"I\": 1.0}}" energy=-25.793802610135177 free_energy=-25.793802610135177 stress="1.053835563241918e-06 -1.196609447568673e-05 1.0442671869122467e-06 -1.196609447568673e-05 -3.009955821714653e-06 1.0942863204397956e-06 1.0442671869122467e-06 1.0942863204397956e-06 -1.9082666859254417e-06" pbc="T T T"
Cs       7.61228500       3.66733512       6.95842690        0       0.00041720       0.00081172       0.00037219
Cs       1.16414510       5.33946495      -0.84405548        1      -0.00020397       0.00034096       0.00015847
K        2.20629361       0.51187490       4.00743991        2      -0.00008024      -0.00020202      -0.00001734
In       1.27541478       0.00234294      -0.27699363        3      -0.00010527      -0.00034859      -0.00026357
I        8.35219043       0.21357620      -0.02045101        4       0.00024717       0.00010565       0.00008529
I        5.14811122       0.78138474       6.06388636        5       0.00017988       0.00052081      -0.00001555
I        2.81656413       2.28692869       0.93582281        6      -0.00025636      -0.00026650      -0.00036680
I        5.96009730       6.72127060       5.17992051        7       0.00055566       0.00020902       0.00022647
I       -1.86123341       6.10473736       1.49695789        8       0.00009577      -0.00079937      -0.00004124
I        1.55084186       2.93107976       6.59000798        9      -0.00084984      -0.00037170      -0.00013793
