40
Lattice="18.597298229714568 0.0 0.0 -2.4167670200730447 18.43959702964335 0.0 0.0 0.0 8.828618324462026" Properties=species:S:1:pos:R:3 pbc="T T T"
Cs       2.88685383       3.11029306       0.02797060
Cs      -0.61549038       6.18355924       8.80036455
K       -2.90940475       0.03707864       4.41429825
In      -2.90946584       0.03704801       0.00009828
I       -3.20684388       2.46479962       1.76610061
I        5.47818245       6.82925900       7.06252731
I       -0.77651563       2.44399085       7.06259045
I        3.04784060       6.84969684       1.76616375
I       -1.68748362       9.23620365       1.76612623
I        3.95887891       0.05765173       7.06255292
Cs       1.67847032      12.33009158       0.02797060
Cs      -1.82387389      15.40335775       8.80036455
K       -4.11778826       9.25687716       4.41429825
In      -4.11784935       9.25684653       0.00009828
I       -4.41522739      11.68459813       1.76610061
I        4.26979894      16.04905751       7.06252731
I       -1.98489914      11.66378936       7.06259045
I        1.83945709      16.06949535       1.76616375
I       -2.89586713      18.45600216       1.76612623
I        2.75049540       9.27745025       7.06255292
Cs      12.18550294       3.11029306       0.02797060
Cs       8.68315874       6.18355924       8.80036455
K        6.38924436       0.03707864       4.41429825
In       6.38918328       0.03704801       0.00009828
I        6.09180523       2.46479962       1.76610061
I       14.77683156       6.82925900       7.06252731
I        8.52213348       2.44399085       7.06259045
I       12.34648971       6.84969684       1.76616375
I        7.61116550       9.23620365       1.76612623
I       13.25752802       0.05765173       7.06255292
Cs      10.97711943      12.33009158       0.02797060
Cs       7.47477523      15.40335775       8.80036455
K        5.18086085       9.25687716       4.41429825
In       5.18079977       9.25684653       0.00009828
I        4.88342172      11.68459813       1.76610061
I       13.56844805      16.04905751       7.06252731
I        7.31374997      11.66378936       7.06259045
I       11.13810620      16.06949535       1.76616375
I        6.40278199      18.45600216       1.76612623
I       12.04914451       9.27745025       7.06255292
