10
Lattice="9.107441923910175 -0.7644818580690698 1.7245381859900146 -3.687021345829871 8.31980925548125 -1.8960654969087551 -1.520237320169651 1.284180894930337 8.602777970665574" Properties=species:S:1:pos:R:3:spacegroup_kinds:I:1:forces:R:3 spacegroup="P 1" unit_cell=conventional occupancy="_JSON {\"0\": {\"Cs\": 1.0}, \"1\": {\"Cs\": 1.0}, \"2\": {\"K\": 1.0}, \"3\": {\"In\": 1.0}, \"4\": {\"I\": 1.0}, \"5\": {\"I\": 1.0}, \"6\": {\"I\": 1.0}, \"7\": {\"I\": 1.0}, \"8\": {\"I\": 1.0}, \"9\": {\"I\": 1.0}}" energy=-25.793813710902484 free_energy=-25.793813710902484 stress="5.2066670248618e-06 6.5563103018800285e-06 -1.4380795639636188e-07 6.5563103018800285e-06 -5.398879854578898e-06 1.8293032742733638e-06 -1.4380795639636188e-07 1.8293032742733638e-06 1.0954351193248662e-05" pbc="T T T"
Cs      -0.16423379       7.10576788       7.98387613        0      -0.00039933      -0.00020621      -0.00008138
Cs       4.10300960       4.07286033       9.16721411        1      -0.00033446       0.00039649       0.00026376
K        0.01934035       1.17025164       4.36014442        2      -0.00014404      -0.00018605       0.00014413
In       0.77883076       0.52759442       0.05908700        3       0.00016662      -0.00005464      -0.00002065
I        1.90192835       2.76151058       1.73654669        4      -0.00044026      -0.00014655       0.00028924
I        3.55691244       7.13347862       6.81218253        5      -0.00021007      -0.00027485      -0.00019185
I        1.94921885       1.34634365       7.39358098        6       0.00065196       0.00014942      -0.00033940
I        7.19559696       0.22831473       3.05193317        7       0.00004818       0.00024638      -0.00001971
I       -2.25172973       6.91899633       0.37999624        8      -0.00008477       0.00004962       0.00011574
I       -1.39794714       3.74011376       6.44462763        9       0.00074616       0.00002639      -0.00015987
