40
Lattice="20.18378387597016 0.7452940079260746 -1.5594105335529624 -9.388057351191925 15.835269657415264 -0.3741589261879759 4.321674126982843 2.2532033187434255 7.093397467949118" Properties=species:S:1:pos:R:3:spacegroup_kinds:I:1:forces:R:3 spacegroup="P 1" unit_cell=conventional occupancy="_JSON {\"0\": {\"Cs\": 1.0}, \"1\": {\"Cs\": 1.0}, \"2\": {\"K\": 1.0}, \"3\": {\"In\": 1.0}, \"4\": {\"I\": 1.0}, \"5\": {\"I\": 1.0}, \"6\": {\"I\": 1.0}, \"7\": {\"I\": 1.0}, \"8\": {\"I\": 1.0}, \"9\": {\"I\": 1.0}, \"10\": {\"Cs\": 1.0}, \"11\": {\"Cs\": 1.0}, \"12\": {\"K\": 1.0}, \"13\": {\"In\": 1.0}, \"14\": {\"I\": 1.0}, \"15\": {\"I\": 1.0}, \"16\": {\"I\": 1.0}, \"17\": {\"I\": 1.0}, \"18\": {\"I\": 1.0}, \"19\": {\"I\": 1.0}, \"20\": {\"Cs\": 1.0}, \"21\": {\"Cs\": 1.0}, \"22\": {\"K\": 1.0}, \"23\": {\"In\": 1.0}, \"24\": {\"I\": 1.0}, \"25\": {\"I\": 1.0}, \"26\": {\"I\": 1.0}, \"27\": {\"I\": 1.0}, \"28\": {\"I\": 1.0}, \"29\": {\"I\": 1.0}, \"30\": {\"Cs\": 1.0}, \"31\": {\"Cs\": 1.0}, \"32\": {\"K\": 1.0}, \"33\": {\"In\": 1.0}, \"34\": {\"I\": 1.0}, \"35\": {\"I\": 1.0}, \"36\": {\"I\": 1.0}, \"37\": {\"I\": 1.0}, \"38\": {\"I\": 1.0}, \"39\": {\"I\": 1.0}}" energy=-102.61408678012623 free_energy=-102.61408678012623 stress="1.1113448711761658e-06 -5.218870203693546e-07 -1.0336612434704955e-06 -5.218870203693546e-07 -1.9306273414313105e-07 4.2327299811867453e-07 -1.0336612434704955e-06 4.2327299811867453e-07 -4.936899742564831e-07" pbc="T T T"
Cs       4.67037066       3.71500049       0.74744848        0       0.00019793       0.00007159       0.00014033
Cs       2.88163569       7.88142117       5.46847649        1       0.00018519      -0.00001666       0.00014928
K       21.26087128       2.39958763       2.03255737        2       0.00007480      -0.00027191       0.00009101
In      19.10065373       1.27156063      -1.51395121        3      -0.00018242       0.00025101      -0.00052621
I       18.69735154       3.89866366      -0.11830800        4       0.00012791      -0.00015529       0.00005521
I        9.03882866       8.44318382       4.77542259        5       0.00014298       0.00008408       0.00021726
I        3.33040412       4.18462255       4.48041408        6      -0.00024411      -0.00024104       0.00029037
I        4.22370393       7.41190393       1.73688510        7      -0.00017338      -0.00006571       0.00010596
I       -2.79894487       8.80109079       0.08710320        8      -0.00043334       0.00008303      -0.00008193
I       10.35228976       2.79478003       6.13077863        9      -0.00027719       0.00012827       0.00003540
Cs      -0.02360310      11.63265966       0.56034741       10       0.00009346       0.00003022       0.00021266
Cs      -1.81238707      15.79906057       5.28139131       11       0.00013864      -0.00003905       0.00018205
K       16.56686611      10.31724465       1.84551444       12      -0.00009278      -0.00040017      -0.00012126
In      14.40659119       9.18916920      -1.70122762       13       0.00006305       0.00047059       0.00053731
I       14.00332040      11.81630228      -0.30534194       14       0.00014161      -0.00032897      -0.00010964
I        4.34486806      16.36073086       4.58839291       15       0.00004233       0.00002927       0.00000397
I       -1.36367638      12.10221628       4.29344266       16      -0.00013511       0.00000451      -0.00016059
I       -0.47026178      15.32960662       1.54984361       17      -0.00028766      -0.00019705      -0.00008546
I        1.89500338       0.88342705       0.27419915       18      -0.00015179       0.00010663      -0.00010922
I        5.65823091      10.71240315       5.94374553       19      -0.00016023       0.00017368      -0.00004420
Cs      14.76233824       4.08768798      -0.03230050       20       0.00005900      -0.00001838       0.00025352
Cs      12.97356567       8.25404686       4.68871315       21       0.00003241       0.00003148       0.00026435
K       11.16891795       2.02693091       2.81238627       22       0.00011440      -0.00033297      -0.00021265
In       9.00873010       0.89895067      -0.73445653       23       0.00003133       0.00015131       0.00040272
I        8.60549616       3.52596317       0.66145098       24       0.00000328       0.00000640      -0.00003193
I       19.13073821       8.81582777       3.99576881       25       0.00012444      -0.00014028      -0.00001862
I       13.42222391       4.55724533       3.70086836       26      -0.00010476      -0.00001034      -0.00040732
I       14.31556232       7.78449828       0.95728418       27      -0.00005955       0.00016720      -0.00031801
I        7.29276732       9.17370406      -0.69258834       28       0.00024117       0.00014096      -0.00011802
I       20.44405585       3.16742109       5.35117819       29       0.00018044       0.00012985      -0.00019194
Cs      10.06825599      12.00530235      -0.21934199       30       0.00015565      -0.00000585       0.00018427
Cs       8.27949476      16.17170150       4.50169781       31       0.00015087      -0.00000264       0.00015456
K        6.47493979       9.94461156       2.62523588       32       0.00009831      -0.00043030       0.00001201
In       4.31473961       8.81669841      -0.92131187       33      -0.00016982      -0.00066043      -0.00058406
I        3.91148596      11.44350276       0.47425927       34      -0.00004087       0.00056506       0.00037544
I       14.43673598      16.73345270       3.80862604       35       0.00004642       0.00008101       0.00019089
I        8.72820454      12.47480340       3.51377029       36      -0.00010513       0.00017943      -0.00027049
I        9.62154281      15.70211600       0.77020540       37      -0.00012720       0.00010251      -0.00012975
I       11.98676803       1.25605062      -0.50546974       38       0.00021895       0.00016310      -0.00016417
I       15.75002948      11.08502406       5.16410616       39       0.00008081       0.00016586      -0.00017312
