5
Lattice="6.387069797033619 -6.121540448594193e-11 -1.6486619342928346e-15 -6.121540498585493e-11 6.387069797033629 2.355582445343784e-16 -1.6491088862182962e-15 2.3616775092509907e-16 6.387069797008504" Properties=species:S:1:pos:R:3:spacegroup_kinds:I:1:forces:R:3 spacegroup="P 1" unit_cell=conventional occupancy="_JSON {\"0\": {\"Cs\": 1.0}, \"1\": {\"Pb\": 1.0}, \"2\": {\"I\": 1.0}, \"3\": {\"I\": 1.0}, \"4\": {\"I\": 1.0}}" energy=-13.98074242722795 free_energy=-13.98074242722795 stress="2.670801479129865e-07 -5.693944972486579e-13 -1.4036585689436505e-17 -5.693944972486579e-13 2.6708014809590725e-07 1.217814177191786e-18 -1.4036585689436505e-17 1.217814177191786e-18 2.670811268739999e-07" pbc="T T T"
Cs       3.19356770       3.19350210       3.19353490        0       0.00000163      -0.00000163      -0.00000000
Pb       0.00000042      -0.00000042       0.00000000        1       0.00000235      -0.00000235      -0.00000000
I       -0.00000203       0.00000203       3.19353490        2      -0.00000145       0.00000145       0.00000000
I        3.19353621       0.00000203       0.00000000        3      -0.00000108       0.00000145       0.00000000
I       -0.00000203       3.19353359       0.00000000        4      -0.00000145       0.00000108       0.00000000
