10
Lattice="7.939824392206921 0.0 0.0 -4.4705009734598296 7.743134821318553 0.0 -0.043960851533992644 4.816273048058184 7.920690978968361" Properties=species:S:1:pos:R:3 pbc="T T T"
Cs      -0.25460930       5.20801095      -0.00000204
Cs       3.88216582       2.62696601      -0.00000204
K        0.05713655       2.45405720       3.96034615
In       0.07911746       0.04592139       0.00000183
I        0.97998024       3.03975077       1.58466968
I        2.60361738       9.61149955       6.33602433
I        2.12577549       3.89861631       6.33602410
I        5.92832100       1.00949698       1.58466945
I       -3.22801278       6.72238116       1.58466873
I       -1.12821630       5.92887103       6.33602339
