40
Lattice="19.139926921592636 2.3556976463907158 1.5828695209030461 11.745864320103045 20.083072343571914 0.04834442156168174 5.813840498283074 3.4840900570972466 7.022364114812724" Properties=species:S:1:pos:R:3:spacegroup_kinds:I:1:forces:R:3 spacegroup="P 1" unit_cell=conventional occupancy="_JSON {\"0\": {\"Cs\": 1.0}, \"1\": {\"Cs\": 1.0}, \"2\": {\"K\": 1.0}, \"3\": {\"In\": 1.0}, \"4\": {\"I\": 1.0}, \"5\": {\"I\": 1.0}, \"6\": {\"I\": 1.0}, \"7\": {\"I\": 1.0}, \"8\": {\"I\": 1.0}, \"9\": {\"I\": 1.0}, \"10\": {\"Cs\": 1.0}, \"11\": {\"Cs\": 1.0}, \"12\": {\"K\": 1.0}, \"13\": {\"In\": 1.0}, \"14\": {\"I\": 1.0}, \"15\": {\"I\": 1.0}, \"16\": {\"I\": 1.0}, \"17\": {\"I\": 1.0}, \"18\": {\"I\": 1.0}, \"19\": {\"I\": 1.0}, \"20\": {\"Cs\": 1.0}, \"21\": {\"Cs\": 1.0}, \"22\": {\"K\": 1.0}, \"23\": {\"In\": 1.0}, \"24\": {\"I\": 1.0}, \"25\": {\"I\": 1.0}, \"26\": {\"I\": 1.0}, \"27\": {\"I\": 1.0}, \"28\": {\"I\": 1.0}, \"29\": {\"I\": 1.0}, \"30\": {\"Cs\": 1.0}, \"31\": {\"Cs\": 1.0}, \"32\": {\"K\": 1.0}, \"33\": {\"In\": 1.0}, \"34\": {\"I\": 1.0}, \"35\": {\"I\": 1.0}, \"36\": {\"I\": 1.0}, \"37\": {\"I\": 1.0}, \"38\": {\"I\": 1.0}, \"39\": {\"I\": 1.0}}" energy=-97.94074672275255 free_energy=-97.94074672275255 stress="-3.8870947988919575e-06 -5.618954804800177e-06 -3.392613185506089e-07 -5.618954804800177e-06 1.6680389477726453e-06 -1.4598967703065778e-06 -3.392613185506089e-07 -1.4598967703065778e-06 -5.955727327218697e-06" pbc="T T T"
Cs       5.64600766       4.80348951       1.86571325        0      -0.00037307       0.00023327      -0.00043204
Cs      15.44822272      10.13655829       5.90609742        1       0.00031678       0.00011410       0.00016941
K       10.25355171       6.49830682       4.25409289        2       0.00010911      -0.00005147       0.00020595
In      19.64567564       3.02268431       1.74487491        3      -0.00006221      -0.00030446      -0.00040223
I        8.61542919       3.26709998       3.80081455        4      -0.00026852       0.00026312      -0.00007459
I       12.01774847      11.57864031       4.58394383        5       0.00015885      -0.00023914       0.00036874
I       11.93928203       4.58091362       1.10790211        6       0.00001916      -0.00032853       0.00021727
I        9.91111276       9.90687165       5.61803481        7      -0.00032090       0.00022199      -0.00014187
I        7.87057148       8.02285947       1.97884852        8       0.00024736       0.00029146      -0.00002830
I       13.45742372       6.69771506       5.99759832        9      -0.00040168       0.00025516      -0.00009938
Cs      11.51333954      14.84948373       1.88774618       10       0.00054190       0.00007192       0.00032801
Cs      21.32236893      20.17815398       5.93417787       11       0.00004299      -0.00009530       0.00015063
K       16.12268428      16.53853686       4.28132113       12       0.00021985      -0.00007714      -0.00055114
In      25.51477964      13.06093323       1.76498776       13       0.00011104       0.00005067       0.00026590
I       14.48345297      13.30835438       3.81932721       14      -0.00014661       0.00024551      -0.00019116
I       17.89448722      21.62331042       4.61159995       15      -0.00033706       0.00010438      -0.00016936
I       17.81119753      14.61678329       1.13091461       16      -0.00022274      -0.00009344       0.00018891
I       15.78330509      19.95299428       5.63977187       17       0.00015046      -0.00029637       0.00026885
I       13.74241988      18.06714192       2.00470566       18       0.00006940      -0.00029599      -0.00003982
I       19.32585267      16.74281035       6.02123083       19       0.00060787      -0.00032888      -0.00027133
Cs      15.21579994       5.98258621       2.65590697       20      -0.00055052       0.00026801      -0.00005280
Cs      25.01802792      11.31610906       6.69684387       21       0.00032857      -0.00011178       0.00020508
K       19.82516946       7.67780824       5.04287274       22      -0.00005756      -0.00030484       0.00045028
In      10.07675933       1.84385941       0.95211072       23      -0.00023810      -0.00007653      -0.00005478
I       18.18567698       4.44603473       4.59254523       24      -0.00015660      -0.00027566      -0.00020571
I       21.58714567      12.75779094       5.37397694       25       0.00030733      -0.00002292       0.00037156
I       21.50718619       5.76130800       1.90253072       26       0.00020764      -0.00041656      -0.00045851
I       19.48026352      11.08598110       6.40772319       27       0.00042753       0.00020079       0.00038873
I       17.44062182       9.20261574       2.76912080       28      -0.00024016       0.00007743       0.00028152
I       23.02768082       7.87686805       6.78954138       29      -0.00027788       0.00025792      -0.00052901
Cs      21.08243518      16.02850479       2.67862264       30       0.00053605      -0.00029510       0.00004900
Cs      30.89268658      21.35504289       6.72680895       31      -0.00030332       0.00022630      -0.00088703
K       25.69300250      17.71503976       5.07317616       32      -0.00004449       0.00032108      -0.00052700
In      15.94384666      11.88421510       0.97431490       33       0.00019815       0.00030819       0.00004462
I       24.05258108      14.48672408       4.60806867       34       0.00011345      -0.00035398       0.00085772
I       27.46574328      22.80098628       5.40212158       35      -0.00072048       0.00015007      -0.00023157
I       27.38212233      15.79330448       1.92252098       36      -0.00033979       0.00047620       0.00031266
I       25.35448149      21.13049083       6.42963904       37      -0.00035473      -0.00058859       0.00015051
I       23.31286108      19.24413442       2.79620139       38       0.00007380       0.00011820      -0.00003665
I       28.89600431      17.91858876       6.81300271       39       0.00062909       0.00030091       0.00010890
