40
Lattice="18.444066367282684 0.08956292278763142 0.03138929369351973 9.297385561846061 14.914979398595216 0.418701875173271 4.644286883916266 2.6875623921656997 7.521227428091322" Properties=species:S:1:pos:R:3:spacegroup_kinds:I:1:forces:R:3 spacegroup="P 1" unit_cell=conventional occupancy="_JSON {\"0\": {\"Cs\": 1.0}, \"1\": {\"Cs\": 1.0}, \"2\": {\"K\": 1.0}, \"3\": {\"In\": 1.0}, \"4\": {\"I\": 1.0}, \"5\": {\"I\": 1.0}, \"6\": {\"I\": 1.0}, \"7\": {\"I\": 1.0}, \"8\": {\"I\": 1.0}, \"9\": {\"I\": 1.0}, \"10\": {\"Cs\": 1.0}, \"11\": {\"Cs\": 1.0}, \"12\": {\"K\": 1.0}, \"13\": {\"In\": 1.0}, \"14\": {\"I\": 1.0}, \"15\": {\"I\": 1.0}, \"16\": {\"I\": 1.0}, \"17\": {\"I\": 1.0}, \"18\": {\"I\": 1.0}, \"19\": {\"I\": 1.0}, \"20\": {\"Cs\": 1.0}, \"21\": {\"Cs\": 1.0}, \"22\": {\"K\": 1.0}, \"23\": {\"In\": 1.0}, \"24\": {\"I\": 1.0}, \"25\": {\"I\": 1.0}, \"26\": {\"I\": 1.0}, \"27\": {\"I\": 1.0}, \"28\": {\"I\": 1.0}, \"29\": {\"I\": 1.0}, \"30\": {\"Cs\": 1.0}, \"31\": {\"Cs\": 1.0}, \"32\": {\"K\": 1.0}, \"33\": {\"In\": 1.0}, \"34\": {\"I\": 1.0}, \"35\": {\"I\": 1.0}, \"36\": {\"I\": 1.0}, \"37\": {\"I\": 1.0}, \"38\": {\"I\": 1.0}, \"39\": {\"I\": 1.0}}" energy=-102.59578584221161 free_energy=-102.59578584221161 stress="2.870248058200153e-07 -1.2841348809619523e-07 -7.082233859063918e-07 -1.2841348809619523e-07 -6.315434639414311e-07 3.9409743402488405e-08 -7.082233859063918e-07 3.9409743402488405e-08 1.4948509560091457e-07" pbc="T T T"
Cs       4.63253124       2.73269283       1.89064642        0       0.00018652      -0.00030559       0.00008243
Cs      13.88284532       7.45807013       5.85532462        1      -0.00016281      -0.00016244       0.00021404
K        9.25756007       5.09484986       3.87260066        2      -0.00006930      -0.00014417       0.00022373
In      18.44409214       0.08946952       0.03154097        3      -0.00029860       0.00000732      -0.00040336
I        6.33648221       3.68974905       5.28711944        4       0.00015389       0.00013235       0.00011925
I       12.17844660       6.50055916       2.45939176        5      -0.00013059      -0.00042960      -0.00002201
I        9.95086414       2.42388776       1.65567114        6       0.00017927       0.00064986       0.00008080
I        8.56464801       7.76487811       6.09092299        7      -0.00046143       0.00061654       0.00002628
I        6.99622441       6.00355399       1.30968687        8       0.00016990       0.00012854      -0.00007808
I       11.51847074       4.18576961       6.43638698        9       0.00005116       0.00022276      -0.00027506
Cs       9.28107542      10.19024288       2.10028017       10       0.00004432      -0.00018691      -0.00013535
Cs      18.53152012      14.91537391       6.06466949       11      -0.00015143      -0.00006983       0.00004608
K       13.90628131      12.55224539       4.08215348       12      -0.00004369       0.00021006       0.00032559
In      23.09253868       7.54685349       0.24058367       13       0.00044511       0.00031465       0.00032614
I       10.98507934      11.14775136       5.49667350       14      -0.00004684      -0.00023968      -0.00018915
I       16.82685036      13.95791071       2.66849236       15      -0.00004815      -0.00040025       0.00016426
I       14.59966197       9.88162043       1.86496115       16       0.00013099      -0.00006756      -0.00023443
I       13.21291250      15.22287633       6.30043876       17      -0.00022226      -0.00019272      -0.00010541
I       11.64488252      13.46071000       1.51916637       18       0.00004440       0.00017415      -0.00008077
I       16.16716930      11.64336491       6.64578390       19      -0.00004192       0.00004027       0.00014005
Cs      13.85470194       2.77761923       1.90663383       20      -0.00024924      -0.00027095       0.00000494
Cs      23.10471634       7.50281186       5.87102774       21       0.00026073      -0.00033631       0.00006050
K       18.47968666       5.13958135       3.88828562       22      -0.00004022       0.00003932       0.00049185
In       9.22190435       0.04473913       0.01555625       23       0.00011273      -0.00026289       0.00018842
I       15.55869384       3.73512633       5.30303909       24      -0.00011414      -0.00043540      -0.00007924
I       21.40047756       6.54477720       2.47506759       25       0.00005464       0.00012174      -0.00035086
I       19.17339792       2.46870832       1.67141237       26      -0.00024185       0.00029905      -0.00010772
I       17.78613608       7.80988349       6.10672992       27       0.00017874       0.00026239      -0.00003071
I       16.21836472       6.04813022       1.32521006       28      -0.00003696       0.00038183      -0.00006181
I       20.74052906       4.23073109       6.45243419       29       0.00024295       0.00017331      -0.00013352
Cs      18.50337821      10.23472265       2.11566159       30      -0.00029580       0.00002251       0.00011905
Cs      27.75325766      14.96034485       6.08057269       31       0.00009557      -0.00013359       0.00007683
K       23.12846706      12.59699481       4.09786205       32      -0.00040768       0.00008960       0.00013222
In      13.87062622       7.50214796       0.22493661       33      -0.00001998       0.00030811      -0.00001479
I       20.20693489      11.19247203       5.51212341       34       0.00029310      -0.00030284      -0.00001936
I       26.04875674      14.00276913       2.68446988       35       0.00039088      -0.00012519      -0.00005565
I       23.82176605       9.92643768       1.88058346       36      -0.00047054      -0.00024225      -0.00016394
I       22.43502375      15.26739798       6.31608152       37       0.00016200       0.00027439      -0.00020849
I       20.86687319      13.50573318       1.53492438       38       0.00001798       0.00012204      -0.00019371
I       25.38905499      11.68799311       6.66149681       39       0.00033855      -0.00028263       0.00012095
