40
Lattice="16.149188803185027 0.0 0.0 8.074594401660477 13.985607754030509 0.0 4.037297200895514 2.330934625722423 6.592878902244361" Properties=species:S:1:pos:R:3 pbc="T T T"
Cs       4.03726475       2.33092489       1.64822091
Cs      12.11192396       6.99281335       4.94465783
K        8.07459442       4.66186915       3.29643941
In       0.00000010       0.00000023       0.00000009
I        6.23612356       2.95856619       4.50267840
I        9.91306530       6.36517195       2.09020039
I        8.71903345       2.62257083       1.53216559
I        7.43015505       6.70116727       5.06071316
I        5.91396709       5.90943210       1.53217239
I       10.23522201       3.41430684       5.06070675
Cs       8.07456195       9.32372877       1.64822091
Cs      16.14922116      13.98561723       4.94465783
K       12.11189162      11.65467303       3.29643941
In       4.03729730       6.99280411       0.00000009
I       10.27342076       9.95137007       4.50267840
I       13.95036250      13.35797582       2.09020039
I       12.75633065       9.61537470       1.53216559
I       11.46745225      13.69397115       5.06071316
I        9.95126429      12.90223597       1.53217239
I       14.27251921      10.40711072       5.06070675
Cs      12.11185915       2.33092489       1.64822091
Cs      20.18651836       6.99281335       4.94465783
K       16.14918882       4.66186915       3.29643941
In       8.07459450       0.00000023       0.00000009
I       14.31071797       2.95856619       4.50267840
I       17.98765970       6.36517195       2.09020039
I       16.79362785       2.62257083       1.53216559
I       15.50474945       6.70116727       5.06071316
I       13.98856149       5.90943210       1.53217239
I       18.30981641       3.41430684       5.06070675
Cs      16.14915635       9.32372877       1.64822091
Cs      24.22381557      13.98561723       4.94465783
K       20.18648602      11.65467303       3.29643941
In      12.11189170       6.99280411       0.00000009
I       18.34801517       9.95137007       4.50267840
I       22.02495690      13.35797582       2.09020039
I       20.83092505       9.61537470       1.53216559
I       19.54204665      13.69397115       5.06071316
I       18.02585870      12.90223597       1.53217239
I       22.34711361      10.40711072       5.06070675
