20
Lattice="19.526728983936362 0.0 0.0 -6.322312233166389 7.439869234696248 0.0 -0.42121497513838635 -0.3579434672979198 9.253737220549276" Properties=species:S:1:pos:R:3 pbc="T T T"
Cs       6.89030273       2.13598806       9.24494151
Cs       1.94883370       4.97321510       0.00859885
K       -0.21060749      -0.17897173       4.62686861
In       2.90968004       0.01363491       0.00005529
I       10.02755848      -0.05283136       1.85106547
I       -1.18843972       7.16195270       7.40271349
I        3.73334363       1.89038894       1.85108523
I        5.10586041       5.21886093       7.40273324
I        7.91971842       5.42842262       1.85105752
I        0.91941731       1.68080653       7.40270553
Cs      16.65366723       2.13598806       9.24494151
Cs      11.71219819       4.97321510       0.00859885
K        9.55275700      -0.17897173       4.62686861
In      12.67304453       0.01363491       0.00005529
I       19.79092298      -0.05283136       1.85106547
I        8.57492477       7.16195270       7.40271349
I       13.49670812       1.89038894       1.85108523
I       14.86922490       5.21886093       7.40273324
I       17.68308291       5.42842262       1.85105752
I       10.68278181       1.68080653       7.40270553
