160
Lattice="17.322542155730954 -0.35094817962505587 -1.0296269770015349e-09 0.37026098695839393 18.306944824897435 -6.601020085007257e-10 -1.456804542068098e-09 -8.227902546569193e-10 25.27431805078229" Properties=species:S:1:pos:R:3:spacegroup_kinds:I:1:forces:R:3 spacegroup="P 1" unit_cell=conventional occupancy="_JSON {\"0\": {\"Cs\": 1.0}, \"1\": {\"Cs\": 1.0}, \"2\": {\"Cs\": 1.0}, \"3\": {\"Cs\": 1.0}, \"4\": {\"Pb\": 1.0}, \"5\": {\"Pb\": 1.0}, \"6\": {\"Pb\": 1.0}, \"7\": {\"Pb\": 1.0}, \"8\": {\"I\": 1.0}, \"9\": {\"I\": 1.0}, \"10\": {\"I\": 1.0}, \"11\": {\"I\": 1.0}, \"12\": {\"I\": 1.0}, \"13\": {\"I\": 1.0}, \"14\": {\"I\": 1.0}, \"15\": {\"I\": 1.0}, \"16\": {\"I\": 1.0}, \"17\": {\"I\": 1.0}, \"18\": {\"I\": 1.0}, \"19\": {\"I\": 1.0}, \"20\": {\"Cs\": 1.0}, \"21\": {\"Cs\": 1.0}, \"22\": {\"Cs\": 1.0}, \"23\": {\"Cs\": 1.0}, \"24\": {\"Pb\": 1.0}, \"25\": {\"Pb\": 1.0}, \"26\": {\"Pb\": 1.0}, \"27\": {\"Pb\": 1.0}, \"28\": {\"I\": 1.0}, \"29\": {\"I\": 1.0}, \"30\": {\"I\": 1.0}, \"31\": {\"I\": 1.0}, \"32\": {\"I\": 1.0}, \"33\": {\"I\": 1.0}, \"34\": {\"I\": 1.0}, \"35\": {\"I\": 1.0}, \"36\": {\"I\": 1.0}, \"37\": {\"I\": 1.0}, \"38\": {\"I\": 1.0}, \"39\": {\"I\": 1.0}, \"40\": {\"Cs\": 1.0}, \"41\": {\"Cs\": 1.0}, \"42\": {\"Cs\": 1.0}, \"43\": {\"Cs\": 1.0}, \"44\": {\"Pb\": 1.0}, \"45\": {\"Pb\": 1.0}, \"46\": {\"Pb\": 1.0}, \"47\": {\"Pb\": 1.0}, \"48\": {\"I\": 1.0}, \"49\": {\"I\": 1.0}, \"50\": {\"I\": 1.0}, \"51\": {\"I\": 1.0}, \"52\": {\"I\": 1.0}, \"53\": {\"I\": 1.0}, \"54\": {\"I\": 1.0}, \"55\": {\"I\": 1.0}, \"56\": {\"I\": 1.0}, \"57\": {\"I\": 1.0}, \"58\": {\"I\": 1.0}, \"59\": {\"I\": 1.0}, \"60\": {\"Cs\": 1.0}, \"61\": {\"Cs\": 1.0}, \"62\": {\"Cs\": 1.0}, \"63\": {\"Cs\": 1.0}, \"64\": {\"Pb\": 1.0}, \"65\": {\"Pb\": 1.0}, \"66\": {\"Pb\": 1.0}, \"67\": {\"Pb\": 1.0}, \"68\": {\"I\": 1.0}, \"69\": {\"I\": 1.0}, \"70\": {\"I\": 1.0}, \"71\": {\"I\": 1.0}, \"72\": {\"I\": 1.0}, \"73\": {\"I\": 1.0}, \"74\": {\"I\": 1.0}, \"75\": {\"I\": 1.0}, \"76\": {\"I\": 1.0}, \"77\": {\"I\": 1.0}, \"78\": {\"I\": 1.0}, \"79\": {\"I\": 1.0}, \"80\": {\"Cs\": 1.0}, \"81\": {\"Cs\": 1.0}, \"82\": {\"Cs\": 1.0}, \"83\": {\"Cs\": 1.0}, \"84\": {\"Pb\": 1.0}, \"85\": {\"Pb\": 1.0}, \"86\": {\"Pb\": 1.0}, \"87\": {\"Pb\": 1.0}, \"88\": {\"I\": 1.0}, \"89\": {\"I\": 1.0}, \"90\": {\"I\": 1.0}, \"91\": {\"I\": 1.0}, \"92\": {\"I\": 1.0}, \"93\": {\"I\": 1.0}, \"94\": {\"I\": 1.0}, \"95\": {\"I\": 1.0}, \"96\": {\"I\": 1.0}, \"97\": {\"I\": 1.0}, \"98\": {\"I\": 1.0}, \"99\": {\"I\": 1.0}, \"100\": {\"Cs\": 1.0}, \"101\": {\"Cs\": 1.0}, \"102\": {\"Cs\": 1.0}, \"103\": {\"Cs\": 1.0}, \"104\": {\"Pb\": 1.0}, \"105\": {\"Pb\": 1.0}, \"106\": {\"Pb\": 1.0}, \"107\": {\"Pb\": 1.0}, \"108\": {\"I\": 1.0}, \"109\": {\"I\": 1.0}, \"110\": {\"I\": 1.0}, \"111\": {\"I\": 1.0}, \"112\": {\"I\": 1.0}, \"113\": {\"I\": 1.0}, \"114\": {\"I\": 1.0}, \"115\": {\"I\": 1.0}, \"116\": {\"I\": 1.0}, \"117\": {\"I\": 1.0}, \"118\": {\"I\": 1.0}, \"119\": {\"I\": 1.0}, \"120\": {\"Cs\": 1.0}, \"121\": {\"Cs\": 1.0}, \"122\": {\"Cs\": 1.0}, \"123\": {\"Cs\": 1.0}, \"124\": {\"Pb\": 1.0}, \"125\": {\"Pb\": 1.0}, \"126\": {\"Pb\": 1.0}, \"127\": {\"Pb\": 1.0}, \"128\": {\"I\": 1.0}, \"129\": {\"I\": 1.0}, \"130\": {\"I\": 1.0}, \"131\": {\"I\": 1.0}, \"132\": {\"I\": 1.0}, \"133\": {\"I\": 1.0}, \"134\": {\"I\": 1.0}, \"135\": {\"I\": 1.0}, \"136\": {\"I\": 1.0}, \"137\": {\"I\": 1.0}, \"138\": {\"I\": 1.0}, \"139\": {\"I\": 1.0}, \"140\": {\"Cs\": 1.0}, \"141\": {\"Cs\": 1.0}, \"142\": {\"Cs\": 1.0}, \"143\": {\"Cs\": 1.0}, \"144\": {\"Pb\": 1.0}, \"145\": {\"Pb\": 1.0}, \"146\": {\"Pb\": 1.0}, \"147\": {\"Pb\": 1.0}, \"148\": {\"I\": 1.0}, \"149\": {\"I\": 1.0}, \"150\": {\"I\": 1.0}, \"151\": {\"I\": 1.0}, \"152\": {\"I\": 1.0}, \"153\": {\"I\": 1.0}, \"154\": {\"I\": 1.0}, \"155\": {\"I\": 1.0}, \"156\": {\"I\": 1.0}, \"157\": {\"I\": 1.0}, \"158\": {\"I\": 1.0}, \"159\": {\"I\": 1.0}}" energy=-452.06420530491846 free_energy=-452.06420530491846 stress="1.528140573084522e-06 1.1526140023446046e-07 -8.325489227700916e-10 1.1526140023446046e-07 1.0054385998076713e-05 -5.02363482114777e-10 -8.325489227700916e-10 -5.02363482114777e-10 -1.339974733246991e-05" pbc="T T T"
Cs       5.27143334       8.91838582       3.15929464        0       0.00035626      -0.00075022      -0.00003008
Cs       1.32175517       4.41831617       3.15928710        1       0.00037353       0.00063945       0.00001585
Cs       5.58993697       1.17872643       9.47786936        2       0.00005178      -0.00018758      -0.00000105
Cs       9.53970247       5.67774260       9.47787366        3      -0.00004030      -0.00003649      -0.00002733
Pb       1.00760354       0.55925588      25.27424487        4       0.00011392      -0.00007483       0.00023245
Pb       5.43086160       5.04818142      25.27422314        5      -0.00012207       0.00036744       0.00063067
Pb       1.00760203       0.55924067       6.31862028        6       0.00012791       0.00001776      -0.00003541
Pb       5.43085652       5.04821722       6.31866508        7      -0.00009792       0.00014931      -0.00057392
I        2.81300277       6.92289430       0.52690163        8      -0.00014073      -0.00030918      -0.00021765
I        3.69893905       2.32646922       0.52739866        9       0.00000897      -0.00022602      -0.00042142
I        8.93551439       0.48408799       3.15930924       10       0.00027879       0.00043008      -0.00012152
I        8.04866876       3.17369229      12.11020213       11       0.00011567       0.00022480       0.00025882
I        7.16281935       7.76990997      12.10991796       12      -0.00023369       0.00037135       0.00007273
I        6.16724328       5.12058269       3.15929510       13      -0.00020794       0.00004734      -0.00003408
I        2.81301732       6.92287387       5.79167605       14      -0.00022775      -0.00018695       0.00022825
I        3.69893077       2.32646013       5.79118451       15       0.00006207      -0.00016914       0.00039855
I        1.92633479       9.61249404       9.47785658       16      -0.00048860      -0.00066877       0.00007267
I        8.04864569       3.17372048       6.84553363       17       0.00024998       0.00006152      -0.00024228
I        7.16280255       7.76989019       6.84581696       18      -0.00012524       0.00049518      -0.00005115
I        4.69459702       4.97577931       9.47783972       19      -0.00014883       0.00029345       0.00017981
Cs       5.27143222       8.91836694      15.79644316       20       0.00036724      -0.00063592       0.00003360
Cs       1.32175583       4.41832015      15.79645138       21       0.00036873       0.00061554      -0.00001599
Cs       5.58993540       1.17873145      22.11502757       22       0.00006020      -0.00021725       0.00000397
Cs       9.53970397       5.67772657      22.11502311       23      -0.00004528       0.00006085       0.00003105
Pb       1.00761167       0.55928346      12.63712009       24       0.00005830      -0.00024409       0.00002394
Pb       5.43085150       5.04822641      12.63711721       25      -0.00007220       0.00009701       0.00030920
Pb       1.00761248       0.55930206      18.95581003       26       0.00004738      -0.00035451      -0.00022266
Pb       5.43086102       5.04818608      18.95579053       27      -0.00011950       0.00033854      -0.00037119
I        2.81300898       6.92288785      13.16405843       28      -0.00017706      -0.00027223      -0.00020426
I        3.69891696       2.32643896      13.16455305       29       0.00015326      -0.00003748      -0.00039311
I        8.93551328       0.48408092      15.79642317       30       0.00028748       0.00047283       0.00015407
I        8.04863674       3.17373224      24.74736560       31       0.00030336      -0.00000878       0.00023170
I        7.16281509       7.76991009      24.74707781       32      -0.00020925       0.00037015       0.00006763
I        6.16724307       5.12058473      15.79644071       33      -0.00020691       0.00003493       0.00004767
I        2.81298954       6.92291391      18.42884092       34      -0.00006493      -0.00042303       0.00019294
I        3.69892435       2.32644723      18.42834053       35       0.00010480      -0.00009027       0.00041681
I        1.92633801       9.61249909      22.11503393       36      -0.00050962      -0.00070009      -0.00003566
I        8.04865782       3.17370614      19.48269389       37       0.00017982       0.00014341      -0.00024983
I        7.16283326       7.76993185      19.48298230       38      -0.00032548       0.00023566      -0.00008955
I        4.69459592       4.97578384      22.11506024       39      -0.00014306       0.00026616      -0.00019252
Cs       5.45656616      18.07183351       3.15928624       40       0.00034809      -0.00060500       0.00002151
Cs       1.50688471      13.57179852       3.15929217       41       0.00037716       0.00058271      -0.00001500
Cs       5.77506540      10.33221137       9.47786994       42       0.00006119      -0.00025827      -0.00000410
Cs       9.72483271      14.83120317       9.47786217       43      -0.00003544       0.00003806       0.00004233
Pb       1.19273518       9.71277973      25.27427202       44       0.00009615      -0.00037322       0.00006681
Pb       5.61598796      14.20171155      25.27427667       45      -0.00011139       0.00002469       0.00030748
Pb       1.19274722       9.71279268       6.31865695       46       0.00001880      -0.00045482      -0.00025793
Pb       5.61599397      14.20167569       6.31864156       47      -0.00013976       0.00024309      -0.00043079
I        2.99813700      16.07636367       0.52689932       48      -0.00016509      -0.00028886      -0.00020403
I        3.88403869      11.47989787       0.52739490       49       0.00020499       0.00003806      -0.00039809
I        9.12064261       9.63755006       3.15926775       50       0.00029522       0.00049091       0.00013466
I        8.23378605      12.32718083      12.11020793       51       0.00020006       0.00012054       0.00022412
I        7.34795639      16.92339306      12.10991968       52      -0.00027464       0.00030810       0.00006253
I        6.35237370      14.27405636       3.15927623       53      -0.00020688       0.00003925       0.00008088
I        2.99811597      16.07639033       5.79168106       54      -0.00004169      -0.00044497       0.00019801
I        3.88404123      11.47990150       5.79117983       55       0.00018663       0.00001354       0.00042645
I        1.74120792       0.45902839       9.47786863       56      -0.00051187      -0.00070941       0.00000368
I        8.23379740      12.32716424       6.84553418       57       0.00013316       0.00021881      -0.00024603
I        7.34796237      16.92340382       6.84582306       58      -0.00031623       0.00023984      -0.00008819
I        4.87972618      14.12925318       9.47789354       59      -0.00014092       0.00028311      -0.00014785
Cs       5.45656122      18.07185207      15.79645251       60       0.00037351      -0.00071581      -0.00002313
Cs       1.50688742      13.57179287      15.79644545       61       0.00036197       0.00061566       0.00001944
Cs       5.77506711      10.33220507      22.11502816       62       0.00005248      -0.00022120       0.00000076
Cs       9.72483552      14.83121904      22.11503517       63      -0.00005638      -0.00005932      -0.00004164
Pb       1.19274488       9.71274841      12.63709442       64       0.00004485      -0.00018603       0.00018145
Pb       5.61598100      14.20166611      12.63706293       65      -0.00005940       0.00030182       0.00063637
Pb       1.19273110       9.71273272      18.95577192       66       0.00013219      -0.00008942       0.00000775
Pb       5.61597675      14.20170679      18.95581452       67      -0.00004139       0.00005715      -0.00051693
I        2.99812979      16.07637157      13.16406000       68      -0.00012258      -0.00033465      -0.00021384
I        3.88405964      11.47992676      13.16455841       69       0.00006840      -0.00014182      -0.00042523
I        9.12064596       9.63755681      15.79647172       70       0.00027298       0.00044948      -0.00014030
I        8.23380196      12.32715641      24.74736104       71       0.00010535       0.00026683       0.00025961
I        7.34794562      16.92338095      24.74707635       72      -0.00020609       0.00038337       0.00007634
I        6.35237708      14.27405380      15.79646508       73      -0.00022683       0.00005392      -0.00009646
I        2.99815267      16.07634258      18.42883661       74      -0.00025577      -0.00016624       0.00021941
I        3.88405536      11.47992145      18.42834411       75       0.00009631      -0.00010820       0.00039498
I        1.74120656       0.45902350      22.11502970       76      -0.00050207      -0.00067948      -0.00000859
I        8.23378969      12.32717387      19.48269168       77       0.00017702       0.00016421      -0.00023698
I        7.34793564      16.92336600      19.48297602       78      -0.00014152       0.00047515      -0.00005147
I        4.87972787      14.12924886      22.11500092       79      -0.00015040       0.00030903       0.00016428
Cs      13.93270154       8.74291162       3.15929332       80       0.00037363      -0.00074879      -0.00002220
Cs       9.98302632       4.24284135       3.15928734       81       0.00037230       0.00064378       0.00001462
Cs      14.25120789       1.00325172       9.47786835       82       0.00005286      -0.00018391       0.00000489
Cs       0.87843510       5.85321685       9.47787613       83      -0.00006173      -0.00003809      -0.00004161
Pb       9.66887695       0.38378128      25.27425335       84       0.00009614      -0.00007169       0.00018234
Pb      14.09212607       4.87270716      25.27422315       85      -0.00008155       0.00037011       0.00063031
Pb       9.66886493       0.38376819       6.31861417       86       0.00017330       0.00001070       0.00000089
Pb      14.09212003       4.87274314       6.31865492       87      -0.00005298       0.00015106      -0.00051391
I       11.47427576       6.74741880       0.52690132       88      -0.00015032      -0.00030273      -0.00021575
I       12.36021099       2.15099542       0.52739851       89       0.00000465      -0.00022731      -0.00042048
I        0.27424336       0.65956191       3.15931233       90       0.00027785       0.00043106      -0.00013807
I       16.70992884       2.99822837      12.11020147       91       0.00017777       0.00016887       0.00026266
I       15.82407922       7.59442699      12.10991712       92      -0.00016651       0.00042448       0.00007755
I       14.82851505       4.94510842       3.15930150       93      -0.00021256       0.00004828      -0.00007238
I       11.47429524       6.74739383       5.79167706       94      -0.00026596      -0.00015498       0.00022220
I       12.36020808       2.15099116       5.79118531       95       0.00002490      -0.00019968       0.00039365
I       10.58760778       9.43702013       9.47787076       96      -0.00049957      -0.00067020      -0.00000848
I       16.70991780       2.99824480       6.84553363       97       0.00024320       0.00007130      -0.00024226
I       15.82407427       7.59441738       6.84581725       98      -0.00013037       0.00048691      -0.00005283
I       13.35586911       4.80030530       9.47784643       99      -0.00015457       0.00029274       0.00014043
Cs      13.93270664       8.74289320      15.79644494      100       0.00034732      -0.00063867       0.00002328
Cs       9.98302360       4.24284679      15.79645201      101       0.00038762       0.00061189      -0.00001936
Cs      14.25120658       1.00325771      22.11502840      102       0.00005952      -0.00021944      -0.00000102
Cs       0.87843239       5.85320053      22.11502142      103      -0.00004132       0.00006164       0.00004122
Pb       9.66886708       0.38381252      12.63711130      104       0.00014830      -0.00025835       0.00007578
Pb      14.09213304       4.87275262      12.63711633      105      -0.00013358       0.00009283       0.00031412
Pb       9.66888081       0.38382835      18.95581578      106       0.00006119      -0.00035571      -0.00025709
Pb      14.09213734       4.87271182      18.95579984      107      -0.00015182       0.00033810      -0.00042666
I       11.47428166       6.74741236      13.16405884      108      -0.00018616      -0.00026426      -0.00020669
I       12.36019078       2.15096700      13.16455340      109       0.00013731      -0.00004995      -0.00039515
I        0.27423995       0.65955511      15.79642519      110       0.00030041       0.00047276       0.00014340
I       16.70991169       2.99825444      24.74736601      111       0.00027876       0.00001422       0.00022917
I       15.82409058       7.59443970      24.74707825      112      -0.00023829       0.00034610       0.00006492
I       14.82851176       4.94511091      15.79643264      113      -0.00019308       0.00003394       0.00009495
I       11.47425956       6.74744048      18.42883954      114      -0.00005702      -0.00042825       0.00020096
I       12.36019434       2.15097179      18.42833927      115       0.00011309      -0.00008094       0.00042416
I       10.58760919       9.43702493      22.11502578      116      -0.00050961      -0.00069967       0.00001371
I       16.70992441       2.99823632      19.48269403      117       0.00020485       0.00012010      -0.00025057
I       15.82410062       7.59445465      19.48298224      118      -0.00030300       0.00025442      -0.00008911
I       13.35586742       4.80030964      22.11505551      119      -0.00014510       0.00026669      -0.00016385
Cs      14.11783456      17.89635934       3.15928489      120       0.00036441      -0.00060378       0.00002954
Cs      10.16815580      13.39632345       3.15929244      121       0.00037628       0.00058833      -0.00001642
Cs      14.43633670      10.15673641       9.47786891      122       0.00006032      -0.00025339       0.00000195
Cs       1.06356547      15.00667698       9.47786465      123      -0.00005755       0.00003871       0.00002802
Pb       9.85400865       9.53730499      25.27428006      124       0.00007803      -0.00036935       0.00001902
Pb      14.27725236      14.02623729      25.27427591      125      -0.00007048       0.00002733       0.00031115
Pb       9.85400992       9.53732039       6.31864901      126       0.00006526      -0.00046283      -0.00021217
Pb      14.27725753      14.02620139       6.31863084      127      -0.00009511       0.00024596      -0.00036776
I       11.65940890      15.90088948       0.52689894      128      -0.00016908      -0.00028907      -0.00020175
I       12.54531128      11.30442460       0.52739486      129       0.00019721       0.00003403      -0.00039772
I        0.45937160       9.81302393       3.15926953      130       0.00029421       0.00049211       0.00012503
I       16.89504463      12.15171873      12.11020714      131       0.00026973       0.00005547       0.00022865
I       16.00921692      16.74791059      12.10991888      132      -0.00021104       0.00035856       0.00006710
I       15.01364550      14.09858206       3.15928328      133      -0.00021160       0.00004034       0.00003896
I       11.65939431      15.90090987       5.79168204      134      -0.00008212      -0.00041073       0.00019214
I       12.54531868      11.30443279       5.79118078      135       0.00014873      -0.00001833       0.00042076
I       10.40248092       0.28355439       9.47788138      136      -0.00052285      -0.00071037      -0.00007022
I       16.89506905      12.15168908       6.84553415      137       0.00012883       0.00022581      -0.00024592
I       16.00923394      16.74793082       6.84582341      138      -0.00032057       0.00023255      -0.00009023
I       13.54099831      13.95377917       9.47790045      139      -0.00014688       0.00028240      -0.00018826
Cs      14.11783544      17.89637828      15.79645432      140       0.00035461      -0.00071832      -0.00003357
Cs      10.16815525      13.39631976      15.79644604      141       0.00038049       0.00061076       0.00001629
Cs      14.43633790      10.15673158      22.11502901      142       0.00005378      -0.00022463      -0.00000437
Cs       1.06356380      15.00669344      22.11503347      143      -0.00005174      -0.00006081      -0.00003146
Pb       9.85400022       9.53727760      12.63708606      144       0.00013518      -0.00020101       0.00023097
Pb      14.27726262      14.02619231      12.63706282      145      -0.00012118       0.00029768       0.00063727
Pb       9.85399964       9.53725882      18.95577950      146       0.00014494      -0.00008967      -0.00003615
Pb      14.27725301      14.02623275      18.95582438      147      -0.00007344       0.00005559      -0.00057542
I       11.65940396      15.90089431      13.16406049      148      -0.00013921      -0.00031785      -0.00021668
I       12.54533277      11.30445429      13.16455863      149       0.00005611      -0.00015158      -0.00042654
I        0.45937262       9.81303103      15.79647582      150       0.00028595       0.00044921      -0.00016173
I       16.89507800      12.15167725      24.74736158      151       0.00007512       0.00029681       0.00025643
I       16.00922048      16.74791005      24.74707678      152      -0.00023176       0.00036200       0.00007372
I       15.01364576      14.09858001      15.79645565      153      -0.00021292       0.00005278      -0.00004210
I       11.65942179      15.90087012      18.42883527      154      -0.00024336      -0.00017629       0.00022721
I       12.54532527      11.30444574      18.42834266      155       0.00010510      -0.00009748       0.00040330
I       10.40247773       0.28354943      22.11502220      156      -0.00050204      -0.00067954       0.00003738
I       16.89505723      12.15170298      19.48269182      157       0.00019731       0.00014623      -0.00023777
I       16.00920310      16.74788901      19.48297593      158      -0.00011962       0.00049288      -0.00005085
I       13.54099932      13.95377467      22.11499671      159      -0.00015220       0.00030957       0.00019052
