10
Lattice="12.295063392736955 -0.7609920134020629 -3.3792573486929625 0.5344122154176552 6.343901558264183 0.5157790995610081 1.6468610516270576 -0.6359076713624009 6.138671021128669" Properties=species:S:1:pos:R:3:spacegroup_kinds:I:1:forces:R:3 spacegroup="P 1" unit_cell=conventional occupancy="_JSON {\"0\": {\"Cs\": 1.0}, \"1\": {\"Pb\": 1.0}, \"2\": {\"I\": 1.0}, \"3\": {\"I\": 1.0}, \"4\": {\"I\": 1.0}, \"5\": {\"Cs\": 1.0}, \"6\": {\"Pb\": 1.0}, \"7\": {\"I\": 1.0}, \"8\": {\"I\": 1.0}, \"9\": {\"I\": 1.0}}" energy=-27.96148383700592 free_energy=-27.96148383700592 stress="-3.5124335100386787e-06 2.3713684658172387e-06 2.1180621008908388e-06 2.3713684658172387e-06 5.515628783587273e-06 5.413232112533037e-06 2.1180621008908388e-06 5.413232112533037e-06 1.4591526805458143e-05" pbc="T T T"
Cs       4.16424693       2.66368011       2.48277742        0      -0.00002690      -0.00000678       0.00002238
Pb       0.53451641       6.34387020       0.51570747        1      -0.00024998       0.00002942       0.00001647
I        0.82353046      -0.31798090       3.06917802        2      -0.00002215      -0.00000602       0.00012556
I        3.07363791      -0.19015561      -0.84473868        3       0.00036147      -0.00002386      -0.00014793
I       12.56238379       2.41095925      -3.12159397        4      -0.00006243       0.00000723      -0.00001648
Cs      10.31177863       2.28318410       0.79314874        5      -0.00002690      -0.00000678       0.00002238
Pb       6.68204811       5.96337419      -1.17392120        6      -0.00024998       0.00002942       0.00001647
I        6.97106215      -0.69847691       1.37954934        7      -0.00002215      -0.00000602       0.00012556
I        9.22116961      -0.57065161      -2.53436736        8       0.00036147      -0.00002386      -0.00014793
I        6.41485210       2.79145526      -1.43196530        9      -0.00006243       0.00000723      -0.00001648
