20
Lattice="17.046365958917544 0.0 0.0 4.261591489765273 7.381292981293819 0.0 4.261591489834156 2.460430993818154 6.959149952369036" Properties=species:S:1:pos:R:3 pbc="T T T"
Cs       4.26148889       2.46040023       1.73979255
Cs      12.78487682       7.38132296       5.21935690
K        8.52318283       4.92086156       3.47957469
In       0.00000017       0.00000065       0.00000027
I        7.26150456       2.16271585       3.57729470
I        9.78486116       7.67900672       3.38185466
I       10.56104957       3.72831619       1.61721827
I        6.48531499       6.11340630       5.34193098
I        6.24277058       6.23785085       1.61723975
I       10.80359594       3.60387423       5.34191072
Cs      12.78467187       2.46040023       1.73979255
Cs      21.30805980       7.38132296       5.21935690
K       17.04636580       4.92086156       3.47957469
In       8.52318315       0.00000065       0.00000027
I       15.78468754       2.16271585       3.57729470
I       18.30804414       7.67900672       3.38185466
I       19.08423255       3.72831619       1.61721827
I       15.00849797       6.11340630       5.34193098
I       14.76595356       6.23785085       1.61723975
I       19.32677892       3.60387423       5.34191072
