20
Lattice="19.14578805974692 2.332650345127368 1.622196828268361 5.891550016565148 10.031552113734362 0.07195560387821007 5.809365203869741 3.453525566536415 7.046704907842882" Properties=species:S:1:pos:R:3:spacegroup_kinds:I:1:forces:R:3 spacegroup="P 1" unit_cell=conventional occupancy="_JSON {\"0\": {\"Cs\": 1.0}, \"1\": {\"Cs\": 1.0}, \"2\": {\"K\": 1.0}, \"3\": {\"In\": 1.0}, \"4\": {\"I\": 1.0}, \"5\": {\"I\": 1.0}, \"6\": {\"I\": 1.0}, \"7\": {\"I\": 1.0}, \"8\": {\"I\": 1.0}, \"9\": {\"I\": 1.0}, \"10\": {\"Cs\": 1.0}, \"11\": {\"Cs\": 1.0}, \"12\": {\"K\": 1.0}, \"13\": {\"In\": 1.0}, \"14\": {\"I\": 1.0}, \"15\": {\"I\": 1.0}, \"16\": {\"I\": 1.0}, \"17\": {\"I\": 1.0}, \"18\": {\"I\": 1.0}, \"19\": {\"I\": 1.0}}" energy=-48.970375268482066 free_energy=-48.970375268482066 stress="3.720813660142659e-06 7.803809088755395e-06 -3.919334647507447e-06 7.803809088755395e-06 -5.318538692143517e-06 2.3892714277658677e-06 -3.919334647507447e-06 2.3892714277658677e-06 -1.8152729286301803e-07" pbc="T T T"
Cs       5.81274099       4.55242865       1.95403073        0       0.00035523      -0.00006579      -0.00006346
Cs      15.62607538       9.85704888       6.03875482        1      -0.00031335      -0.00018505       0.00004991
K       11.01674337       8.18127356       3.62951800        2      -0.00065376      -0.00017128       0.00048869
In      18.64137196       1.66959955       1.45898904        3      -0.00013545      -0.00031560       0.00078175
I        9.23740880       3.10251964       3.28230180        4       0.00042002      -0.00025895      -0.00064282
I       12.66000781      11.40763690       4.10876272        5       0.00017575      -0.00009479      -0.00086450
I       11.35231332       4.77217519       2.26078707        6       0.00016284       0.00021984       0.00009695
I        9.32503405      10.09256166       6.78439380        7       0.00004856       0.00000379       0.00011800
I        7.81413797       7.98522471       1.88480305        8      -0.00043399       0.00003358      -0.00032633
I       13.39311100       6.64440240       5.90473017        9      -0.00033168       0.00016898       0.00011004
Cs      15.38647261       5.71877904       2.76489974       10      -0.00055968       0.00001532       0.00057405
Cs      25.19873246      11.02354386       6.84990388       11       0.00036560      -0.00000948      -0.00042825
K       20.58889961       9.34682193       4.44063886       12      -0.00035212       0.00042739       0.00030492
In       9.06848157       0.50222814       0.64808454       13      -0.00049991       0.00071206      -0.00002266
I       18.81041402       4.26827717       4.09324590       14       0.00006142       0.00038894      -0.00065065
I       22.23288870      12.57321500       4.91898006       15       0.00020060       0.00011248      -0.00035278
I       20.92494420       5.93870745       3.07170905       16       0.00051844      -0.00008086       0.00022110
I       18.89743375      11.25844706       7.59554356       17       0.00067311       0.00001488       0.00021720
I       17.38646594       9.15190778       2.69535324       18       0.00027648      -0.00028934       0.00030949
I       22.96533025       7.81172292       6.71557869       19       0.00002189      -0.00062611       0.00007937
