80
Lattice="17.046365958917526 0.0 0.0 8.523182979530501 14.762585962587758 0.0 8.523182979668308 4.9208619876362265 13.918299904738095" Properties=species:S:1:pos:R:3 pbc="T T T"
Cs       4.26155904       2.46042126       1.73978864
Cs      12.78480683       7.38130246       5.21936115
K        8.52318300       4.92086189       3.47957494
In       0.00000010       0.00000023       0.00000009
I        6.56467071       3.14825297       4.78382736
I       10.48169533       6.69347064       2.17532249
I        9.16762203       2.74295165       1.61728769
I        7.87874363       7.09877193       5.34186212
I        6.24251423       6.23773080       1.61729448
I       10.80385203       3.60399362       5.34185571
Cs       8.52315053       4.92085226       8.69893859
Cs      17.04639832       9.84173345      12.17851110
K       12.78477449       7.38129289      10.43872489
In       4.26159159       2.46043123       6.95915004
I       10.82626220       5.60868397      11.74297731
I       14.74328682       9.15390164       9.13447244
I       13.42921352       5.20338264       8.57643764
I       12.14033512       9.55920292      12.30101207
I       10.50410572       8.69816179       8.57644443
I       15.06544352       6.06442461      12.30100566
Cs       8.52315053       9.84171424       1.73978864
Cs      17.04639832      14.76259544       5.21936115
K       12.78477449      12.30215487       3.47957494
In       4.26159159       7.38129321       0.00000009
I       10.82626220      10.52954596       4.78382736
I       14.74328682      14.07476362       2.17532249
I       13.42921352      10.12424463       1.61728769
I       12.14033512      14.48006491       5.34186212
I       10.50410572      13.61902378       1.61729448
I       15.06544352      10.98528660       5.34185571
Cs      12.78474202      12.30214524       8.69893859
Cs      21.30798981      17.22302643      12.17851110
K       17.04636598      14.76258587      10.43872489
In       8.52318308       9.84172421       6.95915004
I       15.08785369      12.98997695      11.74297731
I       19.00487831      16.53519462       9.13447244
I       17.69080501      12.58467562       8.57643764
I       16.40192661      16.94049590      12.30101207
I       14.76569721      16.07945477       8.57644443
I       19.32703501      13.44571759      12.30100566
Cs      12.78474202       2.46042126       1.73978864
Cs      21.30798981       7.38130246       5.21936115
K       17.04636598       4.92086189       3.47957494
In       8.52318308       0.00000023       0.00000009
I       15.08785369       3.14825297       4.78382736
I       19.00487831       6.69347064       2.17532249
I       17.69080501       2.74295165       1.61728769
I       16.40192661       7.09877193       5.34186212
I       14.76569721       6.23773080       1.61729448
I       19.32703501       3.60399362       5.34185571
Cs      17.04633351       4.92085226       8.69893859
Cs      25.56958130       9.84173345      12.17851110
K       21.30795747       7.38129289      10.43872489
In      12.78477457       2.46043123       6.95915004
I       19.34944517       5.60868397      11.74297731
I       23.26646980       9.15390164       9.13447244
I       21.95239650       5.20338264       8.57643764
I       20.66351810       9.55920292      12.30101207
I       19.02728870       8.69816179       8.57644443
I       23.58862650       6.06442461      12.30100566
Cs      17.04633351       9.84171424       1.73978864
Cs      25.56958130      14.76259544       5.21936115
K       21.30795747      12.30215487       3.47957494
In      12.78477457       7.38129321       0.00000009
I       19.34944517      10.52954596       4.78382736
I       23.26646980      14.07476362       2.17532249
I       21.95239650      10.12424463       1.61728769
I       20.66351810      14.48006491       5.34186212
I       19.02728870      13.61902378       1.61729448
I       23.58862650      10.98528660       5.34185571
Cs      21.30792500      12.30214524       8.69893859
Cs      29.83117279      17.22302643      12.17851110
K       25.56954896      14.76258587      10.43872489
In      17.04636606       9.84172421       6.95915004
I       23.61103666      12.98997695      11.74297731
I       27.52806129      16.53519462       9.13447244
I       26.21398799      12.58467562       8.57643764
I       24.92510959      16.94049590      12.30101207
I       23.28888019      16.07945477       8.57644443
I       27.85021799      13.44571759      12.30100566
