10
Lattice="9.95186145149812 0.340744445230954 2.1695234426023315 2.344822976997077 9.119363127707372 0.6261464163715574 6.549973325135928 0.8103955267120134 7.724622269933479" Properties=species:S:1:pos:R:3:spacegroup_kinds:I:1:forces:R:3 spacegroup="P 1" unit_cell=conventional occupancy="_JSON {\"0\": {\"Cs\": 1.0}, \"1\": {\"Cs\": 1.0}, \"2\": {\"K\": 1.0}, \"3\": {\"In\": 1.0}, \"4\": {\"I\": 1.0}, \"5\": {\"I\": 1.0}, \"6\": {\"I\": 1.0}, \"7\": {\"I\": 1.0}, \"8\": {\"I\": 1.0}, \"9\": {\"I\": 1.0}}" energy=-24.218724380337708 free_energy=-24.218724380337708 stress="-7.611028499262377e-06 -1.839933563661256e-06 -4.172167100794213e-06 -1.839933563661256e-06 -5.534129947233538e-06 -1.7274496495969081e-06 -4.172167100794213e-06 -1.7274496495969081e-06 2.849583758409816e-07" pbc="T T T"
Cs       5.33432275       2.92860058       2.85846659        0       0.00018938      -0.00036079      -0.00031757
Cs      13.58982900       7.27224625       7.46318313        1       0.00008046      -0.00012766       0.00022447
K        8.89642667       5.19336871       6.14024245        2       0.00026470       0.00042895       0.00011748
In      10.00371743       0.34191077       2.07447097        3      -0.00023687      -0.00025170      -0.00000865
I        9.36242661       1.34330767       5.43956324        4       0.00011158      -0.00007605      -0.00004657
I        9.55552521       8.86279344       4.89329033        5      -0.00062605       0.00046904       0.00051459
I       11.77751139       3.21823727       6.75578253        6      -0.00003910       0.00055269       0.00020744
I        7.17733291       7.11403303       3.63704437        7      -0.00048074      -0.00012752      -0.00006338
I       10.00781281       6.87604620       9.08135678        8       0.00049835       0.00004628      -0.00028112
I        9.05691305       3.40746243       1.16743493        9       0.00023828      -0.00055325      -0.00034670
