40
Lattice="20.650688761282712 0.0 0.0 12.776006215082868 8.275472943524044 0.0 3.636696218556493 4.199107552826772 5.044311250026506" Properties=species:S:1:pos:R:3 pbc="T T T"
Cs       5.08744322       2.08419038       1.26109271
Cs      15.26260037       6.25265309       3.78321817
K       10.17502182       4.16842169       2.52215541
In       0.00000017       0.00000036       0.00000016
I        7.34510235       3.23815413       2.83739211
I       13.00494130       5.09868896       2.20691871
I       11.87844654       2.32938805       1.78930195
I        8.47159602       6.00745517       3.25500854
I        8.43294152       3.59748043       0.55519364
I       11.91710244       4.73936481       4.48911836
Cs      11.47544633       6.22192685       1.26109271
Cs      21.65060347      10.39038956       3.78321817
K       16.56302493       8.30615816       2.52215541
In       6.38800328       4.13773683       0.00000016
I       13.73310546       7.37589060       2.83739211
I       19.39294441       9.23642543       2.20691871
I       18.26644965       6.46712452       1.78930195
I       14.85959913      10.14519164       3.25500854
I       14.82094462       7.73521690       0.55519364
I       18.30510554       8.87710128       4.48911836
Cs      15.41278760       2.08419038       1.26109271
Cs      25.58794475       6.25265309       3.78321817
K       20.50036620       4.16842169       2.52215541
In      10.32534455       0.00000036       0.00000016
I       17.67044673       3.23815413       2.83739211
I       23.33028568       5.09868896       2.20691871
I       22.20379092       2.32938805       1.78930195
I       18.79694040       6.00745517       3.25500854
I       18.75828590       3.59748043       0.55519364
I       22.24244682       4.73936481       4.48911836
Cs      21.80079071       6.22192685       1.26109271
Cs      31.97594785      10.39038956       3.78321817
K       26.88836931       8.30615816       2.52215541
In      16.71334766       4.13773683       0.00000016
I       24.05844984       7.37589060       2.83739211
I       29.71828879       9.23642543       2.20691871
I       28.59179403       6.46712452       1.78930195
I       25.18494351      10.14519164       3.25500854
I       25.14628901       7.73521690       0.55519364
I       28.63044992       8.87710128       4.48911836
