40
Lattice="12.773939614202273 -7.6392188131985e-09 -2.855667940756755e-16 -7.63921881296331e-09 12.773939614203915 -6.189881969659017e-16 -2.864998716724902e-16 -6.188051275591102e-16 12.773939606786106" Properties=species:S:1:pos:R:3:spacegroup_kinds:I:1:forces:R:3 spacegroup="P 1" unit_cell=conventional occupancy="_JSON {\"0\": {\"Cs\": 1.0}, \"1\": {\"Pb\": 1.0}, \"2\": {\"I\": 1.0}, \"3\": {\"I\": 1.0}, \"4\": {\"I\": 1.0}, \"5\": {\"Cs\": 1.0}, \"6\": {\"Pb\": 1.0}, \"7\": {\"I\": 1.0}, \"8\": {\"I\": 1.0}, \"9\": {\"I\": 1.0}, \"10\": {\"Cs\": 1.0}, \"11\": {\"Pb\": 1.0}, \"12\": {\"I\": 1.0}, \"13\": {\"I\": 1.0}, \"14\": {\"I\": 1.0}, \"15\": {\"Cs\": 1.0}, \"16\": {\"Pb\": 1.0}, \"17\": {\"I\": 1.0}, \"18\": {\"I\": 1.0}, \"19\": {\"I\": 1.0}, \"20\": {\"Cs\": 1.0}, \"21\": {\"Pb\": 1.0}, \"22\": {\"I\": 1.0}, \"23\": {\"I\": 1.0}, \"24\": {\"I\": 1.0}, \"25\": {\"Cs\": 1.0}, \"26\": {\"Pb\": 1.0}, \"27\": {\"I\": 1.0}, \"28\": {\"I\": 1.0}, \"29\": {\"I\": 1.0}, \"30\": {\"Cs\": 1.0}, \"31\": {\"Pb\": 1.0}, \"32\": {\"I\": 1.0}, \"33\": {\"I\": 1.0}, \"34\": {\"I\": 1.0}, \"35\": {\"Cs\": 1.0}, \"36\": {\"Pb\": 1.0}, \"37\": {\"I\": 1.0}, \"38\": {\"I\": 1.0}, \"39\": {\"I\": 1.0}}" energy=-111.8459392175416 free_energy=-111.8459392175416 stress="-4.4237345714811366e-06 -2.9792397676216945e-10 3.086150228420093e-20 -2.9792397676216945e-10 -4.4237345996836694e-06 1.2125850919538216e-18 3.086150228420093e-20 1.2125850919538216e-18 -4.422543025233115e-06" pbc="T T T"
Cs       3.19398751       3.19298228       3.19348490        0       0.00004469      -0.00004469      -0.00000000
Pb       0.00001356      -0.00001356      -0.00000000        1       0.00010978      -0.00010978      -0.00000000
I       -0.00015435       0.00015435       3.19348490        2       0.00001691      -0.00001691       0.00000000
I        3.19358204       0.00015435       0.00000000        3      -0.00018828      -0.00001691      -0.00000000
I       -0.00015435       3.19338776       0.00000000        4       0.00001691       0.00018829      -0.00000000
Cs       3.19398751       3.19298228       9.58045471        5       0.00004469      -0.00004469      -0.00000000
Pb       0.00001356      -0.00001356       6.38696980        6       0.00010978      -0.00010978      -0.00000000
I       -0.00015435       0.00015435       9.58045471        7       0.00001691      -0.00001691       0.00000000
I        3.19358204       0.00015435       6.38696980        8      -0.00018828      -0.00001691      -0.00000000
I       -0.00015435       3.19338776       6.38696980        9       0.00001691       0.00018829      -0.00000000
Cs       3.19398751       9.57995209       3.19348490       10       0.00004469      -0.00004469      -0.00000000
Pb       0.00001355       6.38695625      -0.00000000       11       0.00010978      -0.00010978      -0.00000000
I       -0.00015435       6.38712416       3.19348490       12       0.00001691      -0.00001691       0.00000000
I        3.19358204       6.38712416       0.00000000       13      -0.00018828      -0.00001691      -0.00000000
I       -0.00015435       9.58035757       0.00000000       14       0.00001691       0.00018829      -0.00000000
Cs       3.19398751       9.57995209       9.58045471       15       0.00004469      -0.00004469      -0.00000000
Pb       0.00001355       6.38695625       6.38696980       16       0.00010978      -0.00010978      -0.00000000
I       -0.00015435       6.38712416       9.58045471       17       0.00001691      -0.00001691       0.00000000
I        3.19358204       6.38712416       6.38696980       18      -0.00018828      -0.00001691      -0.00000000
I       -0.00015435       9.58035757       6.38696980       19       0.00001691       0.00018829      -0.00000000
Cs       9.58095732       3.19298228       3.19348490       20       0.00004469      -0.00004469      -0.00000000
Pb       6.38698336      -0.00001356      -0.00000000       21       0.00010978      -0.00010978      -0.00000000
I        6.38681546       0.00015435       3.19348490       22       0.00001691      -0.00001691       0.00000000
I        9.58055185       0.00015435       0.00000000       23      -0.00018828      -0.00001691      -0.00000000
I        6.38681546       3.19338776       0.00000000       24       0.00001691       0.00018829      -0.00000000
Cs       9.58095732       3.19298228       9.58045471       25       0.00004469      -0.00004469      -0.00000000
Pb       6.38698336      -0.00001356       6.38696980       26       0.00010978      -0.00010978      -0.00000000
I        6.38681546       0.00015435       9.58045471       27       0.00001691      -0.00001691       0.00000000
I        9.58055185       0.00015435       6.38696980       28      -0.00018828      -0.00001691      -0.00000000
I        6.38681546       3.19338776       6.38696980       29       0.00001691       0.00018829      -0.00000000
Cs       9.58095732       9.57995208       3.19348490       30       0.00004469      -0.00004469      -0.00000000
Pb       6.38698336       6.38695625      -0.00000000       31       0.00010978      -0.00010978      -0.00000000
I        6.38681546       6.38712415       3.19348490       32       0.00001691      -0.00001691       0.00000000
I        9.58055184       6.38712415       0.00000000       33      -0.00018828      -0.00001691      -0.00000000
I        6.38681545       9.58035757       0.00000000       34       0.00001691       0.00018829      -0.00000000
Cs       9.58095732       9.57995208       9.58045471       35       0.00004469      -0.00004469      -0.00000000
Pb       6.38698336       6.38695625       6.38696980       36       0.00010978      -0.00010978      -0.00000000
I        6.38681546       6.38712415       9.58045471       37       0.00001691      -0.00001691       0.00000000
I        9.58055184       6.38712415       6.38696980       38      -0.00018828      -0.00001691      -0.00000000
I        6.38681545       9.58035757       6.38696980       39       0.00001691       0.00018829      -0.00000000
