10
Lattice="8.486781929617349 -2.398561283566804 2.9474762266049503 -2.252517414805412 8.97907926172591 -0.8745359064677807 5.613688250462229 -2.306095593504759 11.295035732606765" Properties=species:S:1:pos:R:3:spacegroup_kinds:I:1:forces:R:3 spacegroup="P 1" unit_cell=conventional occupancy="_JSON {\"0\": {\"Cs\": 1.0}, \"1\": {\"Cs\": 1.0}, \"2\": {\"K\": 1.0}, \"3\": {\"In\": 1.0}, \"4\": {\"I\": 1.0}, \"5\": {\"I\": 1.0}, \"6\": {\"I\": 1.0}, \"7\": {\"I\": 1.0}, \"8\": {\"I\": 1.0}, \"9\": {\"I\": 1.0}}" energy=-25.793816200688138 free_energy=-25.793816200688138 stress="2.5501586977163157e-07 1.0267308249088465e-08 2.4941865985674426e-07 1.0267308249088465e-08 -2.6740055216973817e-07 4.714090678533613e-07 2.4941865985674426e-07 4.714090678533613e-07 -9.97926985570327e-08" pbc="T T T"
Cs       1.80999038       2.30023899       0.62681847        0      -0.00002332      -0.00000470       0.00001666
Cs      12.34875768       1.38759527      13.54294555        1       0.00002180      -0.00002108      -0.00003470
K        3.96218994      -1.44654900       6.04841226        2       0.00002765       0.00012409      -0.00000199
In       5.39878016      -1.49255757       1.87466633        3       0.00008157       0.00013578      -0.00002115
I        4.24960018       0.88498008       3.32104552        4       0.00001087      -0.00016403      -0.00007907
I        9.90913811       2.80289087      10.84881685        5       0.00001615       0.00000382       0.00004028
I       13.23381879      -2.10427851      12.04730140        6      -0.00007899      -0.00001780       0.00000687
I        0.92493291       5.79209650       2.12238999        7      -0.00000030      -0.00002356       0.00011934
I        7.04485097      -2.12024125       4.31631860        8      -0.00006717       0.00006714      -0.00005577
I        9.36643705      -3.17096460      10.72803824        9       0.00001173      -0.00009966       0.00000953
