5
Lattice="6.387060369535307 0.0 0.0 0.0 6.387060369535306 0.0 0.0 0.0 6.387060369535306" Properties=species:S:1:pos:R:3:spacegroup_kinds:I:1:forces:R:3 spacegroup="P 1" unit_cell=conventional occupancy="_JSON {\"0\": {\"Cs\": 1.0}, \"1\": {\"Pb\": 1.0}, \"2\": {\"I\": 1.0}, \"3\": {\"I\": 1.0}, \"4\": {\"I\": 1.0}}" energy=-13.980742431659214 free_energy=-13.980742431659214 stress="-1.7509769490634886e-07 -3.297963287898497e-11 5.621594623144616e-18 -3.297963287898497e-11 -1.7509769963448664e-07 1.7367197156696302e-18 5.621594623144616e-18 1.7367197156696302e-18 -1.7497692669468572e-07" pbc="T T T"
Cs       3.19386526       3.19319510       3.19353018        0       0.00001324      -0.00001324      -0.00000000
Pb       0.00000000       0.00000000       0.00000000        1       0.00001367      -0.00001367      -0.00000000
I        0.00000000       0.00000000       3.19353018        2      -0.00002138       0.00002138      -0.00000000
I        3.19353018       0.00000000       0.00000000        3       0.00001584       0.00002138       0.00000000
I        0.00000000       3.19353018       0.00000000        4      -0.00002138      -0.00001584       0.00000000
