10
Lattice="8.842690646889759 -1.0611074987987477 2.4805278028314777 5.097365546359046 6.860854146814361 1.8122512197737832 2.6271803673622025 1.9659164464474754 8.57466347334428" Properties=species:S:1:pos:R:3:spacegroup_kinds:I:1:forces:R:3 spacegroup="P 1" unit_cell=conventional occupancy="_JSON {\"0\": {\"Cs\": 1.0}, \"1\": {\"Cs\": 1.0}, \"2\": {\"K\": 1.0}, \"3\": {\"In\": 1.0}, \"4\": {\"I\": 1.0}, \"5\": {\"I\": 1.0}, \"6\": {\"I\": 1.0}, \"7\": {\"I\": 1.0}, \"8\": {\"I\": 1.0}, \"9\": {\"I\": 1.0}}" energy=-25.648941524850464 free_energy=-25.648941524850464 stress="3.369571425876959e-06 -3.3379991508870147e-06 1.657060081907076e-06 -3.3379991508870147e-06 -3.947247746893383e-06 -1.9296190354972344e-06 1.657060081907076e-06 -1.9296190354972344e-06 -1.5335271598631943e-06" pbc="T T T"
Cs       4.16014452       2.12021343       3.15747776        0      -0.00044704       0.00051209       0.00021238
Cs      12.40781937       5.64451500       9.70976607        1      -0.00049786       0.00013287       0.00019907
K        8.28377142       3.88228307       6.43343379        2      -0.00012672       0.00071405       0.00038795
In      -0.00011464       0.00012539      -0.00006734        3      -0.00006544      -0.00013154       0.00018289
I        4.93046499       2.87487487       6.93077016        4      -0.00043988       0.00000423      -0.00033109
I       11.63705825       4.89098925       5.93722190        5      -0.00019290      -0.00020354      -0.00022765
I        9.29138427       1.18370821       4.38411353        6       0.00053985      -0.00029022      -0.00014745
I        7.27514208       6.58254157       8.48314756        7       0.00058730      -0.00031870       0.00002004
I        6.94009067       5.15333602       3.41482662        8       0.00066190      -0.00006605      -0.00027040
I        9.62680424       2.61289743       9.45280181        9      -0.00001921      -0.00035318      -0.00002574
