10
Lattice="9.208779139447364 0.009566603443553671 0.03666549444845708 4.6500811369601776 7.98864936313999 0.005349733565867184 4.640593621519467 2.671257719004177 6.953895781889831" Properties=species:S:1:pos:R:3:spacegroup_kinds:I:1:forces:R:3 spacegroup="P 1" unit_cell=conventional occupancy="_JSON {\"0\": {\"Cs\": 1.0}, \"1\": {\"Cs\": 1.0}, \"2\": {\"K\": 1.0}, \"3\": {\"In\": 1.0}, \"4\": {\"I\": 1.0}, \"5\": {\"I\": 1.0}, \"6\": {\"I\": 1.0}, \"7\": {\"I\": 1.0}, \"8\": {\"I\": 1.0}, \"9\": {\"I\": 1.0}}" energy=-25.648931715461913 free_energy=-25.648931715461913 stress="-7.653895818959928e-06 1.014548839318365e-05 3.392346320564542e-07 1.014548839318365e-05 4.991629858409377e-06 -1.1054516481131475e-05 3.392346320564542e-07 -1.1054516481131475e-05 2.8937889475807906e-06" pbc="T T T"
Cs       4.63362076       2.67964327       1.93814088        0       0.00019673       0.00056520       0.00017378
Cs      13.86595490       7.99002461       5.05771873        1      -0.00043462      -0.00082580      -0.00016010
K        9.24989296       5.33511306       3.49806027        2      -0.00008837      -0.00049664      -0.00011067
In       9.20885962       0.00942642       0.03671656        3      -0.00010190       0.00023588      -0.00007101
I        6.99328964       3.22842736       5.22451444        4       0.00030995      -0.00014150       0.00007428
I       11.50603101       7.44122175       1.77134061        5      -0.00003318      -0.00013538      -0.00003941
I        9.93732245       2.33875279       1.74453499        6       0.00025312      -0.00029493       0.00020746
I        8.56215234       8.33064891       5.25115725        7      -0.00024155       0.00047995       0.00020949
I        6.33416465       6.20386746       1.69284923        8       0.00063347       0.00061105      -0.00023628
I       12.16503216       4.46507031       5.30323094        9      -0.00049364       0.00000216      -0.00004754
