10
Lattice="12.431913320961977 2.488569770767283 1.926209725149153 -1.1237082547420543 6.241244137669032 -0.816436030584281 -1.184746753079082 0.6082714010546179 6.2583816358299496" Properties=species:S:1:pos:R:3:spacegroup_kinds:I:1:forces:R:3 spacegroup="P 1" unit_cell=conventional occupancy="_JSON {\"0\": {\"Cs\": 1.0}, \"1\": {\"Pb\": 1.0}, \"2\": {\"I\": 1.0}, \"3\": {\"I\": 1.0}, \"4\": {\"I\": 1.0}, \"5\": {\"Cs\": 1.0}, \"6\": {\"Pb\": 1.0}, \"7\": {\"I\": 1.0}, \"8\": {\"I\": 1.0}, \"9\": {\"I\": 1.0}}" energy=-27.96883609261966 free_energy=-27.96883609261966 stress="4.41815319541269e-07 -1.5388168797384214e-06 6.982243969689006e-06 -1.5388168797384214e-06 -1.8554493462011648e-07 9.915829222077578e-06 6.982243969689006e-06 9.915829222077578e-06 -7.800174065571641e-07" pbc="T T T"
Cs       1.32156133       4.29494124       3.24845456        0      -0.00017416      -0.00001908       0.00013816
Pb      -0.28172078       0.29290179      -0.08270965        1      -0.00006726      -0.00001653       0.00004206
I       11.70572121       3.11163375       4.97217132        2      -0.00014208      -0.00000965      -0.00017248
I        2.89780496       0.91084259       0.28144210        3      -0.00066563      -0.00007147      -0.00018247
I       -0.71299533       3.43811596      -0.48000833        4       0.00031231      -0.00005390       0.00001762
Cs       7.53753993       5.53923309       4.21156744        5      -0.00030361      -0.00003782       0.00011500
Pb       5.93422063       1.53715780       0.88050869        6       0.00016348       0.00004411      -0.00011354
I        5.48974004       1.86735662       4.00888184        7      -0.00018742       0.00001630       0.00015142
I        9.11353698       2.15500750       1.24443489        8       0.00073715       0.00022914       0.00004222
I        5.50296146       4.68240124       0.48312526        9       0.00032723      -0.00008109      -0.00003798
