20
Lattice="18.39647879157711 0.1022409626297586 0.04412080267462713 4.6502415772592665 7.452347327660499 0.208137496503981 4.641441382964751 2.6777994526535944 7.550912502012823" Properties=species:S:1:pos:R:3:spacegroup_kinds:I:1:forces:R:3 spacegroup="P 1" unit_cell=conventional occupancy="_JSON {\"0\": {\"Cs\": 1.0}, \"1\": {\"Cs\": 1.0}, \"2\": {\"K\": 1.0}, \"3\": {\"In\": 1.0}, \"4\": {\"I\": 1.0}, \"5\": {\"I\": 1.0}, \"6\": {\"I\": 1.0}, \"7\": {\"I\": 1.0}, \"8\": {\"I\": 1.0}, \"9\": {\"I\": 1.0}, \"10\": {\"Cs\": 1.0}, \"11\": {\"Cs\": 1.0}, \"12\": {\"K\": 1.0}, \"13\": {\"In\": 1.0}, \"14\": {\"I\": 1.0}, \"15\": {\"I\": 1.0}, \"16\": {\"I\": 1.0}, \"17\": {\"I\": 1.0}, \"18\": {\"I\": 1.0}, \"19\": {\"I\": 1.0}}" energy=-51.297828319275865 free_energy=-51.297828319275865 stress="-1.3809963277086346e-05 2.604335766762208e-06 9.284203787954906e-06 2.604335766762208e-06 -3.3192750059877696e-06 5.153711598222176e-07 9.284203787954906e-06 5.153711598222176e-07 1.4594756946523373e-05" pbc="T T T"
Cs       4.63852513       2.73036625       1.89868863        0       0.00013235      -0.00022189       0.00042426
Cs      13.85072696       7.45110276       5.88172596        1       0.00027424       0.00022890       0.00034024
K        9.24552381       5.08992666       3.89059526        2      -0.00047884       0.00039752       0.00019748
In      18.39661940       0.10206559       0.04428098        3      -0.00021241       0.00041679      -0.00045995
I        6.33761610       3.66028949       5.30751063        4       0.00016117      -0.00018204      -0.00010067
I       12.15197127       6.52128371       2.47362031        5       0.00022514       0.00005246      -0.00020996
I        9.93119546       2.44171018       1.64215262        6      -0.00033304      -0.00016053       0.00004499
I        8.55926837       7.73985063       6.13849967        7      -0.00023294      -0.00024979      -0.00004207
I        6.99274921       6.00420079       1.32291775        8       0.00023816       0.00010370      -0.00028920
I       11.49688417       4.17716638       6.45929395        9       0.00037685      -0.00037170      -0.00050313
Cs      13.83673568       2.78150917       1.92081363       10       0.00020902      -0.00023706       0.00025603
Cs      23.04897281       7.50221603       5.90374540       11       0.00025516       0.00022116       0.00046130
K       18.44374197       5.14105382       3.91266634       12      -0.00032610       0.00034439       0.00015760
In       9.19835125       0.05107455       0.02197551       13       0.00008585      -0.00027704       0.00016016
I       15.53602282       3.71148741       5.32948868       14      -0.00028823      -0.00041830       0.00017723
I       21.35014545       6.57234472       2.49568739       15       0.00025281       0.00008031      -0.00002183
I       19.12943922       2.49285440       1.66415492       16      -0.00032479      -0.00018778       0.00023442
I       17.75745846       7.79080288       6.16050960       17      -0.00006525       0.00040353       0.00020536
I       16.19096881       6.05530419       1.34512046       18      -0.00009927       0.00035190      -0.00076085
I       20.69525657       4.22823906       6.48126935       19       0.00015010      -0.00029452      -0.00027138
