20
Lattice="16.149188803185027 0.0 0.0 4.037297200830238 6.9928038770152545 0.0 4.037297200895514 2.330934625722423 6.592878902244361" Properties=species:S:1:pos:R:3 pbc="T T T"
Cs       4.03723950       2.33091732       1.64822232
Cs      12.11194916       6.99282073       4.94465630
K        8.07459435       4.66186903       3.29643932
In       0.00000012       0.00000038       0.00000015
I        6.48694098       2.60383332       4.06840069
I        9.66224777       6.71990444       2.52447792
I        9.22058184       2.97724158       1.53214061
I        6.92860626       6.34649612       5.06073794
I        5.91405936       5.90947531       1.53215269
I       10.23512983       3.41426386       5.06072655
Cs      12.11183390       2.33091732       1.64822232
Cs      20.18654356       6.99282073       4.94465630
K       16.14918875       4.66186903       3.29643932
In       8.07459453       0.00000038       0.00000015
I       14.56153538       2.60383332       4.06840069
I       17.73684217       6.71990444       2.52447792
I       17.29517624       2.97724158       1.53214061
I       15.00320066       6.34649612       5.06073794
I       13.98865376       5.90947531       1.53215269
I       18.30972423       3.41426386       5.06072655
