20
Lattice="17.36906006413603 2.122873268233569 -1.714546169219766 4.0898169171452965 8.202232347249616 1.1687117539149452 5.511821268562163 1.4711474133621494 7.246260340447375" Properties=species:S:1:pos:R:3:spacegroup_kinds:I:1:forces:R:3 spacegroup="P 1" unit_cell=conventional occupancy="_JSON {\"0\": {\"Cs\": 1.0}, \"1\": {\"Cs\": 1.0}, \"2\": {\"K\": 1.0}, \"3\": {\"In\": 1.0}, \"4\": {\"I\": 1.0}, \"5\": {\"I\": 1.0}, \"6\": {\"I\": 1.0}, \"7\": {\"I\": 1.0}, \"8\": {\"I\": 1.0}, \"9\": {\"I\": 1.0}, \"10\": {\"Cs\": 1.0}, \"11\": {\"Cs\": 1.0}, \"12\": {\"K\": 1.0}, \"13\": {\"In\": 1.0}, \"14\": {\"I\": 1.0}, \"15\": {\"I\": 1.0}, \"16\": {\"I\": 1.0}, \"17\": {\"I\": 1.0}, \"18\": {\"I\": 1.0}, \"19\": {\"I\": 1.0}}" energy=-51.29789203329318 free_energy=-51.29789203329318 stress="1.8481088552612796e-06 7.162017567744444e-07 -3.565438965786016e-07 7.162017567744444e-07 1.959218308163528e-06 -5.823766748186981e-07 -3.565438965786016e-07 -5.823766748186981e-07 4.451580077686031e-07" pbc="T T T"
Cs       4.72628587       2.64152803       1.78579458        0      -0.00013331       0.00040827      -0.00005186
Cs      13.56060617       8.09155857       5.77153437        1      -0.00015790       0.00050591       0.00003797
K        9.14296472       5.36814618       3.77866973        2       0.00019354      -0.00068750       0.00008835
In      17.36919931       2.12296017      -1.71457888        3      -0.00044646       0.00062123       0.00025701
I        7.66435238       3.24456783       6.19504729        4       0.00007764      -0.00028912      -0.00019450
I       10.62107470       7.49109035       1.36246268        5       0.00056015      -0.00003377       0.00014378
I        8.80093153       2.49452454       1.74466823        6       0.00005202      -0.00020430      -0.00005198
I        9.48558774       8.24023194       5.81329966        7      -0.00001717       0.00038061       0.00037333
I        6.13506493       6.27968232       2.15846469        8       0.00011773      -0.00022485      -0.00014560
I       12.15073460       4.45497055       5.39947589        9      -0.00050205       0.00027455      -0.00015908
Cs      13.41077736       3.70292149       0.92847779       10      -0.00005475       0.00048797      -0.00000393
Cs      22.24513707       9.15309288       4.91438454       11      -0.00019065       0.00047354      -0.00005997
K       17.82749804       6.42954961       2.92142721       12       0.00020647      -0.00057494       0.00009117
In       8.68463628       1.06170290      -0.85707719       13      -0.00019516      -0.00032004       0.00009969
I       16.34873950       4.30591898       5.33763150       14       0.00054956       0.00012950       0.00006681
I       19.30575331       8.55269048       0.50524644       15       0.00011111      -0.00042230       0.00007373
I       17.48554522       3.55591370       0.88726930       16       0.00005206      -0.00005067       0.00000318
I       18.17014456       9.30188296       4.95635514       17      -0.00010326      -0.00027780      -0.00033774
I       14.81984271       7.34115514       1.30102311       18      -0.00037803       0.00001681       0.00009079
I       20.83499751       5.51649731       4.54243717       19       0.00025846      -0.00021312      -0.00032114
