20
Lattice="25.633546467547223 -0.6392629893774792 0.30227708379047885 3.0287849153017397 12.420491326870897 -0.9565911010638636 9.602586427675563 7.689506939316349 3.6118816752571807" Properties=species:S:1:pos:R:3:spacegroup_kinds:I:1:forces:R:3 spacegroup="P 1" unit_cell=conventional occupancy="_JSON {\"0\": {\"Cs\": 1.0}, \"1\": {\"Cs\": 1.0}, \"2\": {\"K\": 1.0}, \"3\": {\"In\": 1.0}, \"4\": {\"I\": 1.0}, \"5\": {\"I\": 1.0}, \"6\": {\"I\": 1.0}, \"7\": {\"I\": 1.0}, \"8\": {\"I\": 1.0}, \"9\": {\"I\": 1.0}, \"10\": {\"Cs\": 1.0}, \"11\": {\"Cs\": 1.0}, \"12\": {\"K\": 1.0}, \"13\": {\"In\": 1.0}, \"14\": {\"I\": 1.0}, \"15\": {\"I\": 1.0}, \"16\": {\"I\": 1.0}, \"17\": {\"I\": 1.0}, \"18\": {\"I\": 1.0}, \"19\": {\"I\": 1.0}}" energy=-51.58763330515771 free_energy=-51.58763330515771 stress="-4.310962076291094e-07 -2.567895244427183e-07 -1.754743015780306e-07 -2.567895244427183e-07 -3.3055423719294916e-06 -9.978364744596913e-07 -1.754743015780306e-07 -9.978364744596913e-07 8.23212783619726e-06" pbc="T T T"
Cs       6.28597855       8.16925434      -0.58301583        0      -0.00023722      -0.00011155       0.00004058
Cs      19.16249982      11.62135749       3.38929613        1      -0.00016132      -0.00008132       0.00000814
K       12.72404032       9.89510610       1.40355164        2       0.00016602       0.00010880      -0.00030670
In      25.63352376      -0.63929502       0.30225915        3      -0.00014989      -0.00028432       0.00008116
I       11.69780091       6.47126314       1.82538301        4      -0.00001316       0.00013694       0.00020510
I       13.75027415      13.31893920       0.98078166        5       0.00002403       0.00025576       0.00027494
I       14.94343008       1.42727143       1.37192871        6       0.00018974      -0.00016884      -0.00004197
I       10.50449405      18.36328132       1.43459544        7       0.00002683      -0.00018468      -0.00007488
I        9.12772688       9.80896803       1.52683159        8       0.00020085       0.00012443      -0.00002470
I       16.32042869       9.98124065       1.27959581        9      -0.00004591       0.00020477      -0.00016165
Cs      19.10275179       7.84962284      -0.43187729       10      -0.00023722      -0.00011155       0.00004058
Cs      31.97927306      11.30172600       3.54043466       11      -0.00016131      -0.00008132       0.00000815
K       25.54081356       9.57547460       1.55469019       12       0.00016602       0.00010880      -0.00030670
In      12.81675052      -0.31966352       0.15112062       13      -0.00014986      -0.00028434       0.00008113
I       24.51457415       6.15163163       1.97652155       14      -0.00001317       0.00013696       0.00020510
I       26.56704738      12.99930770       1.13192020       15       0.00002404       0.00025576       0.00027492
I       27.76020331       1.10763993       1.52306726       16       0.00018974      -0.00016882      -0.00004198
I       23.32126728      18.04364982       1.58573399       17       0.00002683      -0.00018467      -0.00007488
I       21.94450012       9.48933653       1.67797014       18       0.00020085       0.00012443      -0.00002471
I       29.13720192       9.66160916       1.43073435       19      -0.00004591       0.00020476      -0.00016166
