10
Lattice="9.156633230506065 0.5233018943856271 -0.37516579658536625 4.083850143526046 8.235581797021968 -0.74896011141414 4.661536250718828 3.3650450610562483 6.546863518039893" Properties=species:S:1:pos:R:3:spacegroup_kinds:I:1:forces:R:3 spacegroup="P 1" unit_cell=conventional occupancy="_JSON {\"0\": {\"Cs\": 1.0}, \"1\": {\"Cs\": 1.0}, \"2\": {\"K\": 1.0}, \"3\": {\"In\": 1.0}, \"4\": {\"I\": 1.0}, \"5\": {\"I\": 1.0}, \"6\": {\"I\": 1.0}, \"7\": {\"I\": 1.0}, \"8\": {\"I\": 1.0}, \"9\": {\"I\": 1.0}}" energy=-25.648944204873196 free_energy=-25.648944204873196 stress="1.709156569142845e-07 1.5377344243521159e-06 6.121132028116837e-07 1.5377344243521159e-06 -1.7129813176329499e-06 -1.5917135116841582e-06 6.121132028116837e-07 -1.5917135116841582e-06 9.890917400117372e-07" pbc="T T T"
Cs       4.49702566       3.03324060       1.54476052        0       0.00026617      -0.00038603       0.00012920
Cs      13.40374381       9.09181810       3.87748885        1       0.00038941      -0.00046933       0.00016233
K        8.95138898       6.06116054       2.71251499        2      -0.00028922       0.00070724      -0.00060773
In       9.15653877       0.52282709      -0.37498176        3       0.00012408       0.00039603      -0.00011587
I        6.94036283       3.96646869       4.72928080        4      -0.00027477      -0.00005667      -0.00051537
I       10.96238540       8.15764855       0.69495597        5      -0.00015444      -0.00000191      -0.00067511
I        9.77098396       2.98289608       1.17643546        6       0.00046221      -0.00013731       0.00044912
I        8.12980057       9.14144779       4.24516809        7       0.00030044      -0.00011467       0.00050535
I        5.91304817       6.65472926       0.99436255        8      -0.00030599       0.00009474       0.00027986
I       11.99044239       5.46874233       4.42716710        9      -0.00051790      -0.00003208       0.00038823
