10
Lattice="8.575450696719106 1.6648809457675198 0.46732118550061763 2.293123093364798 8.348103803526522 0.7575815201310184 3.0588950806383304 2.5264496631401276 7.849866086177994" Properties=species:S:1:pos:R:3:spacegroup_kinds:I:1:forces:R:3 spacegroup="P 1" unit_cell=conventional occupancy="_JSON {\"0\": {\"Cs\": 1.0}, \"1\": {\"Cs\": 1.0}, \"2\": {\"K\": 1.0}, \"3\": {\"In\": 1.0}, \"4\": {\"I\": 1.0}, \"5\": {\"I\": 1.0}, \"6\": {\"I\": 1.0}, \"7\": {\"I\": 1.0}, \"8\": {\"I\": 1.0}, \"9\": {\"I\": 1.0}}" energy=-25.648921814042588 free_energy=-25.648921814042588 stress="2.993541303364423e-06 -2.79968053322955e-06 3.850337149428841e-06 -2.79968053322955e-06 -1.0733392117093783e-05 5.878934755165422e-07 3.850337149428841e-06 5.878934755165422e-07 8.069780319070102e-06" pbc="T T T"
Cs       3.37015141       3.01854703       2.16742165        0      -0.00058271       0.00039121      -0.00014035
Cs      10.55770729       9.52049575       6.90829606        1       0.00012428       0.00005201      -0.00030375
K        6.96430097       6.26959449       4.53719153        2      -0.00049772       0.00024182       0.00010883
In       8.57532310       1.66503864       0.46713763        3       0.00012282      -0.00007766      -0.00000475
I       10.35112058      11.68747842       3.63552216        4      -0.00035573      -0.00002044      -0.00067908
I        3.57648614       0.85199615       5.43916367        5       0.00011478      -0.00032198       0.00081714
I        0.90680982       6.07040124       2.06697239        6       0.00006797      -0.00027687       0.00018592
I       13.02042085       6.46879245       7.00669723        7       0.00010619       0.00040756       0.00027087
I        4.87103250       7.42981947       1.93246156        8       0.00076946       0.00002131      -0.00001692
I        9.05570494       5.11016727       7.14291416        9       0.00013065      -0.00041696      -0.00023790
