80
Lattice="21.256482003293723 1.5330406249110422 -1.4982290467845294 13.806515832894453 16.060122365406713 2.7898114811661303 3.9998045784102763 16.739529093533353 16.68941579220167" Properties=species:S:1:pos:R:3:spacegroup_kinds:I:1:forces:R:3 spacegroup="P 1" unit_cell=conventional occupancy="_JSON {\"0\": {\"Cs\": 1.0}, \"1\": {\"Cs\": 1.0}, \"2\": {\"K\": 1.0}, \"3\": {\"In\": 1.0}, \"4\": {\"I\": 1.0}, \"5\": {\"I\": 1.0}, \"6\": {\"I\": 1.0}, \"7\": {\"I\": 1.0}, \"8\": {\"I\": 1.0}, \"9\": {\"I\": 1.0}, \"10\": {\"Cs\": 1.0}, \"11\": {\"Cs\": 1.0}, \"12\": {\"K\": 1.0}, \"13\": {\"In\": 1.0}, \"14\": {\"I\": 1.0}, \"15\": {\"I\": 1.0}, \"16\": {\"I\": 1.0}, \"17\": {\"I\": 1.0}, \"18\": {\"I\": 1.0}, \"19\": {\"I\": 1.0}, \"20\": {\"Cs\": 1.0}, \"21\": {\"Cs\": 1.0}, \"22\": {\"K\": 1.0}, \"23\": {\"In\": 1.0}, \"24\": {\"I\": 1.0}, \"25\": {\"I\": 1.0}, \"26\": {\"I\": 1.0}, \"27\": {\"I\": 1.0}, \"28\": {\"I\": 1.0}, \"29\": {\"I\": 1.0}, \"30\": {\"Cs\": 1.0}, \"31\": {\"Cs\": 1.0}, \"32\": {\"K\": 1.0}, \"33\": {\"In\": 1.0}, \"34\": {\"I\": 1.0}, \"35\": {\"I\": 1.0}, \"36\": {\"I\": 1.0}, \"37\": {\"I\": 1.0}, \"38\": {\"I\": 1.0}, \"39\": {\"I\": 1.0}, \"40\": {\"Cs\": 1.0}, \"41\": {\"Cs\": 1.0}, \"42\": {\"K\": 1.0}, \"43\": {\"In\": 1.0}, \"44\": {\"I\": 1.0}, \"45\": {\"I\": 1.0}, \"46\": {\"I\": 1.0}, \"47\": {\"I\": 1.0}, \"48\": {\"I\": 1.0}, \"49\": {\"I\": 1.0}, \"50\": {\"Cs\": 1.0}, \"51\": {\"Cs\": 1.0}, \"52\": {\"K\": 1.0}, \"53\": {\"In\": 1.0}, \"54\": {\"I\": 1.0}, \"55\": {\"I\": 1.0}, \"56\": {\"I\": 1.0}, \"57\": {\"I\": 1.0}, \"58\": {\"I\": 1.0}, \"59\": {\"I\": 1.0}, \"60\": {\"Cs\": 1.0}, \"61\": {\"Cs\": 1.0}, \"62\": {\"K\": 1.0}, \"63\": {\"In\": 1.0}, \"64\": {\"I\": 1.0}, \"65\": {\"I\": 1.0}, \"66\": {\"I\": 1.0}, \"67\": {\"I\": 1.0}, \"68\": {\"I\": 1.0}, \"69\": {\"I\": 1.0}, \"70\": {\"Cs\": 1.0}, \"71\": {\"Cs\": 1.0}, \"72\": {\"K\": 1.0}, \"73\": {\"In\": 1.0}, \"74\": {\"I\": 1.0}, \"75\": {\"I\": 1.0}, \"76\": {\"I\": 1.0}, \"77\": {\"I\": 1.0}, \"78\": {\"I\": 1.0}, \"79\": {\"I\": 1.0}}" energy=-205.76057493673954 free_energy=-205.76057493673954 stress="7.632392235140073e-06 1.2389576988772316e-06 -3.0568434727779776e-06 1.2389576988772316e-06 2.1044549212809458e-06 3.7428490130755e-06 -3.0568434727779776e-06 3.7428490130755e-06 -6.700488282720087e-06" pbc="T T T"
Cs       6.39780909       2.97249593       1.04158797        0       0.00001984      -0.00014522      -0.00007494
Cs      13.13353789      14.19399549       7.94887873        1      -0.00000696       0.00005851       0.00008363
K        9.76560304       8.58306041       4.49515309        2       0.00030556       0.00025870       0.00016165
In       0.00001037      -0.00007688      -0.00007984        3       0.00003909       0.00026997       0.00009585
I        4.69003276       9.83326847       8.05724641        4       0.00005146      -0.00001058       0.00007198
I       14.84139997       7.33308502       0.93315047        5      -0.00019836      -0.00001154       0.00017361
I       13.10829746       7.70372932       5.05429785        6      -0.00005913       0.00011088       0.00005474
I       27.67961651      10.99562260       2.43804924        7      -0.00020817      -0.00016844      -0.00012883
I        8.26695673       5.86504076       2.87543079        8      -0.00003461      -0.00020840       0.00012872
I       11.26466981      11.30139919       6.11502628        9      -0.00025589      -0.00029420      -0.00015589
Cs       8.39768240      11.34218115       9.38619843       10       0.00007631       0.00002619       0.00007030
Cs      15.13347492      22.56377289      16.29367029       11      -0.00012776      -0.00002653      -0.00004538
K       11.76565775      16.95285176      12.83997206       12      -0.00012590       0.00001373      -0.00007484
In       1.99975339       8.36978799       8.34483303       13       0.00043535      -0.00002417      -0.00011474
I        6.68999224      18.20309657      16.40198532       14      -0.00007493      -0.00013134      -0.00000474
I       16.84137498      15.70297650       9.27811077       15      -0.00033397      -0.00031221      -0.00018860
I       15.10817215      16.07356127      13.39907783       16       0.00016333      -0.00011391      -0.00001586
I       29.67945278      19.36526244      10.78263996       17       0.00006152       0.00020291       0.00002108
I       10.26680271      14.23479354      11.22033164       18      -0.00007245       0.00008641      -0.00026158
I       13.26435985      19.67098065      14.45958460       19       0.00015375       0.00029300       0.00014765
Cs      13.30108599      11.00251347       2.43642067       20      -0.00001194      -0.00006947       0.00002046
Cs      20.03689882      22.22410716       9.34385365       21      -0.00025841      -0.00007166      -0.00005009
K       16.66899143      16.61321753       5.89027076       22      -0.00011259      -0.00006050      -0.00018491
In       6.90307299       8.02996680       1.39495597       23       0.00047765       0.00041147      -0.00008198
I       11.59344098      17.86336931       9.45206496       24      -0.00022005      -0.00012754       0.00018797
I       21.74461080      15.36320568       2.32820836       25      -0.00003400      -0.00008538      -0.00007570
I       20.01162701      15.73379190       6.44913686       26      -0.00009073       0.00008404       0.00014482
I       34.58285284      19.02553526       3.83276175       27      -0.00006687       0.00024169       0.00011281
I       15.17005453      13.89513056       4.27050808       28       0.00022442      -0.00020370      -0.00010253
I       18.16766744      19.33127663       7.50981346       29       0.00024722       0.00024266       0.00007833
Cs      15.30092161      19.37228808      10.78117508       30       0.00010278      -0.00004701      -0.00002072
Cs      22.03661893      30.59378831      17.68852189       31       0.00013470       0.00009617       0.00007565
K       18.66872856      24.98283147      14.23470128       32       0.00041942       0.00029740       0.00023557
In       8.90321098      16.39988410       9.73962162       33      -0.00001507      -0.00024931       0.00006875
I       13.59310626      26.23311476      17.79699993       34       0.00020235       0.00001649      -0.00015459
I       23.74466542      23.73295980      10.67283096       35      -0.00047251      -0.00019651       0.00010824
I       22.01143321      24.10362287      14.79405036       36       0.00002043      -0.00005899      -0.00012972
I       36.58277245      27.39547369      12.17774322       37      -0.00017421      -0.00018196      -0.00024523
I       17.17020629      22.26483354      12.61507302       38      -0.00029705       0.00004099      -0.00003464
I       20.16786923      27.70119819      15.85458616       39      -0.00033711      -0.00017739      -0.00008407
Cs      17.02599172       3.73898014       0.29244271       40       0.00013934      -0.00004477      -0.00001162
Cs      23.76169371      14.96048251       7.19977474       41       0.00018002       0.00010470       0.00009943
K       20.39388163       9.34950612       3.74591397       42       0.00026048       0.00034385       0.00030880
In      10.62832299       0.76657353      -0.74912726       43      -0.00005714      -0.00024713       0.00008421
I       15.31821873      10.59981285       7.30829300       44       0.00016245       0.00001654      -0.00019184
I       25.46968407       8.09962532       0.18406783       45      -0.00035396      -0.00010752       0.00015956
I        2.47996159       6.93727584       5.80355270       46       0.00017403      -0.00008310      -0.00010778
I       17.05129638      10.22909325       3.18721166       47       0.00001358      -0.00014978      -0.00019499
I       18.89528039       6.63152528       2.12635791       48      -0.00028418       0.00003784      -0.00004374
I       21.89296471      12.06793374       5.36588665       49      -0.00039006      -0.00029666      -0.00009465
Cs      19.02595218      12.10874313       8.63711158       50       0.00003866      -0.00007901       0.00002674
Cs      25.76176120      23.33031971      15.54452782       51      -0.00019077      -0.00005137      -0.00002714
K       22.39393147      17.71943447      12.09092101       52      -0.00024323      -0.00003988      -0.00013617
In      12.62797820       9.13617174       7.59561839       53       0.00047034       0.00048566      -0.00007112
I       17.31834513      18.96957862      15.65273952       54      -0.00022899      -0.00010010       0.00019169
I       27.46945430      16.46941173       8.52888589       55       0.00003760      -0.00001402      -0.00005441
I        4.47997440      15.30698558      14.14806535       56       0.00002487       0.00003996       0.00014962
I       19.05120427      18.59868166      11.53164336       57       0.00006615       0.00029309       0.00015878
I       20.89492867      15.00134721      10.47119619       58       0.00026834      -0.00020597      -0.00010012
I       23.89257622      20.43753501      13.71053817       59       0.00016057       0.00016772       0.00004833
Cs      23.92926750      11.76899424       1.68727795       60       0.00010460       0.00003437       0.00007979
Cs      30.66506229      22.99058993       8.59474501       61      -0.00009289      -0.00001476      -0.00003475
K       27.29728866      17.37965819       5.14103080       62      -0.00020122       0.00004614      -0.00004657
In      17.53138262       8.79660884       0.64589315       63       0.00039584      -0.00008107      -0.00007901
I       22.22161523      18.62991077       8.70310937       64      -0.00009381      -0.00009210      -0.00007576
I       32.37290683      16.12976074       1.57915046       65      -0.00020850      -0.00020618      -0.00013035
I        9.38325080      14.96734384       7.19840223       66       0.00023729      -0.00012561      -0.00001811
I       23.95453027      18.25901560       4.58192806       67       0.00017113       0.00024141       0.00004908
I       25.79838701      14.66161179       3.52144036       68      -0.00004962       0.00007025      -0.00029296
I       28.79597048      20.09782489       6.76068861       69       0.00009845       0.00022770       0.00012951
Cs      25.92919066      20.13884678      10.03208891       70       0.00005961      -0.00014844      -0.00006816
Cs      32.66491422      31.36033023      16.93937588       71       0.00004789       0.00008244       0.00009328
K       29.29702451      25.74940856      13.48564589       72       0.00025044       0.00026611       0.00017121
In      19.53143279      17.16625873       8.99039119       73       0.00003402       0.00029033       0.00012600
I       24.22144757      26.99959288      17.04775294       74       0.00006404       0.00005980       0.00004034
I       34.37275822      24.49941036       9.92363318       75      -0.00012210       0.00007870       0.00019796
I       11.38319177      23.33705167      15.54304674       76      -0.00001538       0.00007846       0.00003835
I       25.95451697      26.62890179      12.92674974       77      -0.00014396      -0.00011305      -0.00010286
I       27.79834263      23.03138347      11.86594281       78       0.00001525      -0.00022153       0.00010898
I       30.79609480      28.46776711      15.10555412       79      -0.00034574      -0.00031825      -0.00019182
