80
Lattice="15.0629095807545 0.0 0.0 8.96734100484901 13.79023786297586 0.0 2.539751185192172 13.561327048021173 7.778687811950817" Properties=species:S:1:pos:R:3 pbc="T T T"
Cs       3.32115410       3.41891629       0.97235449
Cs       9.96384662      10.25686539       2.91698890
K        6.64250030       6.83789080       1.94467161
In       0.00000018       0.00000053       0.00000022
I        4.71874827       5.46132950       1.48268674
I        8.56625234       8.21445166       2.40665651
I        9.35287106       3.87740600       1.62313945
I        3.93212810       9.79837530       2.26620340
I        5.81907743       6.22211458       0.18447254
I        7.46592368       7.45366950       3.70487228
Cs       4.59102969      10.19957981       4.86169840
Cs      11.23372222      17.03752891       6.80633281
K        7.91237589      13.61855432       5.83401552
In       1.26987577       6.78066406       3.88934413
I        5.98862386      12.24199302       5.37203065
I        9.83612793      14.99511519       6.29600041
I       10.62274665      10.65806952       5.51248336
I        5.20200369      16.57903882       6.15554731
I        7.08895302      13.00277811       4.07381645
I        8.73579927      14.23433303       7.59421619
Cs       7.80482460      10.31403522       0.97235449
Cs      14.44751713      17.15198432       2.91698890
K       11.12617080      13.73300973       1.94467161
In       4.48367068       6.89511946       0.00000022
I        9.20241877      12.35644843       1.48268674
I       13.04992284      15.10957059       2.40665651
I       13.83654156      10.77252493       1.62313945
I        8.41579860      16.69349423       2.26620340
I       10.30274793      13.11723352       0.18447254
I       11.94959418      14.34878843       3.70487228
Cs       9.07470019      17.09469874       4.86169840
Cs      15.71739272      23.93264784       6.80633281
K       12.39604640      20.51367325       5.83401552
In       5.75354628      13.67578299       3.88934413
I       10.47229436      19.13711195       5.37203065
I       14.31979844      21.89023412       6.29600041
I       15.10641715      17.55318845       5.51248336
I        9.68567419      23.47415775       6.15554731
I       11.57262353      19.89789704       4.07381645
I       13.21946978      21.12945196       7.59421619
Cs      10.85260889       3.41891629       0.97235449
Cs      17.49530141      10.25686539       2.91698890
K       14.17395509       6.83789080       1.94467161
In       7.53145497       0.00000053       0.00000022
I       12.25020306       5.46132950       1.48268674
I       16.09770713       8.21445166       2.40665651
I       16.88432585       3.87740600       1.62313945
I       11.46358289       9.79837530       2.26620340
I       13.35053222       6.22211458       0.18447254
I       14.99737847       7.45366950       3.70487228
Cs      12.12248448      10.19957981       4.86169840
Cs      18.76517701      17.03752891       6.80633281
K       15.44383068      13.61855432       5.83401552
In       8.80133056       6.78066406       3.88934413
I       13.52007865      12.24199302       5.37203065
I       17.36758272      14.99511519       6.29600041
I       18.15420144      10.65806952       5.51248336
I       12.73345848      16.57903882       6.15554731
I       14.62040781      13.00277811       4.07381645
I       16.26725407      14.23433303       7.59421619
Cs      15.33627939      10.31403522       0.97235449
Cs      21.97897192      17.15198432       2.91698890
K       18.65762559      13.73300973       1.94467161
In      12.01512547       6.89511946       0.00000022
I       16.73387356      12.35644843       1.48268674
I       20.58137763      15.10957059       2.40665651
I       21.36799635      10.77252493       1.62313945
I       15.94725339      16.69349423       2.26620340
I       17.83420272      13.11723352       0.18447254
I       19.48104898      14.34878843       3.70487228
Cs      16.60615498      17.09469874       4.86169840
Cs      23.24884751      23.93264784       6.80633281
K       19.92750119      20.51367325       5.83401552
In      13.28500107      13.67578299       3.88934413
I       18.00374915      19.13711195       5.37203065
I       21.85125323      21.89023412       6.29600041
I       22.63787195      17.55318845       5.51248336
I       17.21712898      23.47415775       6.15554731
I       19.10407832      19.89789704       4.07381645
I       20.75092457      21.12945196       7.59421619
