10
Lattice="10.94420085644452 0.0 0.0 -2.55749714621351 7.9684225157625175 0.0 0.0 0.0 7.945756492015823" Properties=species:S:1:pos:R:3 pbc="T T T"
Cs       6.15268975       2.65984353       0.02528681
Cs       1.65212375       5.31598437       7.92044136
K       -0.29094048       0.00370786       3.97287715
In      -0.29094658       0.00370480       0.00000983
I       -0.93988162       2.10188216       1.58948671
I        8.74469263       5.87396637       6.35627074
I        1.92308068       2.08403945       6.35627705
I        5.88172897       5.89177198       1.58949303
I        0.01452232       7.95430120       1.58948927
I        7.79029436       0.02152700       6.35627330
