20
Lattice="12.774387829569223 2.866865409028062e-11 -9.537259487418437e-16 2.8668653953100948e-11 12.774387829569465 2.1322912992582254e-15 -4.770201625528095e-16 1.0662030611895238e-15 6.38719391465932" Properties=species:S:1:pos:R:3:spacegroup_kinds:I:1:forces:R:3 spacegroup="P 1" unit_cell=conventional occupancy="_JSON {\"0\": {\"Cs\": 1.0}, \"1\": {\"Pb\": 1.0}, \"2\": {\"I\": 1.0}, \"3\": {\"I\": 1.0}, \"4\": {\"I\": 1.0}, \"5\": {\"Cs\": 1.0}, \"6\": {\"Pb\": 1.0}, \"7\": {\"I\": 1.0}, \"8\": {\"I\": 1.0}, \"9\": {\"I\": 1.0}, \"10\": {\"Cs\": 1.0}, \"11\": {\"Pb\": 1.0}, \"12\": {\"I\": 1.0}, \"13\": {\"I\": 1.0}, \"14\": {\"I\": 1.0}, \"15\": {\"Cs\": 1.0}, \"16\": {\"Pb\": 1.0}, \"17\": {\"I\": 1.0}, \"18\": {\"I\": 1.0}, \"19\": {\"I\": 1.0}}" energy=-55.92296951658688 free_energy=-55.92296951658688 stress="6.08589814233361e-06 -2.309987484006054e-12 -9.318321022275732e-18 -2.309987484006054e-12 6.085898144971941e-06 6.381575580128411e-18 -9.318321022275732e-18 6.381575580128411e-18 6.085909177337105e-06" pbc="T T T"
Cs       3.19366762       3.19352630       3.19359696        0       0.00000460      -0.00000460      -0.00000000
Pb       0.00000031      -0.00000031       0.00000000        1       0.00001067      -0.00001067      -0.00000000
I       -0.00001111       0.00001111       3.19359696        2      -0.00000067       0.00000067       0.00000000
I        3.19360497       0.00001111       0.00000000        3      -0.00001393       0.00000067      -0.00000000
I       -0.00001111       3.19358895       0.00000000        4      -0.00000067       0.00001393       0.00000000
Cs       3.19366762       9.58072021       3.19359696        5       0.00000460      -0.00000460      -0.00000000
Pb       0.00000031       6.38719361       0.00000000        6       0.00001067      -0.00001067      -0.00000000
I       -0.00001111       6.38720503       3.19359696        7      -0.00000067       0.00000067       0.00000000
I        3.19360497       6.38720503       0.00000000        8      -0.00001393       0.00000067       0.00000000
I       -0.00001111       9.58078286       0.00000000        9      -0.00000067       0.00001393       0.00000000
Cs       9.58086153       3.19352630       3.19359696       10       0.00000460      -0.00000460      -0.00000000
Pb       6.38719422      -0.00000031       0.00000000       11       0.00001067      -0.00001067      -0.00000000
I        6.38718280       0.00001111       3.19359696       12      -0.00000067       0.00000067       0.00000000
I        9.58079888       0.00001111       0.00000000       13      -0.00001393       0.00000067      -0.00000000
I        6.38718280       3.19358895       0.00000000       14      -0.00000067       0.00001393       0.00000000
Cs       9.58086153       9.58072021       3.19359696       15       0.00000460      -0.00000460      -0.00000000
Pb       6.38719422       6.38719361      -0.00000000       16       0.00001067      -0.00001067      -0.00000000
I        6.38718280       6.38720503       3.19359696       17      -0.00000067       0.00000067       0.00000000
I        9.58079888       6.38720503       0.00000000       18      -0.00001393       0.00000067       0.00000000
I        6.38718280       9.58078286       0.00000000       19      -0.00000067       0.00001393       0.00000000
