10
Lattice="8.778866921766266 0.0 0.0 -1.7936830680889715 10.049649296072502 0.0 -1.498032240006456 -3.413613675365851 9.579275502870988" Properties=species:S:1:pos:R:3 pbc="T T T"
Cs       2.65062801       7.28576701      -0.00002330
Cs       6.17481134       3.93588392      -0.00002330
K        0.17111658      -1.12081101       4.78964585
In       0.92013828       0.58600489       0.00002162
I        2.45195010       2.53807330       1.91651402
I        4.87547973       5.26996802       7.66279743
I        1.10349644      -2.73066254       7.66277946
I        7.09746514      -0.09696127       1.91651179
I       -0.70295981       7.31769016       1.91650265
I       -1.66862989      -0.09564095       7.66277946
