10
Lattice="9.182818496554283 -1.4125233810951756 0.4086933596601975 -3.445977097249153 8.55179285584251 1.2047966493648306 -0.6126988515704652 -1.4715809034857097 8.682186748351366" Properties=species:S:1:pos:R:3:spacegroup_kinds:I:1:forces:R:3 spacegroup="P 1" unit_cell=conventional occupancy="_JSON {\"0\": {\"Cs\": 1.0}, \"1\": {\"Cs\": 1.0}, \"2\": {\"K\": 1.0}, \"3\": {\"In\": 1.0}, \"4\": {\"I\": 1.0}, \"5\": {\"I\": 1.0}, \"6\": {\"I\": 1.0}, \"7\": {\"I\": 1.0}, \"8\": {\"I\": 1.0}, \"9\": {\"I\": 1.0}}" energy=-25.793799626354804 free_energy=-25.793799626354804 stress="2.521687980204448e-06 2.1443980429494452e-06 -1.5313279141041796e-06 2.1443980429494452e-06 -8.7100425416885e-07 7.266293106022451e-07 -1.5313279141041796e-06 7.266293106022451e-07 -1.0076547762461142e-05" pbc="T T T"
Cs       0.85164056       4.03417090       9.66887325        0      -0.00048357      -0.00022475       0.00076237
Cs       5.05359445       0.69638526       9.49709023        1      -0.00000357      -0.00000299      -0.00039345
K        0.39017980      -0.47098774       4.43516956        2      -0.00001858       0.00095604       0.00005929
In       0.69707101       0.26782450       0.09471492        3      -0.00058859      -0.00060726      -0.00007904
I        2.05446871       1.86331597       2.25683099        4       0.00049135      -0.00040903      -0.00051599
I        4.46239399       4.33897157       8.22909222        5       0.00049900      -0.00013945      -0.00081458
I        2.61846946      -1.25120708       7.15148688        6      -0.00017396      -0.00031691       0.00051201
I        7.34537548      -1.09829151       2.12817723        7      -0.00011162       0.00023367      -0.00016317
I       -1.94034618       6.29270042       2.72298927        8       0.00015286       0.00016922       0.00073076
I       -0.72466470       1.32149288       7.35177345        9       0.00023667       0.00034146      -0.00009820
