20
Lattice="18.363140308131765 -0.03396383191169851 0.0073846641878013335 4.588257546859999 7.9983311266705055 -0.021153297965177616 4.574826686495082 2.6275036580375613 6.934395791626347" Properties=species:S:1:pos:R:3:spacegroup_kinds:I:1:forces:R:3 spacegroup="P 1" unit_cell=conventional occupancy="_JSON {\"0\": {\"Cs\": 1.0}, \"1\": {\"Cs\": 1.0}, \"2\": {\"K\": 1.0}, \"3\": {\"In\": 1.0}, \"4\": {\"I\": 1.0}, \"5\": {\"I\": 1.0}, \"6\": {\"I\": 1.0}, \"7\": {\"I\": 1.0}, \"8\": {\"I\": 1.0}, \"9\": {\"I\": 1.0}, \"10\": {\"Cs\": 1.0}, \"11\": {\"Cs\": 1.0}, \"12\": {\"K\": 1.0}, \"13\": {\"In\": 1.0}, \"14\": {\"I\": 1.0}, \"15\": {\"I\": 1.0}, \"16\": {\"I\": 1.0}, \"17\": {\"I\": 1.0}, \"18\": {\"I\": 1.0}, \"19\": {\"I\": 1.0}}" energy=-51.29789071787081 free_energy=-51.29789071787081 stress="-1.15257141538164e-06 -4.3038057267755677e-07 -8.00650071234516e-08 -4.3038057267755677e-07 -2.255324302788976e-06 1.0010444633365898e-06 -8.00650071234516e-08 1.0010444633365898e-06 -1.8437402263684525e-07" pbc="T T T"
Cs       4.60010467       2.64015024       1.91819290        0      -0.00084651      -0.00007176       0.00031236
Cs      13.74648742       7.96895523       4.99777309        1      -0.00040816       0.00001862       0.00007859
K        9.17160020       5.30399044       3.45827559        2       0.00045137       0.00024682       0.00006005
In      18.36271335      -0.03388617       0.00738957        3       0.00023457       0.00019210       0.00006270
I        6.95859854       3.20658519       5.24886678        4       0.00012755      -0.00025788      -0.00001656
I       11.38539370       7.40206520       1.66829737        5       0.00031747       0.00017331      -0.00024587
I        9.87466323       2.29202267       1.74296729        6      -0.00037640       0.00037836       0.00015290
I        8.47066743       8.31648023       5.17425964        7       0.00015167       0.00010610      -0.00029279
I        6.24580185       6.19731721       1.67841255        8       0.00022754      -0.00017709      -0.00012199
I       12.09810976       4.41213598       5.23907286        9       0.00008069      -0.00015999       0.00017034
Cs      13.78149159       2.62312907       1.92190193       10      -0.00048134      -0.00000257       0.00027704
Cs      22.92826249       7.95194983       5.00142673       11      -0.00076140      -0.00000973       0.00014094
K       18.35317195       5.28700014       3.46198587       12       0.00040722       0.00028514       0.00007147
In       9.18105337      -0.01674179       0.00378037       13       0.00028642      -0.00049203      -0.00004052
I       16.14008754       3.18939627       5.25279209       14       0.00059406       0.00016129      -0.00055509
I       20.56705201       7.38524524       1.67178203       15      -0.00006555      -0.00024290       0.00022980
I       19.05593593       2.27510530       1.74667632       16       0.00020507       0.00010585      -0.00005076
I       17.65249790       8.29955532       5.17797802       17      -0.00045373       0.00008625      -0.00028328
I       15.42735716       6.18033795       1.68197593       18       0.00021063      -0.00031322       0.00031675
I       21.27968151       4.39509832       5.24291424       19       0.00009885      -0.00002667      -0.00026609
