40
Lattice="16.986801509467057 -0.1305884930879219 1.097159113678532 -8.042621755355384 14.398365939446236 -3.5756216504024647 1.3211408190029772 2.717840624839491 7.9591340156903625" Properties=species:S:1:pos:R:3:spacegroup_kinds:I:1:forces:R:3 spacegroup="P 1" unit_cell=conventional occupancy="_JSON {\"0\": {\"Cs\": 1.0}, \"1\": {\"Cs\": 1.0}, \"2\": {\"K\": 1.0}, \"3\": {\"In\": 1.0}, \"4\": {\"I\": 1.0}, \"5\": {\"I\": 1.0}, \"6\": {\"I\": 1.0}, \"7\": {\"I\": 1.0}, \"8\": {\"I\": 1.0}, \"9\": {\"I\": 1.0}, \"10\": {\"Cs\": 1.0}, \"11\": {\"Cs\": 1.0}, \"12\": {\"K\": 1.0}, \"13\": {\"In\": 1.0}, \"14\": {\"I\": 1.0}, \"15\": {\"I\": 1.0}, \"16\": {\"I\": 1.0}, \"17\": {\"I\": 1.0}, \"18\": {\"I\": 1.0}, \"19\": {\"I\": 1.0}, \"20\": {\"Cs\": 1.0}, \"21\": {\"Cs\": 1.0}, \"22\": {\"K\": 1.0}, \"23\": {\"In\": 1.0}, \"24\": {\"I\": 1.0}, \"25\": {\"I\": 1.0}, \"26\": {\"I\": 1.0}, \"27\": {\"I\": 1.0}, \"28\": {\"I\": 1.0}, \"29\": {\"I\": 1.0}, \"30\": {\"Cs\": 1.0}, \"31\": {\"Cs\": 1.0}, \"32\": {\"K\": 1.0}, \"33\": {\"In\": 1.0}, \"34\": {\"I\": 1.0}, \"35\": {\"I\": 1.0}, \"36\": {\"I\": 1.0}, \"37\": {\"I\": 1.0}, \"38\": {\"I\": 1.0}, \"39\": {\"I\": 1.0}}" energy=-102.8802812432148 free_energy=-102.8802812432148 stress="-5.2384293560623025e-06 1.5776119251273079e-06 -5.509850218841164e-06 1.5776119251273079e-06 -7.70838589585834e-06 9.826460247315645e-06 -5.509850218841164e-06 9.826460247315645e-06 9.873806618230075e-06" pbc="T T T"
Cs       3.00544906       8.02209528       5.04473435        0      -0.00014596      -0.00022066      -0.00017917
Cs       7.44900861       6.63888540       9.39959124        1      -0.00005455       0.00002043      -0.00022107
K        2.32970194       2.40426594       3.86186159        2       0.00029704      -0.00007333      -0.00019290
In       1.66924055       1.04514271      -0.11767197        3       0.00016206      -0.00010172      -0.00012054
I        1.97598490       3.86884346       0.70135236        4       0.00052443       0.00034424       0.00037000
I        7.15492200       8.07302818       5.78260444        5       0.00048209       0.00008642      -0.00000724
I        4.87710540       4.22334432       5.45573837        6      -0.00024379      -0.00014273       0.00005158
I        8.27579917       0.52012722       2.81637165        7       0.00016606      -0.00035308       0.00011862
I       -0.05477271       7.50232023      -0.19956383        8       0.00071507      -0.00006194      -0.00013833
I        0.69249523       4.50460424       6.13577675        9       0.00001656       0.00008271      -0.00044476
Cs      -1.01575027      15.22106764       3.25675744       10      -0.00020102      -0.00014609      -0.00011798
Cs       3.42758696      13.83793994       7.61169735       11       0.00004225       0.00013700      -0.00029178
K       -1.69103125       9.60421048       2.07363621       12      -0.00054750      -0.00072187       0.00017694
In      -2.35219072       8.24418255      -1.90561239       13      -0.00049855       0.00013317       0.00008461
I       -2.04491732      11.06794275      -1.08649529       14      -0.00016895       0.00031809      -0.00008207
I        3.13439415      15.27202376       3.99513432       15      -0.00021211       0.00081810       0.00002291
I        0.85561315      11.42298066       3.66783765       16       0.00030465      -0.00052039       0.00019046
I        4.25516849       7.71865528       1.02864805       17      -0.00085577       0.00029265       0.00037767
I       -4.07572907      14.70138145      -1.98747657       18      -0.00030160       0.00073455       0.00028801
I       -3.32878882      11.70378882       4.34760201       19      -0.00010748       0.00045089       0.00033080
Cs      11.49883419       7.95677266       5.59345453       20      -0.00019835      -0.00016811      -0.00028218
Cs      15.94235912       6.57362536       9.94783325       21      -0.00024678       0.00009872      -0.00008044
K       10.82317245       2.33898582       4.41044538       22       0.00013471      -0.00011330      -0.00013156
In      10.16278196       0.97989141       0.43064641       23      -0.00073753      -0.00028619       0.00024028
I       10.46931494       3.80375390       1.25006339       24       0.00045118      -0.00019772       0.00011327
I       -1.33849545       8.13855507       5.23399071       25       0.00060686      -0.00039236       0.00005111
I       13.37047153       4.15798511       6.00459180       26       0.00009261       0.00000999      -0.00038553
I       16.76916119       0.45473577       3.36499626       27       0.00010053      -0.00021673       0.00028176
I        8.43873334       7.43715935       0.34894162       28       0.00028009       0.00005159      -0.00036406
I        9.18581897       4.43937795       6.68426348       29       0.00042436      -0.00014641      -0.00013242
Cs       7.47775381      15.15562136       3.80561414       30      -0.00031631      -0.00014435      -0.00021120
Cs      11.92101235      13.77276359       8.15988815       31      -0.00005519      -0.00005328       0.00008143
K        6.80236593       9.53900871       2.62210910       32      -0.00029930      -0.00071941       0.00032789
In       6.14102229       8.17875057      -1.35706449       33       0.00065262       0.00043574      -0.00000146
I        6.44840000      11.00276278      -0.53794549       34      -0.00011016       0.00003294      -0.00007867
I       -5.35899681      15.33768061       3.44661143       35      -0.00023167      -0.00032014      -0.00027427
I        9.34887064      11.35768800       4.21641205       36       0.00046643      -0.00045312       0.00018563
I       12.74831966       7.65305874       1.57753993       37       0.00001883       0.00080208      -0.00024701
I        4.41759236      14.63633261      -1.43901374       38       0.00005914       0.00039016       0.00044752
I        5.16470323      11.63861253       4.89612292       39      -0.00046500       0.00031347       0.00024413
