5
Lattice="5.38887870403715 0.0 0.0 -2.736703991961461 6.781482004320567 0.0 -0.7578790173157269 -0.34552003281301197 5.389094990537062" Properties=species:S:1:pos:R:3:oxi_states:R:1 pbc="T T T"
Cs       0.94746046       3.21766837       2.69454749       1.00000000
Pb      -0.00000000      -0.00000000       0.00000000       2.00000000
I       -0.37893951      -0.17276002       2.69454750      -1.00000000
I        2.69443935       0.00000000      -0.00000000      -1.00000000
I       -1.36835200       3.39074100       0.00000000      -1.00000000
