80
Lattice="20.885360225601868 0.0 0.0 -7.546971064159363 13.071737326376182 0.0 7.847109081250269 11.03322829200557 12.179045312467169" Properties=species:S:1:pos:R:3 pbc="T T T"
Cs      10.25967069       7.63484841       6.08377735
Cs       1.60476950       4.30722691       0.00570137
K        1.96177727       2.75830707       3.04476133
In       0.63585222      -0.05520496       0.00001167
I        9.12604508       1.05282994       1.21810376
I        2.73839115      10.88922735       4.87142626
I        3.17445344       2.75989170       1.21810858
I        8.69000154       9.18219344       4.87143108
I        9.07342889       5.86803437       1.21810291
I        2.79101129       6.07404644       4.87142540
Cs      14.18322523      13.15146256      12.17330001
Cs       5.52832404       9.82384106       6.09522403
K        5.88533181       8.27492122       9.13428398
In       4.55940676       5.46140918       6.08953433
I       13.04959962       6.56944408       7.30762642
I        6.66194569      16.40584149      10.96094891
I        7.09800798       8.27650585       7.30763123
I       12.61355608      14.69880759      10.96095373
I       12.99698344      11.38464852       7.30762556
I        6.71456583      11.59066059      10.96094806
Cs       6.48618516      14.17071708       6.08377735
Cs      -2.16871603      10.84309558       0.00570137
K       -1.81170826       9.29417574       3.04476133
In      -3.13763331       6.48066370       0.00001167
I        5.35255955       7.58869860       1.21810376
I       -1.03509438      17.42509601       4.87142626
I       -0.59903209       9.29576036       1.21810858
I        4.91651601      15.71806210       4.87143108
I        5.29994336      12.40390303       1.21810291
I       -0.98247424      12.60991511       4.87142540
Cs      10.40973970      19.68733122      12.17330001
Cs       1.75483851      16.35970972       6.09522403
K        2.11184628      14.81078988       9.13428398
In       0.78592123      11.99727785       6.08953433
I        9.27611409      13.10531275       7.30762642
I        2.88846016      22.94171015      10.96094891
I        3.32452245      14.81237451       7.30763123
I        8.84007055      21.23467625      10.96095373
I        9.22349790      17.92051718       7.30762556
I        2.94108030      18.12652925      10.96094806
Cs      20.70235080       7.63484841       6.08377735
Cs      12.04744962       4.30722691       0.00570137
K       12.40445738       2.75830707       3.04476133
In      11.07853234      -0.05520496       0.00001167
I       19.56872519       1.05282994       1.21810376
I       13.18107126      10.88922735       4.87142626
I       13.61713356       2.75989170       1.21810858
I       19.13268165       9.18219344       4.87143108
I       19.51610901       5.86803437       1.21810291
I       13.23369140       6.07404644       4.87142540
Cs      24.62590534      13.15146256      12.17330001
Cs      15.97100416       9.82384106       6.09522403
K       16.32801192       8.27492122       9.13428398
In      15.00208688       5.46140918       6.08953433
I       23.49227973       6.56944408       7.30762642
I       17.10462580      16.40584149      10.96094891
I       17.54068810       8.27650585       7.30763123
I       23.05623619      14.69880759      10.96095373
I       23.43966355      11.38464852       7.30762556
I       17.15724594      11.59066059      10.96094806
Cs      16.92886527      14.17071708       6.08377735
Cs       8.27396408      10.84309558       0.00570137
K        8.63097185       9.29417574       3.04476133
In       7.30504680       6.48066370       0.00001167
I       15.79523966       7.58869860       1.21810376
I        9.40758573      17.42509601       4.87142626
I        9.84364802       9.29576036       1.21810858
I       15.35919612      15.71806210       4.87143108
I       15.74262348      12.40390303       1.21810291
I        9.46020587      12.60991511       4.87142540
Cs      20.85241981      19.68733122      12.17330001
Cs      12.19751862      16.35970972       6.09522403
K       12.55452639      14.81078988       9.13428398
In      11.22860134      11.99727785       6.08953433
I       19.71879420      13.10531275       7.30762642
I       13.33114027      22.94171015      10.96094891
I       13.76720257      14.81237451       7.30763123
I       19.28275066      21.23467625      10.96095373
I       19.66617802      17.92051718       7.30762556
I       13.38376041      18.12652925      10.96094806
