80
Lattice="21.34586271377105 -0.04641671047695199 0.6613728346418855 -6.485011399036776 14.772063014716982 -4.960004880336382 10.369609017122562 8.164019927673131 10.754240842501973" Properties=species:S:1:pos:R:3:spacegroup_kinds:I:1:forces:R:3 spacegroup="P 1" unit_cell=conventional occupancy="_JSON {\"0\": {\"Cs\": 1.0}, \"1\": {\"Cs\": 1.0}, \"2\": {\"K\": 1.0}, \"3\": {\"In\": 1.0}, \"4\": {\"I\": 1.0}, \"5\": {\"I\": 1.0}, \"6\": {\"I\": 1.0}, \"7\": {\"I\": 1.0}, \"8\": {\"I\": 1.0}, \"9\": {\"I\": 1.0}, \"10\": {\"Cs\": 1.0}, \"11\": {\"Cs\": 1.0}, \"12\": {\"K\": 1.0}, \"13\": {\"In\": 1.0}, \"14\": {\"I\": 1.0}, \"15\": {\"I\": 1.0}, \"16\": {\"I\": 1.0}, \"17\": {\"I\": 1.0}, \"18\": {\"I\": 1.0}, \"19\": {\"I\": 1.0}, \"20\": {\"Cs\": 1.0}, \"21\": {\"Cs\": 1.0}, \"22\": {\"K\": 1.0}, \"23\": {\"In\": 1.0}, \"24\": {\"I\": 1.0}, \"25\": {\"I\": 1.0}, \"26\": {\"I\": 1.0}, \"27\": {\"I\": 1.0}, \"28\": {\"I\": 1.0}, \"29\": {\"I\": 1.0}, \"30\": {\"Cs\": 1.0}, \"31\": {\"Cs\": 1.0}, \"32\": {\"K\": 1.0}, \"33\": {\"In\": 1.0}, \"34\": {\"I\": 1.0}, \"35\": {\"I\": 1.0}, \"36\": {\"I\": 1.0}, \"37\": {\"I\": 1.0}, \"38\": {\"I\": 1.0}, \"39\": {\"I\": 1.0}, \"40\": {\"Cs\": 1.0}, \"41\": {\"Cs\": 1.0}, \"42\": {\"K\": 1.0}, \"43\": {\"In\": 1.0}, \"44\": {\"I\": 1.0}, \"45\": {\"I\": 1.0}, \"46\": {\"I\": 1.0}, \"47\": {\"I\": 1.0}, \"48\": {\"I\": 1.0}, \"49\": {\"I\": 1.0}, \"50\": {\"Cs\": 1.0}, \"51\": {\"Cs\": 1.0}, \"52\": {\"K\": 1.0}, \"53\": {\"In\": 1.0}, \"54\": {\"I\": 1.0}, \"55\": {\"I\": 1.0}, \"56\": {\"I\": 1.0}, \"57\": {\"I\": 1.0}, \"58\": {\"I\": 1.0}, \"59\": {\"I\": 1.0}, \"60\": {\"Cs\": 1.0}, \"61\": {\"Cs\": 1.0}, \"62\": {\"K\": 1.0}, \"63\": {\"In\": 1.0}, \"64\": {\"I\": 1.0}, \"65\": {\"I\": 1.0}, \"66\": {\"I\": 1.0}, \"67\": {\"I\": 1.0}, \"68\": {\"I\": 1.0}, \"69\": {\"I\": 1.0}, \"70\": {\"Cs\": 1.0}, \"71\": {\"Cs\": 1.0}, \"72\": {\"K\": 1.0}, \"73\": {\"In\": 1.0}, \"74\": {\"I\": 1.0}, \"75\": {\"I\": 1.0}, \"76\": {\"I\": 1.0}, \"77\": {\"I\": 1.0}, \"78\": {\"I\": 1.0}, \"79\": {\"I\": 1.0}}" energy=-205.7605705312999 free_energy=-205.7605705312999 stress="-1.2342289799051004e-06 4.1868892444317284e-07 -1.7555881232614204e-06 4.1868892444317284e-07 -4.607778032370362e-07 4.620113541952445e-08 -1.7555881232614204e-06 4.620113541952445e-08 7.445005360925812e-07" pbc="T T T"
Cs      12.27385651       6.92998803       5.54907095        0       0.00001689       0.00000892       0.00037604
Cs       1.50197918       4.40148223      -2.25180745        1       0.00010376      -0.00028055       0.00019895
K        3.17298278       1.98359737       2.72381447        2      -0.00033639      -0.00035045      -0.00013050
In      -5.90319558      14.71408489      -4.92562608        3      -0.00014472      -0.00026316      -0.00034582
I        4.17930431      17.26670659      -3.26730700        4       0.00027313      -0.00020764      -0.00014548
I        3.11219260       8.83814014       1.60316448        5      -0.00014637       0.00008747       0.00003679
I        3.40693292       0.96182997      -0.62863476        6      -0.00001807      -0.00006158      -0.00021459
I       10.36926511      10.37015118       3.92811545        7       0.00003654       0.00017737      -0.00004949
I        9.02633379       6.22403680       0.44400781        8      -0.00013131       0.00012286       0.00004026
I        4.74662596       5.10864521       2.85722994        9       0.00045848       0.00029560       0.00025455
Cs      17.45666581      11.01349306      10.92926850       10       0.00033966      -0.00024019      -0.00023517
Cs       6.68631779       8.48439227       3.12587480       11       0.00014481      -0.00024572      -0.00000274
K        8.35917111       6.06485041       8.10021391       12      -0.00033961      -0.00011750       0.00032343
In      -0.71930633      18.79665787       0.45212676       13      -0.00039978      -0.00013804      -0.00000679
I        9.36484049      21.34795210       2.11007674       14      -0.00019377      -0.00028387       0.00004574
I        8.29590424      12.91908584       6.98287743       15      -0.00012951      -0.00031813      -0.00043164
I        8.59055936       5.04389418       4.74752688       16       0.00008373      -0.00010704       0.00003728
I       15.55310993      14.45358536       9.30483799       17       0.00071465      -0.00015639      -0.00032857
I       14.21165245      10.30549053       5.82081721       18       0.00018709      -0.00056911      -0.00037646
I        9.93297816       9.18962521       8.23348805       19       0.00025565       0.00023476       0.00010772
Cs       9.02944372      14.31640598       3.07463201       20       0.00001806      -0.00017763      -0.00053711
Cs      -1.73862851      11.78690020      -4.73171715       21      -0.00050705       0.00005673      -0.00018606
K       -0.07073780       9.37052213       0.24552407       22       0.00019525      -0.00017154      -0.00029169
In      -2.66357711       7.32912207      -2.44250025       23       0.00036527       0.00005351       0.00012924
I        7.42125324       9.88119579      -0.78598038       24      -0.00016282       0.00054047       0.00015779
I       -0.12989197      16.22297748      -0.87750158       25      -0.00000821       0.00037852      -0.00011327
I        0.16172725       8.34845697      -3.10719188       26       0.00040372       0.00004828       0.00016154
I        7.12747032      17.75494477       1.44744153       27      -0.00000677       0.00002038      -0.00033280
I        5.78201911      13.60901209      -2.03640820       28       0.00048078      -0.00026067      -0.00026881
I        1.50235055      12.49576582       0.38000605       29       0.00042693      -0.00052127      -0.00049988
Cs      14.21460547      18.39698303       8.44783504       30      -0.00014163       0.00034560       0.00011262
Cs       3.44466052      15.86953156       0.64423912       31      -0.00004787      -0.00002348       0.00032427
K        5.11380782      13.45184737       5.62311023       32       0.00043918       0.00036806       0.00000750
In       2.52210666      11.41090239       2.93419755       33       0.00000040       0.00043246       0.00048814
I       12.60584159      13.96266555       4.59308444       34       0.00025147       0.00032608      -0.00005588
I        5.05671997      20.30477291       4.49868561       35      -0.00032936       0.00057913       0.00070080
I        5.34674035      12.43147660       2.26991313       36       0.00017298       0.00000166      -0.00023697
I       12.31113289      21.83863458       6.82308761       37       0.00005546      -0.00044120      -0.00037540
I       10.97002529      17.69026310       3.33927641       38      -0.00000036       0.00038315       0.00018229
I        6.68880878      16.57661856       5.75618406       39      -0.00034941      -0.00015067      -0.00007644
Cs      22.94722877       6.90557245       5.88184169       40      -0.00009848      -0.00015985       0.00008629
Cs      12.17504568       4.37703643      -1.91818591       41       0.00020520      -0.00006421      -0.00035766
K       13.84514615       1.95932569       3.05493810       42       0.00021987       0.00018172       0.00046700
In       4.76790627      14.69079660      -4.59382130       43       0.00016138       0.00028650       0.00013815
I       14.85226353      17.24128365      -2.93508405       44      -0.00028121       0.00040719       0.00036382
I       13.78446432       8.81387862       1.93632870       45      -0.00010231      -0.00033974       0.00026525
I       14.07995496       0.93520078      -0.29613416       46      -0.00033401      -0.00010600      -0.00010505
I       21.04331659      10.34374649       4.25997669       47      -0.00019664       0.00018381       0.00004222
I       -1.64477767       6.24542547       0.11239940       48      -0.00017401      -0.00012730       0.00003943
I       15.42067064       5.08312936       3.18696738       49       0.00030039       0.00022848      -0.00003578
Cs      28.13135156      10.98686583      11.25880242       50       0.00007779       0.00025083       0.00028589
Cs      17.36060625       8.45754155       3.45587621       51      -0.00017555       0.00017659       0.00016785
K       19.03120451       6.04190250       8.43086722       52      -0.00018980       0.00013121       0.00031231
In       9.95297110      18.77253856       0.78294420       53       0.00007281       0.00012507      -0.00007674
I       20.03707732      21.32370335       2.44359536       54       0.00011484      -0.00048595      -0.00021583
I       18.96859663      12.89448949       7.31548419       55       0.00033633      -0.00039817      -0.00030425
I       19.26430862       5.01729489       5.07904820       56      -0.00011080       0.00052121       0.00020150
I       26.22691554      14.42764543       9.63694982       57      -0.00009499      -0.00007671      -0.00000990
I        3.54204606      10.32641657       5.48851990       58      -0.00076159      -0.00015556       0.00002292
I       20.60855824       9.16499119       8.56340849       59      -0.00052603      -0.00002127      -0.00004948
Cs      19.70423679      14.29093831       3.40237961       60      -0.00024501       0.00016869       0.00006268
Cs       8.93357201      11.76243609      -4.40155905       61       0.00037418       0.00019635      -0.00006314
K       10.60233813       9.34758447       0.57632965       62       0.00022127       0.00001908      -0.00045038
In       8.01042283       7.30610257      -2.11264184       63       0.00001364      -0.00013533      -0.00009270
I       18.09272515       9.85636386      -0.45181342       64       0.00009628      -0.00010734      -0.00019981
I       10.54196672      16.19781325      -0.54477574       65      -0.00004492       0.00012414       0.00010754
I       10.83657108       8.32359599      -2.77584656       66      -0.00014336      -0.00014277       0.00013830
I       17.80135243      17.73066762       1.77737767       67      -0.00019318       0.00024815       0.00087574
I       -4.88580436      13.63048746      -2.37011832       68       0.00017060       0.00047058       0.00022294
I       12.17863965      12.47126016       0.70874004       69      -0.00025199      -0.00027622      -0.00002598
Cs      24.88729519      18.37522717       8.78006932       70       0.00024757      -0.00027639      -0.00014044
Cs      14.11766576      15.84582723       0.97704453       71       0.00026642      -0.00003592      -0.00042853
K       15.78783664      13.42878946       5.95338726       72      -0.00016746      -0.00003203      -0.00018714
In      13.19538280      11.38837602       3.26473453       73      -0.00006734      -0.00027048      -0.00007342
I       23.27750993      13.93726600       4.92660829       74      -0.00003324      -0.00034958      -0.00025246
I       15.72655971      20.27923047       4.83390482       75      -0.00007154       0.00024298       0.00012917
I       16.02099098      12.40640296       2.60098253       76      -0.00000429      -0.00007442       0.00011233
I       22.98705024      21.81209950       7.15417163       77      -0.00038245      -0.00012532       0.00004977
I        0.29913635      17.71235402       3.00705205       78      -0.00011645       0.00021188       0.00019206
I       17.36483476      16.55154346       6.08429404       79      -0.00014280       0.00021094       0.00034214
