10
Lattice="9.932668571456624 1.0388652267394498 -0.7674265026434808 -5.718801795614595 5.812568633097386 0.2946643750987198 2.083778734333633 6.383623119272553 7.553320532519862" Properties=species:S:1:pos:R:3:spacegroup_kinds:I:1:forces:R:3 spacegroup="P 1" unit_cell=conventional occupancy="_JSON {\"0\": {\"Cs\": 1.0}, \"1\": {\"Cs\": 1.0}, \"2\": {\"K\": 1.0}, \"3\": {\"In\": 1.0}, \"4\": {\"I\": 1.0}, \"5\": {\"I\": 1.0}, \"6\": {\"I\": 1.0}, \"7\": {\"I\": 1.0}, \"8\": {\"I\": 1.0}, \"9\": {\"I\": 1.0}}" energy=-25.44852224880519 free_energy=-25.44852224880519 stress="-1.5173516417142047e-06 1.4187319121513447e-05 -6.396422400346158e-06 1.4187319121513447e-05 2.649424562826648e-06 1.543400545360867e-06 -6.396422400346158e-06 1.543400545360867e-06 -4.695630250231002e-06" pbc="T T T"
Cs       4.31926171       2.28834161       1.39271639        0      -0.00012841       0.00068759      -0.00012909
Cs       0.48555646      10.94885268       5.79810121        1      -0.00019058       0.00015327       0.00005136
K        0.29502524       3.19526970       3.83270058        2       0.00049275      -0.00017006      -0.00003008
In       9.18643318       1.04153383      -0.71135050        3      -0.00016165       0.00006642       0.00014986
I        7.98835134       3.40335710       0.58142284        4      -0.00003213       0.00061377      -0.00033502
I        6.74885741      10.87576122       5.84395556        5       0.00001755      -0.00040671       0.00030711
I        3.32482621       8.04928465       6.11913484        6      -0.00002187       0.00015634       0.00036319
I        1.48002138       5.19085476       1.07296171        7       0.00038061      -0.00050989      -0.00040843
I        1.25679691      -0.15977768       2.35459983        8      -0.00049847      -0.00020841      -0.00003143
I        9.26683591       7.58862377       4.54339460        9       0.00014218      -0.00038232       0.00006252
