10
Lattice="9.117637003207085 0.0 0.0 -5.813705589105851 6.132903861808859 0.0 1.724499429734476 6.280616482116799 5.264411030237305" Properties=species:S:1:pos:R:3 pbc="T T T"
Cs       3.37679027       2.14993387       0.01672604
Cs       0.11319316      10.43485402       5.24761107
K        0.86224971       3.14030824       2.63220552
In      -0.76922776       0.08563992       0.00002680
I       -1.93466937       2.95690712       1.05310664
I        5.42464596       9.62793567       4.21130944
I        1.49326216       6.71098020       4.21132580
I        1.99671100       5.87376472       1.05312300
I       -3.84457350       7.46120778       1.05311217
I        7.33456543       5.12358108       4.21131497
