40
Lattice="17.32685252810821 0.001041259246902364 -0.000122601982155521 0.0005796589197084225 9.152754549091906 0.000627172036344765 -8.495874170290958e-05 0.0008529732068488045 12.640490105357982" Properties=species:S:1:pos:R:3:spacegroup_kinds:I:1:forces:R:3 spacegroup="P 1" unit_cell=conventional occupancy="_JSON {\"0\": {\"Cs\": 1.0}, \"1\": {\"Cs\": 1.0}, \"2\": {\"Cs\": 1.0}, \"3\": {\"Cs\": 1.0}, \"4\": {\"Pb\": 1.0}, \"5\": {\"Pb\": 1.0}, \"6\": {\"Pb\": 1.0}, \"7\": {\"Pb\": 1.0}, \"8\": {\"I\": 1.0}, \"9\": {\"I\": 1.0}, \"10\": {\"I\": 1.0}, \"11\": {\"I\": 1.0}, \"12\": {\"I\": 1.0}, \"13\": {\"I\": 1.0}, \"14\": {\"I\": 1.0}, \"15\": {\"I\": 1.0}, \"16\": {\"I\": 1.0}, \"17\": {\"I\": 1.0}, \"18\": {\"I\": 1.0}, \"19\": {\"I\": 1.0}, \"20\": {\"Cs\": 1.0}, \"21\": {\"Cs\": 1.0}, \"22\": {\"Cs\": 1.0}, \"23\": {\"Cs\": 1.0}, \"24\": {\"Pb\": 1.0}, \"25\": {\"Pb\": 1.0}, \"26\": {\"Pb\": 1.0}, \"27\": {\"Pb\": 1.0}, \"28\": {\"I\": 1.0}, \"29\": {\"I\": 1.0}, \"30\": {\"I\": 1.0}, \"31\": {\"I\": 1.0}, \"32\": {\"I\": 1.0}, \"33\": {\"I\": 1.0}, \"34\": {\"I\": 1.0}, \"35\": {\"I\": 1.0}, \"36\": {\"I\": 1.0}, \"37\": {\"I\": 1.0}, \"38\": {\"I\": 1.0}, \"39\": {\"I\": 1.0}}" energy=-113.0160529807101 free_energy=-113.0160529807101 stress="9.789506907826766e-07 3.162973682308659e-06 -1.4484457280694617e-07 3.162973682308659e-06 -1.2791850691261427e-05 4.9258146232142685e-06 -1.4484457280694617e-07 4.9258146232142685e-06 1.3283029670347169e-05" pbc="T T T"
Cs       4.26484125       8.44168810       3.16190168        0      -0.00047082       0.00005456      -0.00002424
Cs       0.40529764       3.86484521       3.15920144        1      -0.00019266      -0.00000779       0.00014070
Cs       4.73682722       0.71263735       9.48133818        2      -0.00011149      -0.00005768       0.00002383
Cs       8.59591331       5.28909656       9.47923355        3       0.00000839       0.00012275       0.00016882
Pb       0.16973292      -0.00005070      -0.00017888        4      -0.00028653       0.00005477      -0.00007071
Pb       4.50169695       4.57683421       0.00037997        5      -0.00020336      -0.00017915       0.00020129
Pb       0.16767853       0.00042664       6.31990770        6      -0.00027006      -0.00005434       0.00016242
Pb       4.49953867       4.57721466       6.32080582        7       0.00021945       0.00006863      -0.00001415
I        1.84604300       6.39680821       0.52752085        8       0.00001690       0.00019080      -0.00035159
I        2.82502472       1.81987142       0.52647989        9       0.00035059      -0.00004779       0.00001130
I        8.09811520       0.08682352       3.15971338       10       0.00025084      -0.00008678       0.00058677
I        7.15743717       2.75829962      12.11343138       11      -0.00031856      -0.00036086       0.00042054
I        6.17778536       7.33322940      12.11468050       12      -0.00000858       0.00036531       0.00004513
I        5.23399533       4.66226852       3.16067995       13       0.00000646      -0.00001469       0.00012214
I        1.84349906       6.39632916       5.79377006       14       0.00000702       0.00030777       0.00011683
I        2.82263088       1.82134500       5.79463434       15       0.00047270      -0.00066283      -0.00042088
I        0.90250442       9.06750007       9.48092772       16       0.00013971      -0.00002138      -0.00056809
I        7.15483600       2.75683142       6.84695680       17       0.00022116      -0.00006270      -0.00007548
I        6.17540865       7.33375383       6.84704444       18       0.00017892       0.00028908      -0.00006718
I        3.76689776       4.49161809       9.48105208       19      -0.00001009       0.00010232      -0.00040746
Cs      12.92826751       8.44220873       3.16184038       20      -0.00047082       0.00005456      -0.00002424
Cs       9.06872390       3.86536584       3.15914014       21      -0.00019266      -0.00000779       0.00014070
Cs      13.40025349       0.71315798       9.48127688       22      -0.00011149      -0.00005768       0.00002383
Cs      17.25933958       5.28961718       9.47917225       23       0.00000839       0.00012275       0.00016882
Pb       8.83315919       0.00046993      -0.00024018       24      -0.00028653       0.00005477      -0.00007071
Pb      13.16512321       4.57735484       0.00031866       25      -0.00020336      -0.00017915       0.00020129
Pb       8.83110479       0.00094727       6.31984640       26      -0.00027006      -0.00005434       0.00016242
Pb      13.16296493       4.57773529       6.32074452       27       0.00021945       0.00006863      -0.00001415
I       10.50946927       6.39732884       0.52745955       28       0.00001690       0.00019080      -0.00035159
I       11.48845099       1.82039205       0.52641859       29       0.00035059      -0.00004779       0.00001130
I       16.76154146       0.08734415       3.15965208       30       0.00025084      -0.00008678       0.00058677
I       15.82086344       2.75882025      12.11337008       31      -0.00031856      -0.00036086       0.00042054
I       14.84121162       7.33375003      12.11461920       32      -0.00000858       0.00036531       0.00004513
I       13.89742159       4.66278915       3.16061865       33       0.00000646      -0.00001469       0.00012214
I       10.50692532       6.39684979       5.79370876       34       0.00000702       0.00030777       0.00011683
I       11.48605714       1.82186562       5.79457304       35       0.00047270      -0.00066283      -0.00042088
I        9.56593069       9.06802070       9.48086642       36       0.00013971      -0.00002138      -0.00056809
I       15.81826226       2.75735204       6.84689550       37       0.00022116      -0.00006270      -0.00007548
I       14.83883491       7.33427446       6.84698313       38       0.00017892       0.00028908      -0.00006718
I       12.43032402       4.49213872       9.48099078       39      -0.00001009       0.00010232      -0.00040746
