160
Lattice="18.81449234895404 0.0 0.0 -1.3656659392462367 15.18738117914288 0.0 0.11281929691055669 10.069463751924495 20.977535645709313" Properties=species:S:1:pos:R:3 pbc="T T T"
Cs       4.93998764       9.04085239       2.62219189
Cs       1.09206249       5.24436473       2.62219189
Cs       6.05895747       5.14657390       7.86657580
Cs       9.90699969       8.94377682       7.86657580
Pb       1.10904143       0.77975795      -0.00000430
Pb       5.47128322       4.57641910      -0.00001432
Pb       1.13724625       3.29712388       5.24438807
Pb       5.49948804       7.09378504       5.24439810
I        2.45464391       6.29588511       0.43571968
I        3.85882688       2.49901111       0.43605742
I        9.72714753       2.11015790       2.62219189
I        8.54432899       7.89190082      10.05259607
I        7.14015509      11.68871741      10.05293382
I        6.27570260       5.90663703       2.62219189
I        2.47815962       8.39473291       4.80866410
I        3.88234259       4.59785891       4.80832635
I        1.27173131      12.07799326       7.86657580
I        8.52081328       5.79305302       5.68055553
I        7.11663939       9.58986961       5.68021778
I        4.72320654       8.28078181       7.86657580
Cs       4.99639729      14.07558427      13.11095971
Cs       1.14847214      10.27909660      13.11095971
Cs       6.11536711      10.18130577      18.35534362
Cs       9.96340934      13.97850870      18.35534362
Pb       1.16545108       5.81448982      10.48876353
Pb       5.52769287       9.61115098      10.48875350
Pb       1.19365590       8.33185576      15.73315590
Pb       5.55589769      12.12851691      15.73316592
I        2.51105356      11.33061698      10.92448750
I        3.91523653       7.53374298      10.92482525
I        9.78355718       7.14488978      13.11095971
I        8.60073864      12.92663270      20.54136390
I        7.19656474      16.72344929      20.54170164
I        6.33211225      10.94136891      13.11095971
I        2.53456927      13.42946478      15.29743192
I        3.93875224       9.63259078      15.29709418
I        1.32814096      17.11272514      18.35534362
I        8.57722293      10.82778490      16.16932335
I        7.17304904      14.62460149      16.16898561
I        4.77961618      13.31551368      18.35534362
Cs       4.25715467      16.63454298       2.62219189
Cs       0.40922952      12.83805532       2.62219189
Cs       5.37612450      12.74026449       7.86657580
Cs       9.22416672      16.53746741       7.86657580
Pb       0.42620846       8.37344853      -0.00000430
Pb       4.78845025      12.17010969      -0.00001432
Pb       0.45441328      10.89081447       5.24438807
Pb       4.81665507      14.68747563       5.24439810
I        1.77181094      13.88957570       0.43571968
I        3.17599391      10.09270170       0.43605742
I        9.04431456       9.70384849       2.62219189
I        7.86149602      15.48559141      10.05259607
I        6.45732212      19.28240800      10.05293382
I        5.59286964      13.50032762       2.62219189
I        1.79532665      15.98842350       4.80866410
I        3.19950962      12.19154950       4.80832635
I        0.58889834      19.67168385       7.86657580
I        7.83798031      13.38674361       5.68055553
I        6.43380642      17.18356020       5.68021778
I        4.04037357      15.87447240       7.86657580
Cs       4.31356432      21.66927485      13.11095971
Cs       0.46563917      17.87278719      13.11095971
Cs       5.43253414      17.77499636      18.35534362
Cs       9.28057637      21.57219929      18.35534362
Pb       0.48261811      13.40818041      10.48876353
Pb       4.84485990      17.20484156      10.48875350
Pb       0.51082293      15.92554635      15.73315590
Pb       4.87306472      19.72220750      15.73316592
I        1.82822059      18.92430757      10.92448750
I        3.23240356      15.12743357      10.92482525
I        9.10072421      14.73858037      13.11095971
I        7.91790567      20.52032329      20.54136390
I        6.51373177      24.31713988      20.54170164
I        5.64927928      18.53505950      13.11095971
I        1.85173630      21.02315537      15.29743192
I        3.25591927      17.22628137      15.29709418
I        0.64530799      24.70641573      18.35534362
I        7.89438996      18.42147549      16.16932335
I        6.49021607      22.21829207      16.16898561
I        4.09678321      20.90920427      18.35534362
Cs      14.34723381       9.04085239       2.62219189
Cs      10.49930867       5.24436473       2.62219189
Cs      15.46620364       5.14657390       7.86657580
Cs      19.31424586       8.94377682       7.86657580
Pb      10.51628760       0.77975795      -0.00000430
Pb      14.87852939       4.57641910      -0.00001432
Pb      10.54449243       3.29712388       5.24438807
Pb      14.90673422       7.09378504       5.24439810
I       11.86189009       6.29588511       0.43571968
I       13.26607306       2.49901111       0.43605742
I       19.13439371       2.11015790       2.62219189
I       17.95157516       7.89190082      10.05259607
I       16.54740127      11.68871741      10.05293382
I       15.68294878       5.90663703       2.62219189
I       11.88540579       8.39473291       4.80866410
I       13.28958876       4.59785891       4.80832635
I       10.67897749      12.07799326       7.86657580
I       17.92805946       5.79305302       5.68055553
I       16.52388556       9.58986961       5.68021778
I       14.13045271       8.28078181       7.86657580
Cs      14.40364346      14.07558427      13.11095971
Cs      10.55571831      10.27909660      13.11095971
Cs      15.52261329      10.18130577      18.35534362
Cs      19.37065551      13.97850870      18.35534362
Pb      10.57269725       5.81448982      10.48876353
Pb      14.93493904       9.61115098      10.48875350
Pb      10.60090208       8.33185576      15.73315590
Pb      14.96314387      12.12851691      15.73316592
I       11.91829974      11.33061698      10.92448750
I       13.32248271       7.53374298      10.92482525
I       19.19080336       7.14488978      13.11095971
I       18.00798481      12.92663270      20.54136390
I       16.60381092      16.72344929      20.54170164
I       15.73935843      10.94136891      13.11095971
I       11.94181544      13.42946478      15.29743192
I       13.34599841       9.63259078      15.29709418
I       10.73538714      17.11272514      18.35534362
I       17.98446911      10.82778490      16.16932335
I       16.58029521      14.62460149      16.16898561
I       14.18686236      13.31551368      18.35534362
Cs      13.66440084      16.63454298       2.62219189
Cs       9.81647570      12.83805532       2.62219189
Cs      14.78337067      12.74026449       7.86657580
Cs      18.63141289      16.53746741       7.86657580
Pb       9.83345463       8.37344853      -0.00000430
Pb      14.19569642      12.17010969      -0.00001432
Pb       9.86165946      10.89081447       5.24438807
Pb      14.22390125      14.68747563       5.24439810
I       11.17905712      13.88957570       0.43571968
I       12.58324009      10.09270170       0.43605742
I       18.45156074       9.70384849       2.62219189
I       17.26874219      15.48559141      10.05259607
I       15.86456830      19.28240800      10.05293382
I       15.00011581      13.50032762       2.62219189
I       11.20257282      15.98842350       4.80866410
I       12.60675579      12.19154950       4.80832635
I        9.99614452      19.67168385       7.86657580
I       17.24522649      13.38674361       5.68055553
I       15.84105259      17.18356020       5.68021778
I       13.44761974      15.87447240       7.86657580
Cs      13.72081049      21.66927485      13.11095971
Cs       9.87288534      17.87278719      13.11095971
Cs      14.83978032      17.77499636      18.35534362
Cs      18.68782254      21.57219929      18.35534362
Pb       9.88986428      13.40818041      10.48876353
Pb      14.25210607      17.20484156      10.48875350
Pb       9.91806911      15.92554635      15.73315590
Pb      14.28031090      19.72220750      15.73316592
I       11.23546677      18.92430757      10.92448750
I       12.63964974      15.12743357      10.92482525
I       18.50797039      14.73858037      13.11095971
I       17.32515184      20.52032329      20.54136390
I       15.92097795      24.31713988      20.54170164
I       15.05652546      18.53505950      13.11095971
I       11.25898247      21.02315537      15.29743192
I       12.66316544      17.22628137      15.29709418
I       10.05255417      24.70641573      18.35534362
I       17.30163614      18.42147549      16.16932335
I       15.89746224      22.21829207      16.16898561
I       13.50402939      20.90920427      18.35534362
