20
Lattice="18.590052099530816 0.009887160233847222 0.40108254027333096 -4.667833483410992 8.015260931146381 0.6700069182163609 -0.19131839881417348 -0.8441379886967054 8.7860577407739" Properties=species:S:1:pos:R:3:spacegroup_kinds:I:1:forces:R:3 spacegroup="P 1" unit_cell=conventional occupancy="_JSON {\"0\": {\"Cs\": 1.0}, \"1\": {\"Cs\": 1.0}, \"2\": {\"K\": 1.0}, \"3\": {\"In\": 1.0}, \"4\": {\"I\": 1.0}, \"5\": {\"I\": 1.0}, \"6\": {\"I\": 1.0}, \"7\": {\"I\": 1.0}, \"8\": {\"I\": 1.0}, \"9\": {\"I\": 1.0}, \"10\": {\"Cs\": 1.0}, \"11\": {\"Cs\": 1.0}, \"12\": {\"K\": 1.0}, \"13\": {\"In\": 1.0}, \"14\": {\"I\": 1.0}, \"15\": {\"I\": 1.0}, \"16\": {\"I\": 1.0}, \"17\": {\"I\": 1.0}, \"18\": {\"I\": 1.0}, \"19\": {\"I\": 1.0}}" energy=-51.58763112643389 free_energy=-51.58763112643389 stress="-7.203094289339476e-06 9.914764884372126e-07 -4.436790320269199e-06 9.914764884372126e-07 5.25245041041263e-06 1.006999283961359e-06 -4.436790320269199e-06 1.006999283961359e-06 -8.903346668806212e-07" pbc="T T T"
Cs       0.55993045       4.50037380       9.31841271        0       0.00010798       0.00049094      -0.00021945
Cs       5.21455007       1.83187185       9.15859000        1      -0.00030676      -0.00005391      -0.00048602
K        0.66997350      -0.42052657       4.40938673        2      -0.00031177      -0.00050415       0.00024975
In       0.76466617       0.00012458       0.01605520        3       0.00018261       0.00010913       0.00021037
I        1.94081606       1.93357364       2.00216830        4       0.00050711      -0.00019658       0.00024052
I        4.02482589       5.24340532       7.68647636        5      -0.00051765      -0.00007620       0.00034133
I        3.04937299      -0.67518593       7.09752788        6       0.00026396       0.00041388       0.00032849
I        7.58438182      -0.16368377       1.92223719        7      -0.00038859      -0.00009492      -0.00046927
I       -2.71852507       5.74463111       2.26913022        8       0.00048166       0.00026586      -0.00038488
I       -0.61139292       1.42737127       7.22002409        9      -0.00001859      -0.00035415       0.00018905
Cs       9.85495649       4.50531738       9.51895398       10       0.00010800       0.00049092      -0.00021945
Cs      14.50957613       1.83681543       9.35913127       11      -0.00030678      -0.00005389      -0.00048602
K        9.96499954      -0.41558299       4.60992801       12      -0.00031176      -0.00050412       0.00024970
In      10.05969221       0.00506814       0.21659642       13       0.00018269       0.00010927       0.00021067
I       11.23584212       1.93851723       2.20270959       14       0.00050706      -0.00019667       0.00024042
I       13.31985193       5.24834889       7.88701761       15      -0.00051760      -0.00007611       0.00034143
I       12.34439904      -0.67024235       7.29806916       16       0.00026398       0.00041388       0.00032846
I       16.87940787      -0.15874019       2.12277846       17      -0.00038861      -0.00009492      -0.00046924
I        6.57650098       5.74957469       2.46967150       18       0.00048164       0.00026587      -0.00038489
I        8.68363313       1.43231485       7.42056536       19      -0.00001861      -0.00035413       0.00018903
