20
Lattice="17.88961293316799 0.0 0.0 -4.492594273501551 7.781401539497678 0.0 -0.3443536169921076 -1.5036996121694262 7.514485272513156" Properties=species:S:1:pos:R:3 pbc="T T T"
Cs       0.90666762       5.18760190      -0.00002748
Cs       5.38580120       2.59380139      -0.00002748
K        0.74795644      -0.75184893       3.75724656
In       0.92013884       0.00000088       0.00001745
I        2.01861751       1.73944657       1.50341364
I        3.92952040       4.53825711       6.01109923
I        2.06987156      -1.20285908       6.01108543
I        6.53058129      -0.30084053       1.50339984
I       -2.46340142       5.44028751       1.50340685
I       -0.53329285       0.83743989       6.01109243
Cs       9.85147408       5.18760190      -0.00002748
Cs      14.33060766       2.59380139      -0.00002748
K        9.69276291      -0.75184893       3.75724656
In       9.86494531       0.00000088       0.00001745
I       10.96342398       1.73944657       1.50341364
I       12.87432687       4.53825711       6.01109923
I       11.01467802      -1.20285908       6.01108543
I       15.47538776      -0.30084053       1.50339984
I        6.48140504       5.44028751       1.50340685
I        8.41151362       0.83743989       6.01109243
