10
Lattice="12.309298174270353 -1.339623701082294 3.2474843277996097 0.3038687835504843 6.229227494075452 1.4090493865009126 -1.8232577238798564 -1.2715924860474048 6.01264124639001" Properties=species:S:1:pos:R:3:spacegroup_kinds:I:1:forces:R:3 spacegroup="P 1" unit_cell=conventional occupancy="_JSON {\"0\": {\"Cs\": 1.0}, \"1\": {\"Pb\": 1.0}, \"2\": {\"I\": 1.0}, \"3\": {\"I\": 1.0}, \"4\": {\"I\": 1.0}, \"5\": {\"Cs\": 1.0}, \"6\": {\"Pb\": 1.0}, \"7\": {\"I\": 1.0}, \"8\": {\"I\": 1.0}, \"9\": {\"I\": 1.0}}" energy=-27.968830450526433 free_energy=-27.968830450526433 stress="1.9121015762632175e-05 -5.556720927108128e-06 1.0941311397115536e-05 -5.556720927108128e-06 -9.4149019811991e-06 -1.007328032099517e-05 1.0941311397115536e-05 -1.007328032099517e-05 -8.935992124466748e-06" pbc="T T T"
Cs       1.79944822       2.30090904       4.75003092        0       0.00024435      -0.00038681      -0.00007819
Pb      -0.24307533       0.19766048      -0.02837605        1      -0.00006536       0.00007833       0.00033097
I       11.29629750      -1.78478415       6.21414604        2      -0.00000461       0.00015048       0.00002918
I        2.90022317      -0.11196011       0.65335584        3      -0.00023334       0.00026132       0.00012444
I       -0.04133954       3.33574585       0.55994274        4       0.00004143      -0.00010121      -0.00041217
Cs       7.95409718       1.63109737       6.37377301        5       0.00024667      -0.00038765      -0.00007738
Pb       5.91155887      -0.47214051       1.59537076        6      -0.00000703       0.00005925       0.00032576
I        5.14164353      -1.11497271       4.59038717        7      -0.00001286       0.00014384       0.00005139
I        9.05487523      -0.78177215       2.27710155        8      -0.00024895       0.00026319       0.00011793
I        6.11331045       2.66592575       2.18368074        9       0.00003969      -0.00008074      -0.00041192
