20
Lattice="12.638430996668298 0.6855661413346021 1.729938711843172 -0.2597371408349883 12.414900426002891 -2.995303793552952 -0.9184598428268171 1.466675566567884 6.148024480951898" Properties=species:S:1:pos:R:3:spacegroup_kinds:I:1:forces:R:3 spacegroup="P 1" unit_cell=conventional occupancy="_JSON {\"0\": {\"Cs\": 1.0}, \"1\": {\"Pb\": 1.0}, \"2\": {\"I\": 1.0}, \"3\": {\"I\": 1.0}, \"4\": {\"I\": 1.0}, \"5\": {\"Cs\": 1.0}, \"6\": {\"Pb\": 1.0}, \"7\": {\"I\": 1.0}, \"8\": {\"I\": 1.0}, \"9\": {\"I\": 1.0}, \"10\": {\"Cs\": 1.0}, \"11\": {\"Pb\": 1.0}, \"12\": {\"I\": 1.0}, \"13\": {\"I\": 1.0}, \"14\": {\"I\": 1.0}, \"15\": {\"Cs\": 1.0}, \"16\": {\"Pb\": 1.0}, \"17\": {\"I\": 1.0}, \"18\": {\"I\": 1.0}, \"19\": {\"I\": 1.0}}" energy=-55.922962447068315 free_energy=-55.922962447068315 stress="4.170815519336409e-06 7.270903425710772e-06 8.317606548260543e-06 7.270903425710772e-06 -2.432205304093439e-07 9.304796032149627e-06 8.317606548260543e-06 9.304796032149627e-06 -5.473256493150124e-06" pbc="T T T"
Cs       2.63295378       4.00714220       2.75847743        0       0.00003516      -0.00004236       0.00010274
Pb      -0.25809630      12.41534280      -2.99515596        1      -0.00043189      -0.00006868       0.00000038
I       -0.45902770       0.73379611       3.07390008        2       0.00037390       0.00009919      -0.00010180
I        3.16073797       0.17158369       0.43230382        3      -0.00038402       0.00010288      -0.00009033
I       -0.06541377       3.10394091      -0.74948577        4       0.00040685      -0.00009101       0.00008901
Cs       2.50308521      10.21459241       1.26082553        5       0.00003515      -0.00004236       0.00010274
Pb      -0.12822772       6.20789260      -1.49750407        6      -0.00043189      -0.00006872       0.00000039
I       -0.58889627       6.94124633       1.57624819        7       0.00037390       0.00009919      -0.00010180
I        3.03086940       6.37903390      -1.06534808        8      -0.00038402       0.00010288      -0.00009033
I       -0.19528234       9.31139112      -2.24713766        9       0.00040685      -0.00009101       0.00008901
Cs       8.95216928       4.34992527       3.62344678       10       0.00003515      -0.00004236       0.00010274
Pb       6.06111920      12.75812587      -2.13018660       11      -0.00043188      -0.00006867       0.00000037
I        5.86018779       1.07657918       3.93886944       12       0.00037390       0.00009918      -0.00010179
I        9.47995347       0.51436676       1.29727318       13      -0.00038402       0.00010288      -0.00009033
I        6.25380173       3.44672398       0.11548359       14       0.00040685      -0.00009102       0.00008901
Cs       8.82230071      10.55737548       2.12579488       15       0.00003516      -0.00004236       0.00010274
Pb       6.19098777       6.55067567      -0.63253471       16      -0.00043187      -0.00006873       0.00000040
I        5.73031922       7.28402940       2.44121754       17       0.00037390       0.00009919      -0.00010180
I        9.35008490       6.72181697      -0.20037872       18      -0.00038402       0.00010288      -0.00009033
I        6.12393316       9.65417419      -1.38216831       19       0.00040685      -0.00009100       0.00008901
