10
Lattice="15.514054338138033 -3.6499820985188034 -0.15724415542332523 -0.16459728552013872 6.950743661246427 -0.9524285170629937 8.323179171339762 -1.191917131067466 5.847542812325736" Properties=species:S:1:pos:R:3:spacegroup_kinds:I:1:forces:R:3 spacegroup="P 1" unit_cell=conventional occupancy="_JSON {\"0\": {\"Cs\": 1.0}, \"1\": {\"Cs\": 1.0}, \"2\": {\"K\": 1.0}, \"3\": {\"In\": 1.0}, \"4\": {\"I\": 1.0}, \"5\": {\"I\": 1.0}, \"6\": {\"I\": 1.0}, \"7\": {\"I\": 1.0}, \"8\": {\"I\": 1.0}, \"9\": {\"I\": 1.0}}" energy=-25.511099701852768 free_energy=-25.511099701852768 stress="-1.361518565701956e-06 4.138507902070868e-07 1.1514715123934963e-06 4.138507902070868e-07 2.776347506405698e-06 -7.724447890353328e-06 1.1514715123934963e-06 -7.724447890353328e-06 2.0147568316911306e-06" pbc="T T T"
Cs       6.29910278      -0.42667923       0.64638318        0      -0.00004335      -0.00019790       0.00008713
Cs      17.52836190       1.72175249       3.49068956        1      -0.00018893       0.00001940      -0.00001600
K       11.93765052       0.55282823       2.18359513        2      -0.00004100      -0.00020652      -0.00004919
In      15.40812821      -3.22278831       0.09162552        3       0.00003686      -0.00008321      -0.00061715
I       13.25785937      -4.93203154      -0.11037430        4      -0.00022357       0.00035490      -0.00005972
I       10.37835254       4.72313553       5.51200195        5       0.00008405       0.00014594      -0.00049375
I       15.00605798      -1.52211062       2.23416135        6       0.00036952       0.00043391       0.00056778
I        8.36184141       7.63151005       2.80220725        7       0.00012815       0.00053231       0.00033880
I       13.91363608       1.67081944       4.76184269        8       0.00031835      -0.00042086       0.00016072
I        9.94992341      -0.35662007      -0.44896351        9      -0.00044007      -0.00057797       0.00008139
