40
Lattice="17.21350753493203 1.1075571921518022 1.9759122234616504 -0.7678843190908199 9.025975430078159 0.5917000368533099 -4.593201696636163 -1.1929405015253651 13.357986839427927" Properties=species:S:1:pos:R:3:spacegroup_kinds:I:1:forces:R:3 spacegroup="P 1" unit_cell=conventional occupancy="_JSON {\"0\": {\"Cs\": 1.0}, \"1\": {\"Cs\": 1.0}, \"2\": {\"Cs\": 1.0}, \"3\": {\"Cs\": 1.0}, \"4\": {\"Pb\": 1.0}, \"5\": {\"Pb\": 1.0}, \"6\": {\"Pb\": 1.0}, \"7\": {\"Pb\": 1.0}, \"8\": {\"I\": 1.0}, \"9\": {\"I\": 1.0}, \"10\": {\"I\": 1.0}, \"11\": {\"I\": 1.0}, \"12\": {\"I\": 1.0}, \"13\": {\"I\": 1.0}, \"14\": {\"I\": 1.0}, \"15\": {\"I\": 1.0}, \"16\": {\"I\": 1.0}, \"17\": {\"I\": 1.0}, \"18\": {\"I\": 1.0}, \"19\": {\"I\": 1.0}, \"20\": {\"Cs\": 1.0}, \"21\": {\"Cs\": 1.0}, \"22\": {\"Cs\": 1.0}, \"23\": {\"Cs\": 1.0}, \"24\": {\"Pb\": 1.0}, \"25\": {\"Pb\": 1.0}, \"26\": {\"Pb\": 1.0}, \"27\": {\"Pb\": 1.0}, \"28\": {\"I\": 1.0}, \"29\": {\"I\": 1.0}, \"30\": {\"I\": 1.0}, \"31\": {\"I\": 1.0}, \"32\": {\"I\": 1.0}, \"33\": {\"I\": 1.0}, \"34\": {\"I\": 1.0}, \"35\": {\"I\": 1.0}, \"36\": {\"I\": 1.0}, \"37\": {\"I\": 1.0}, \"38\": {\"I\": 1.0}, \"39\": {\"I\": 1.0}}" energy=-111.62294445058727 free_energy=-111.62294445058727 stress="-7.154214589087157e-06 -5.777086459553264e-06 -6.893110186646098e-08 -5.777086459553264e-06 5.027832766716833e-06 7.146678385656045e-07 -6.893110186646098e-08 7.146678385656045e-07 3.289007566125698e-06" pbc="T T T"
Cs       2.51690972       8.69643041       5.16515444        0       0.00049841      -0.00010389       0.00016941
Cs      -0.87974864       4.01879292       3.50216644        1      -0.00024978       0.00078092      -0.00013881
Cs       2.98649974       0.67569338      10.83695556        2       0.00014040       0.00027288      -0.00016929
Cs       6.34517938       5.32713575      10.98924721        3       0.00010496       0.00031163       0.00007056
Pb      -0.86624386      -0.09504372      13.34034409        4      -0.00028209       0.00006094       0.00008381
Pb       3.65718196       5.60724085       1.30959147        5       0.00003121      -0.00020998       0.00002115
Pb      -1.39289826      -0.06892858       6.63410966        6      -0.00043008      -0.00021364      -0.00001161
Pb       2.43431625       4.68406838       7.74688164        7      -0.00017654      -0.00053239       0.00001675
I        1.13753981       7.68675685       1.61929123        8       0.00002472      -0.00020239      -0.00010665
I        5.88420591       3.31587780       0.92800010        9      -0.00016772      -0.00055315      -0.00004702
I        6.98502350       0.72330203       4.63237333       10      -0.00005370       0.00024110      -0.00028341
I        5.52131359       2.94753796      14.30176183       11      -0.00037779       0.00010415      -0.00006947
I        0.89525444       7.01674606      14.26274160       12      -0.00042165       0.00020466       0.00015201
I        3.68138238       5.01272724       4.31701955       13       0.00001261       0.00013325       0.00009235
I       -0.24050054       6.29093453       6.78876193       14      -0.00007647       0.00023651      -0.00002884
I        1.05020073       2.02908599       6.56544262       15      -0.00040248      -0.00013229      -0.00005100
I       -0.92176024      -0.37155712      10.29130383       16       0.00042521       0.00008720      -0.00002306
I        5.14795207       2.90339638       8.29605710       17       0.00001092      -0.00012750       0.00015419
I        3.90123243       7.47590304       8.68252723       18      -0.00013031      -0.00013124       0.00014593
I        1.55049609       4.29786928      10.60268674       19       0.00035216      -0.00032100      -0.00000547
Cs      11.12389264       9.25029788       6.15321486       20       0.00008613      -0.00029562       0.00011701
Cs       7.72706329       4.57255012       4.49012506       21      -0.00024899       0.00084696      -0.00013532
Cs      11.59326382       1.22946301      11.82482062       22       0.00011798       0.00030159      -0.00008276
Cs      -2.26156254       4.77336357      10.00131008       23       0.00001581       0.00035747       0.00005785
Pb       7.74040888       0.45872319      14.32841491       24      -0.00006552       0.00008487      -0.00014986
Pb      12.26393946       6.16101780       2.29753987       25       0.00014059      -0.00019368       0.00008850
Pb       7.21368365       0.48475546       7.62216775       26       0.00006260      -0.00000422      -0.00021407
Pb      11.04087432       5.23766845       8.73474065       27       0.00022736      -0.00011476       0.00004015
I        9.74422644       8.24061935       2.60706934       28      -0.00000839      -0.00062769       0.00015571
I       14.49094707       3.86955463       1.91586503       29      -0.00014495      -0.00018632       0.00012641
I       -1.62204714       0.16940343       3.64433203       30       0.00046535       0.00046942      -0.00025972
I       14.12788317       3.50136361      15.28967357       31       0.00014502      -0.00005923       0.00006237
I        9.50187983       7.57055328      15.25061856       32      -0.00008715       0.00004227       0.00023353
I       12.28807959       5.56647530       5.30496578       33       0.00001775       0.00014726       0.00007636
I        8.36609263       6.84475788       7.77667809       34       0.00016890       0.00001937       0.00003404
I        9.65679977       2.58275291       7.55329744       35      -0.00018985       0.00011040       0.00014022
I        7.68508167       0.18222734      11.27936419       36       0.00029854       0.00007099      -0.00021673
I       13.75480992       3.45721419       9.28415885       37      -0.00010511      -0.00017680      -0.00006407
I       12.50787774       8.02974243       9.67062022       38       0.00013987      -0.00027324      -0.00012786
I       10.15734148       4.85170681      11.59059357       39       0.00013206      -0.00042481       0.00014668
