20
Lattice="12.419615258740501 2.473888739505728 2.0208275742754207 -2.2413955638154492 12.497485543027933 -1.5206275161556433 -1.041352985275614 0.5776679970483387 6.2871540638281775" Properties=species:S:1:pos:R:3:spacegroup_kinds:I:1:forces:R:3 spacegroup="P 1" unit_cell=conventional occupancy="_JSON {\"0\": {\"Cs\": 1.0}, \"1\": {\"Pb\": 1.0}, \"2\": {\"I\": 1.0}, \"3\": {\"I\": 1.0}, \"4\": {\"I\": 1.0}, \"5\": {\"Cs\": 1.0}, \"6\": {\"Pb\": 1.0}, \"7\": {\"I\": 1.0}, \"8\": {\"I\": 1.0}, \"9\": {\"I\": 1.0}, \"10\": {\"Cs\": 1.0}, \"11\": {\"Pb\": 1.0}, \"12\": {\"I\": 1.0}, \"13\": {\"I\": 1.0}, \"14\": {\"I\": 1.0}, \"15\": {\"Cs\": 1.0}, \"16\": {\"Pb\": 1.0}, \"17\": {\"I\": 1.0}, \"18\": {\"I\": 1.0}, \"19\": {\"I\": 1.0}}" energy=-55.93767634139344 free_energy=-55.93767634139344 stress="-4.970635757878797e-06 3.3530009692303455e-06 1.3028096916461525e-06 3.3530009692303455e-06 2.514031046647079e-06 -1.5883306049240835e-06 1.3028096916461525e-06 -1.5883306049240835e-06 -6.27317423802715e-06" pbc="T T T"
Cs       1.45221010       4.24638307       2.96507253        0       0.00007758      -0.00005142       0.00000863
Pb      -0.28259211       0.29459617      -0.07306366        1      -0.00007979      -0.00032119      -0.00010981
I       11.75251877       3.08557801       5.13737710        2       0.00020256       0.00029787       0.00001450
I        2.84881585       0.93434263       0.56821575        3      -0.00004583      -0.00008139      -0.00006563
I       -0.71083781       3.44567480      -0.42474415        4      -0.00015501       0.00015622       0.00015223
Cs       0.33151232      10.49512584       2.20475877        5       0.00007760      -0.00005142       0.00000863
Pb      -1.40328987       6.54333906      -0.83337747        6      -0.00007964      -0.00032168      -0.00010972
I       10.63182100       9.33432077       4.37706336        7       0.00020254       0.00029791       0.00001446
I        1.72811793       7.18308532      -0.19209808        8      -0.00004511      -0.00008119      -0.00006552
I       -1.83153559       9.69441758      -1.18505791        9      -0.00015500       0.00015626       0.00015222
Cs       7.66201774       5.48332745       3.97548632       10       0.00007755      -0.00005145       0.00000862
Pb       5.92721556       1.53154057       0.93735017       11      -0.00007985      -0.00032130      -0.00010992
I        5.54271113       1.84863363       4.12696326       12       0.00020256       0.00029789       0.00001460
I        9.05862331       2.17128692       1.57862946       13      -0.00004487      -0.00008118      -0.00006548
I        5.49896981       4.68261914       0.58566965       14      -0.00015502       0.00015651       0.00015219
Cs       6.54131996      11.73207022       3.21517257       15       0.00007754      -0.00005141       0.00000862
Pb       4.80651782       7.78028342       0.17703639       16      -0.00007999      -0.00032165      -0.00010985
I        4.42201336       8.09737640       3.36664954       17       0.00020255       0.00029791       0.00001454
I        7.93792561       8.42002972       0.81831574       18      -0.00004542      -0.00008126      -0.00006557
I        4.37827204      10.93136199      -0.17464414       19      -0.00015493       0.00015596       0.00015226
