20
Lattice="21.01914321130194 0.0 0.0 1.1249336712296254 7.479435413169056 0.0 3.144692107607444 1.3896655412991423 7.811812247606253" Properties=species:S:1:pos:R:3 pbc="T T T"
Cs       3.69463711       2.21722668       1.95296401
Cs      11.08455991       6.65187304       5.85884743
K        7.38959838       4.43454974       3.90590562
In       0.00000023       0.00000099       0.00000041
I        6.72889658       0.52627103       3.23499442
I        8.05030027       8.34282761       4.57681683
I       12.34587748       4.21326916       1.95572012
I        2.43331748       4.65582940       5.85609089
I        4.10209281       5.93824242       1.67495305
I       10.67710525       2.93086028       6.13686006
Cs      14.20420872       2.21722668       1.95296401
Cs      21.59413152       6.65187304       5.85884743
K       17.89916998       4.43454974       3.90590562
In      10.50957184       0.00000099       0.00000041
I       17.23846819       0.52627103       3.23499442
I       18.55987187       8.34282761       4.57681683
I       22.85544909       4.21326916       1.95572012
I       12.94288909       4.65582940       5.85609089
I       14.61166442       5.93824242       1.67495305
I       21.18667686       2.93086028       6.13686006
