20
Lattice="17.115050157282703 3.342443316169873 0.8473393280213866 2.294048133514139 8.375706246310452 0.7067931603353953 3.0934718026315458 2.5601269197789986 7.819760598593424" Properties=species:S:1:pos:R:3:spacegroup_kinds:I:1:forces:R:3 spacegroup="P 1" unit_cell=conventional occupancy="_JSON {\"0\": {\"Cs\": 1.0}, \"1\": {\"Cs\": 1.0}, \"2\": {\"K\": 1.0}, \"3\": {\"In\": 1.0}, \"4\": {\"I\": 1.0}, \"5\": {\"I\": 1.0}, \"6\": {\"I\": 1.0}, \"7\": {\"I\": 1.0}, \"8\": {\"I\": 1.0}, \"9\": {\"I\": 1.0}, \"10\": {\"Cs\": 1.0}, \"11\": {\"Cs\": 1.0}, \"12\": {\"K\": 1.0}, \"13\": {\"In\": 1.0}, \"14\": {\"I\": 1.0}, \"15\": {\"I\": 1.0}, \"16\": {\"I\": 1.0}, \"17\": {\"I\": 1.0}, \"18\": {\"I\": 1.0}, \"19\": {\"I\": 1.0}}" energy=-51.29789345179795 free_energy=-51.29789345179795 stress="-3.463826069443282e-06 -3.699321638716991e-07 5.48540498013473e-07 -3.699321638716991e-07 -2.9529453832492836e-06 -1.7607668518002514e-07 5.48540498013473e-07 -1.7607668518002514e-07 -2.641921250514588e-06" pbc="T T T"
Cs       3.37243435       3.02970320       2.14556772        0       0.00001049       0.00001997      -0.00003512
Cs      10.57246516       9.57683340       6.80484373        1       0.00011404       0.00010557      -0.00001743
K        6.97237931       6.30357445       4.47457569        2       0.00001851       0.00002296       0.00035577
In      17.11487379       3.34259288       0.84728827        3       0.00017038      -0.00020324       0.00004849
I       10.32865366      11.73350059       3.53152711        4       0.00010598      -0.00000479      -0.00012915
I        3.61625437       0.87347122       5.41901180        5      -0.00013208      -0.00018201      -0.00030282
I        9.48239681       7.76667838       2.45767130        6      -0.00036551       0.00004229      -0.00016827
I       21.57831002       8.18267261       7.34016722        7      -0.00007686       0.00041557      -0.00006857
I        4.87892981       7.48071596       1.87963331        8       0.00027607      -0.00005615       0.00021450
I        9.06609380       5.12693931       7.07045219        9       0.00003910      -0.00027888      -0.00000301
Cs      11.92998478       4.70097998       2.56926378       10       0.00001782      -0.00001608      -0.00001057
Cs      19.12998294      11.24800744       7.22850398       11       0.00013946       0.00009738      -0.00003945
K       15.52990245       7.97480011       4.89825468       12       0.00006685      -0.00003239       0.00029883
In       8.55740232       1.67135193       0.42362429       13       0.00012371       0.00001120      -0.00005194
I       18.88606863      13.40457838       3.95517824       14       0.00010243       0.00026004       0.00008321
I       12.17381453       2.54460139       5.84266127       15      -0.00017392       0.00001945      -0.00017811
I        0.92483596       6.09545639       2.03399021       16      -0.00039078      -0.00010301      -0.00017390
I       13.02080523       6.51152568       6.91644069       17      -0.00020953       0.00018804       0.00001915
I       13.43652322       9.15200112       2.30322193       18       0.00024652      -0.00006512       0.00027994
I       17.62358891       6.79815908       7.49416405       19      -0.00008269      -0.00024079      -0.00012155
