20
Lattice="18.443271913073325 0.04567971681216457 0.08948174509242754 4.650824160503214 7.983097360162133 0.04349783923286202 4.648533628836157 2.6744513336181273 6.9703377825744965" Properties=species:S:1:pos:R:3:spacegroup_kinds:I:1:forces:R:3 spacegroup="P 1" unit_cell=conventional occupancy="_JSON {\"0\": {\"Cs\": 1.0}, \"1\": {\"Cs\": 1.0}, \"2\": {\"K\": 1.0}, \"3\": {\"In\": 1.0}, \"4\": {\"I\": 1.0}, \"5\": {\"I\": 1.0}, \"6\": {\"I\": 1.0}, \"7\": {\"I\": 1.0}, \"8\": {\"I\": 1.0}, \"9\": {\"I\": 1.0}, \"10\": {\"Cs\": 1.0}, \"11\": {\"Cs\": 1.0}, \"12\": {\"K\": 1.0}, \"13\": {\"In\": 1.0}, \"14\": {\"I\": 1.0}, \"15\": {\"I\": 1.0}, \"16\": {\"I\": 1.0}, \"17\": {\"I\": 1.0}, \"18\": {\"I\": 1.0}, \"19\": {\"I\": 1.0}}" energy=-51.29788510175553 free_energy=-51.29788510175553 stress="-9.948505020573285e-06 -6.911092165674724e-06 7.05439570392387e-06 -6.911092165674724e-06 5.762378448387514e-06 1.3929027284166473e-05 7.05439570392387e-06 1.3929027284166473e-05 4.763312685126048e-06" pbc="T T T"
Cs       4.63397539       2.68932282       1.95478026        0      -0.00021115       0.00034461      -0.00010778
Cs      13.88741715       7.99125823       5.10386979        1      -0.00002152      -0.00021818       0.00008358
K        9.26016634       5.33956156       3.52976504        2       0.00031899       0.00065430      -0.00047343
In      18.44296493       0.04558479       0.08948193        3       0.00029577       0.00047870       0.00004575
I        6.99659131       3.22582891       5.23358643        4      -0.00013690      -0.00056640       0.00015685
I       11.52428786       7.45514496       1.82500037        5      -0.00022285      -0.00049976       0.00007197
I        9.95195353       2.36152889       1.74269713        6      -0.00013910       0.00006707      -0.00009706
I        8.56932711       8.31898959       5.31564096        7      -0.00014913      -0.00021053      -0.00003889
I        6.34132775       6.20921192       1.73264669        8       0.00011045      -0.00009320       0.00019132
I       12.17962805       4.47124967       5.32544960        9       0.00025844      -0.00007308       0.00031013
Cs      13.85567844       2.71211414       1.99957378       10      -0.00037251       0.00027445      -0.00009409
Cs      23.10896381       8.01414177       5.14854071       11       0.00020368      -0.00036227       0.00008407
K       18.48179840       5.36266557       3.57445028       12       0.00018497       0.00009823      -0.00032311
In       9.22144169       0.02283574       0.04483382       13       0.00009752       0.00004184      -0.00018716
I       16.21818897       3.24825888       5.27848302       14       0.00013792       0.00004540      -0.00005456
I       20.74571159       7.47767195       1.86998102       15       0.00051428       0.00009120      -0.00065161
I       19.17386355       2.38424060       1.78724571       16      -0.00070221       0.00024590       0.00027244
I       17.79089365       8.34179603       5.36033052       17      -0.00000051      -0.00004657       0.00027721
I       15.56300856       6.23197151       1.77756380       18      -0.00011982       0.00006261       0.00003573
I       21.40138808       4.49419775       5.37015838       19      -0.00004633      -0.00033431       0.00049864
