10
Lattice="8.696987072058509 -0.2516548290418018 -0.186763488070368 4.131767999973051 7.745718250513868 -0.20596228819096418 4.127858041999874 2.391091860899196 7.333051808891937" Properties=species:S:1:pos:R:3:spacegroup_kinds:I:1:forces:R:3 spacegroup="P 1" unit_cell=conventional occupancy="_JSON {\"0\": {\"Cs\": 1.0}, \"1\": {\"Cs\": 1.0}, \"2\": {\"K\": 1.0}, \"3\": {\"In\": 1.0}, \"4\": {\"I\": 1.0}, \"5\": {\"I\": 1.0}, \"6\": {\"I\": 1.0}, \"7\": {\"I\": 1.0}, \"8\": {\"I\": 1.0}, \"9\": {\"I\": 1.0}}" energy=-25.648933086997207 free_energy=-25.648933086997207 stress="-2.2168472282069394e-06 -2.559552106234199e-06 8.039973499517949e-07 -2.559552106234199e-06 -1.1287601524078164e-05 -6.655290012988961e-06 8.039973499517949e-07 -6.655290012988961e-06 1.0501441141152667e-05" pbc="T T T"
Cs       4.08516610       2.36971803       1.68559493        0      -0.00007340       0.00024747       0.00075560
Cs      12.87168377       7.51445277       5.25360401        1      -0.00022294       0.00020330       0.00030777
K        8.47803848       4.94280175       3.47073722        2       0.00017277      -0.00015281      -0.00057454
In       8.69694233      -0.25157029      -0.18635902        3       0.00021012      -0.00027265      -0.00024643
I        8.70941642       1.70976540       2.05460156        4       0.00036518       0.00026705      -0.00056275
I        8.24677915       8.17494129       4.88702876        5      -0.00010191       0.00017067      -0.00076780
I        2.42783813       5.92170887       1.42058297        6       0.00010203       0.00011484       0.00044320
I       14.52800543       3.96310639       5.51900533        7       0.00063862       0.00008424       0.00029914
I        6.55920844       6.43664506       0.90247027        8      -0.00062309      -0.00032646       0.00042142
I       10.39866523       3.44997024       6.03743507        9      -0.00046737      -0.00033565      -0.00007562
