80
Lattice="19.526728983936362 0.0 0.0 -12.644624466332777 14.879738469392496 0.0 -0.8424299502767727 -0.7158869345958396 18.50747444109855" Properties=species:S:1:pos:R:3 pbc="T T T"
Cs       6.89030273       2.13598806       9.24494151
Cs       1.94883370       4.97321510       0.00859885
K       -0.21060749      -0.17897173       4.62686861
In       2.90968004       0.01363491       0.00005529
I       10.02755848      -0.05283136       1.85106547
I       -1.18843972       7.16195270       7.40271349
I        3.73334363       1.89038894       1.85108523
I        5.10586041       5.21886093       7.40273324
I        7.91971842       5.42842262       1.85105752
I        0.91941731       1.68080653       7.40270553
Cs       6.46908776       1.77804460      18.49867873
Cs       1.52761872       4.61527164       9.26233607
K       -0.63182246      -0.53691520      13.88060583
In       2.48846506      -0.34430856       9.25379251
I        9.60634351      -0.41077483      11.10480269
I       -1.60965470       6.80400923      16.65645071
I        3.31212865       1.53244548      11.10482245
I        4.68464543       4.86091746      16.65647046
I        7.49850344       5.07047915      11.10479474
I        0.49820234       1.32286306      16.65644275
Cs       0.56799050       9.57585730       9.24494151
Cs      -4.37347854      12.41308434       0.00859885
K       -6.53291972       7.26089750       4.62686861
In      -3.41263219       7.45350415       0.00005529
I        3.70524625       7.38703787       1.85106547
I       -7.51075195      14.60182193       7.40271349
I       -2.58896861       9.33025818       1.85108523
I       -1.21645182      12.65873016       7.40273324
I        1.59740618      12.86829185       1.85105752
I       -5.40289492       9.12067577       7.40270553
Cs       0.14677553       9.21791383      18.49867873
Cs      -4.79469351      12.05514087       9.26233607
K       -6.95413470       6.90295403      13.88060583
In      -3.83384717       7.09556068       9.25379251
I        3.28403128       7.02909440      11.10480269
I       -7.93196693      14.24387846      16.65645071
I       -3.01018358       8.97231471      11.10482245
I       -1.63766680      12.30078669      16.65647046
I        1.17619121      12.51034838      11.10479474
I       -5.82410989       8.76273230      16.65644275
Cs      16.65366723       2.13598806       9.24494151
Cs      11.71219819       4.97321510       0.00859885
K        9.55275700      -0.17897173       4.62686861
In      12.67304453       0.01363491       0.00005529
I       19.79092298      -0.05283136       1.85106547
I        8.57492477       7.16195270       7.40271349
I       13.49670812       1.89038894       1.85108523
I       14.86922490       5.21886093       7.40273324
I       17.68308291       5.42842262       1.85105752
I       10.68278181       1.68080653       7.40270553
Cs      16.23245225       1.77804460      18.49867873
Cs      11.29098321       4.61527164       9.26233607
K        9.13154203      -0.53691520      13.88060583
In      12.25182956      -0.34430856       9.25379251
I       19.36970800      -0.41077483      11.10480269
I        8.15370980       6.80400923      16.65645071
I       13.07549314       1.53244548      11.10482245
I       14.44800993       4.86091746      16.65647046
I       17.26186793       5.07047915      11.10479474
I       10.26156683       1.32286306      16.65644275
Cs      10.33135499       9.57585730       9.24494151
Cs       5.38988595      12.41308434       0.00859885
K        3.23044477       7.26089750       4.62686861
In       6.35073230       7.45350415       0.00005529
I       13.46861074       7.38703787       1.85106547
I        2.25261254      14.60182193       7.40271349
I        7.17439589       9.33025818       1.85108523
I        8.54691267      12.65873016       7.40273324
I       11.36077067      12.86829185       1.85105752
I        4.36046957       9.12067577       7.40270553
Cs       9.91014002       9.21791383      18.49867873
Cs       4.96867098      12.05514087       9.26233607
K        2.80922980       6.90295403      13.88060583
In       5.92951732       7.09556068       9.25379251
I       13.04739577       7.02909440      11.10480269
I        1.83139756      14.24387846      16.65645071
I        6.75318091       8.97231471      11.10482245
I        8.12569769      12.30078669      16.65647046
I       10.93955570      12.51034838      11.10479474
I        3.93925460       8.76273230      16.65644275
