40
Lattice="10.649933259095874 0.0 0.0 -0.7803122612029743 11.259926031162522 0.0 2.11053578298246 3.0984701201681633 13.358361326118603" Properties=species:S:1:pos:R:3:oxi_states:R:1 pbc="T T T"
Cs       2.99523505       3.58940318       3.33959033       1.00000000
Pb      -0.00000000      -0.00000000       0.00000000       2.00000000
I        0.16316704       1.13908374       3.33959059      -1.00000000
I        2.66248331       0.00000000      -0.00000000      -1.00000000
I       -0.19507807       2.81498151       0.00000000      -1.00000000
Cs       4.05050294       5.13863824      10.01877099       1.00000000
Pb       1.05526789       1.54923506       6.67918066       2.00000000
I        1.21843493       2.68831880      10.01877125      -1.00000000
I        3.71775121       1.54923506       6.67918066      -1.00000000
I        0.86018983       4.36421657       6.67918066      -1.00000000
Cs       2.60507892       9.21936619       3.33959033       1.00000000
Pb      -0.39015613       5.62996302       0.00000000       2.00000000
I       -0.22698909       6.76904676       3.33959059      -1.00000000
I        2.27232718       5.62996302      -0.00000000      -1.00000000
I       -0.58523420       8.44494452       0.00000000      -1.00000000
Cs       3.66034681      10.76860125      10.01877099       1.00000000
Pb       0.66511176       7.17919808       6.67918066       2.00000000
I        0.82827880       8.31828182      10.01877125      -1.00000000
I        3.32759508       7.17919808       6.67918066      -1.00000000
I        0.47003370       9.99417958       6.67918066      -1.00000000
Cs       8.32020168       3.58940318       3.33959033       1.00000000
Pb       5.32496663      -0.00000000       0.00000000       2.00000000
I        5.48813367       1.13908374       3.33959059      -1.00000000
I        7.98744994       0.00000000      -0.00000000      -1.00000000
I        5.12988856       2.81498151       0.00000000      -1.00000000
Cs       9.37546957       5.13863824      10.01877099       1.00000000
Pb       6.38023452       1.54923506       6.67918066       2.00000000
I        6.54340156       2.68831880      10.01877125      -1.00000000
I        9.04271784       1.54923506       6.67918066      -1.00000000
I        6.18515646       4.36421657       6.67918066      -1.00000000
Cs       7.93004555       9.21936619       3.33959033       1.00000000
Pb       4.93481050       5.62996302       0.00000000       2.00000000
I        5.09797754       6.76904676       3.33959059      -1.00000000
I        7.59729381       5.62996302      -0.00000000      -1.00000000
I        4.73973243       8.44494452       0.00000000      -1.00000000
Cs       8.98531344      10.76860125      10.01877099       1.00000000
Pb       5.99007839       7.17919808       6.67918066       2.00000000
I        6.15324543       8.31828182      10.01877125      -1.00000000
I        8.65256171       7.17919808       6.67918066      -1.00000000
I        5.79500033       9.99417958       6.67918066      -1.00000000
