40
Lattice="12.749172382862952 0.3854859605466791 -1.0330256293500515 -0.4991642710250597 12.690564565636087 -1.4832539410417378 1.164410603909511 1.5251672236124698 12.682149361410266" Properties=species:S:1:pos:R:3:spacegroup_kinds:I:1:forces:R:3 spacegroup="P 1" unit_cell=conventional occupancy="_JSON {\"0\": {\"Cs\": 1.0}, \"1\": {\"Pb\": 1.0}, \"2\": {\"I\": 1.0}, \"3\": {\"I\": 1.0}, \"4\": {\"I\": 1.0}, \"5\": {\"Cs\": 1.0}, \"6\": {\"Pb\": 1.0}, \"7\": {\"I\": 1.0}, \"8\": {\"I\": 1.0}, \"9\": {\"I\": 1.0}, \"10\": {\"Cs\": 1.0}, \"11\": {\"Pb\": 1.0}, \"12\": {\"I\": 1.0}, \"13\": {\"I\": 1.0}, \"14\": {\"I\": 1.0}, \"15\": {\"Cs\": 1.0}, \"16\": {\"Pb\": 1.0}, \"17\": {\"I\": 1.0}, \"18\": {\"I\": 1.0}, \"19\": {\"I\": 1.0}, \"20\": {\"Cs\": 1.0}, \"21\": {\"Pb\": 1.0}, \"22\": {\"I\": 1.0}, \"23\": {\"I\": 1.0}, \"24\": {\"I\": 1.0}, \"25\": {\"Cs\": 1.0}, \"26\": {\"Pb\": 1.0}, \"27\": {\"I\": 1.0}, \"28\": {\"I\": 1.0}, \"29\": {\"I\": 1.0}, \"30\": {\"Cs\": 1.0}, \"31\": {\"Pb\": 1.0}, \"32\": {\"I\": 1.0}, \"33\": {\"I\": 1.0}, \"34\": {\"I\": 1.0}, \"35\": {\"Cs\": 1.0}, \"36\": {\"Pb\": 1.0}, \"37\": {\"I\": 1.0}, \"38\": {\"I\": 1.0}, \"39\": {\"I\": 1.0}}" energy=-111.87532175765834 free_energy=-111.87532175765834 stress="-1.2147101462973347e-05 5.439089736668343e-06 -2.1241505126054244e-06 5.439089736668343e-06 1.4629408793347787e-07 -8.892989853739125e-06 -2.1241505126054244e-06 -8.892989853739125e-06 1.645076136339555e-05" pbc="T T T"
Cs       3.46965142       3.77661612       2.85329342        0       0.00031321      -0.00033968       0.00002781
Pb      -0.08829929       0.07922898      -0.00166097        1      -0.00009613       0.00015445       0.00001545
I       12.82066767       0.83654357       2.09652458        2       0.00000729      -0.00021741      -0.00012481
I        3.06357440       0.15721568      -0.40064898        3      -0.00024597       0.00016220      -0.00043198
I       -0.23121864       3.23476296      -0.51265677        4       0.00000284       0.00023312       0.00035614
Cs       4.05186082       4.53920065       9.19437157        5       0.00030137      -0.00034500       0.00000832
Pb       0.49390799       0.84182840       6.33935826        6      -0.00006605       0.00014760       0.00021911
I       13.40287623       1.59913380       8.43755773        7       0.00002448      -0.00019768       0.00004306
I        3.64577940       0.91979901       5.94042968        8      -0.00024530       0.00015847      -0.00044818
I        0.35098654       3.99733966       5.82842472        9      -0.00000296       0.00025709       0.00033439
Cs       3.22006944      10.12189911       2.11166641       10       0.00031276      -0.00034009       0.00002704
Pb      -0.33787914       6.42451192      -0.74328886       11      -0.00010578       0.00015076       0.00001970
I       12.57108520       7.18182554       1.35489974       12       0.00000715      -0.00021843      -0.00013144
I        2.81398933       6.50249773      -1.14227539       13      -0.00023036       0.00016235      -0.00043337
I       12.26837171       9.96553410      -2.28731029       14       0.00000361       0.00021650       0.00035819
Cs       3.80227841      10.88448153       8.45274482       15       0.00030190      -0.00033981       0.00000870
Pb       0.24432336       7.18710868       5.59773181       16      -0.00005682       0.00015709       0.00021511
I       13.15329390       7.94441617       7.69593027       17       0.00002539      -0.00019748       0.00004674
I        3.39619871       7.26508149       5.19880190       18      -0.00024707       0.00015851      -0.00044663
I        0.10140464      10.34262531       5.08679665       19      -0.00000228       0.00023734       0.00033699
Cs       9.84424237       3.96935980       2.33678026       20       0.00030179      -0.00034118       0.00002455
Pb       6.28628095       0.27197982      -0.51818794       21      -0.00006814       0.00013893       0.00006652
I        6.44608285       0.64380290       2.61302360       22       0.00001208      -0.00021124      -0.00006928
I        9.43816475       0.34995910      -0.91716256       23      -0.00025421       0.00016196      -0.00043215
I        6.14336733       3.42749952      -1.02916645       24       0.00000029       0.00025926       0.00034879
Cs      10.42644219       4.73194289       8.67785910       25       0.00031319      -0.00034323       0.00001161
Pb       6.86849998       1.03456492       5.82285905       26      -0.00009448       0.00015946       0.00016973
I        7.02828867       1.40638859       8.95408437       27       0.00001971      -0.00020402      -0.00001278
I       10.02035921       1.11254121       5.42391818       28      -0.00022310       0.00015939      -0.00044943
I        6.72557266       4.19008529       5.31190985       29      -0.00000091       0.00025038       0.00033960
Cs       9.59466019      10.31464245       1.59515337       30       0.00030184      -0.00034073       0.00002388
Pb       6.03669722       6.61725639      -1.25982101       31      -0.00005706       0.00016439       0.00008516
I        6.19650099       6.98908621       1.87139062       32       0.00001490      -0.00020872      -0.00004366
I        9.18858589       6.69524207      -1.65879027       33      -0.00027035       0.00016037      -0.00043101
I        5.89378594       9.77279193      -1.77079654       34       0.00000176       0.00020710       0.00035482
Cs      10.17686008      11.07722414       7.93623225       35       0.00031270      -0.00033935       0.00001179
Pb       6.61891888       7.37985046       5.08123714       36      -0.00010282       0.00014435       0.00015083
I        6.77870536       7.75166931       8.21246701       37       0.00001747      -0.00020795      -0.00004451
I        9.77077764       7.45782352       4.68229057       38      -0.00022594       0.00015961      -0.00044743
I        6.47599059      10.53536945       4.57028210       39      -0.00000003       0.00023131       0.00034264
