10
Lattice="12.445573501032742 1.5791657865933548 2.5605496173525024 -0.5192432639391092 6.236574868777965 -1.3190876195263765 -1.3116277134840808 1.1922223628567439 6.155490964494849" Properties=species:S:1:pos:R:3:spacegroup_kinds:I:1:forces:R:3 spacegroup="P 1" unit_cell=conventional occupancy="_JSON {\"0\": {\"Cs\": 1.0}, \"1\": {\"Pb\": 1.0}, \"2\": {\"I\": 1.0}, \"3\": {\"I\": 1.0}, \"4\": {\"I\": 1.0}, \"5\": {\"Cs\": 1.0}, \"6\": {\"Pb\": 1.0}, \"7\": {\"I\": 1.0}, \"8\": {\"I\": 1.0}, \"9\": {\"I\": 1.0}}" energy=-27.96869616042945 free_energy=-27.96869616042945 stress="9.088868335769727e-07 1.7502694964991115e-06 -3.1831270247376626e-06 1.7502694964991115e-06 1.2085630904964844e-06 -2.402549165983651e-06 -3.1831270247376626e-06 -2.402549165983651e-06 2.7781398780430266e-07" pbc="T T T"
Cs       2.02285470       4.02830800       2.74342682        0       0.00050158      -0.00011089      -0.00018835
Pb       0.00234837      -0.00007714       0.00211521        1       0.00007885       0.00021094       0.00007768
I       -0.52473751       0.62217346       3.14667296        2      -0.00003973      -0.00018762      -0.00003826
I        3.11658768       0.42675825       0.78746503        3       0.00003102      -0.00020320      -0.00000361
I       -0.22505353       3.14112937      -0.56298364        4      -0.00038787       0.00031285       0.00019154
Cs       8.24564441       4.81789129       4.02370398        5       0.00049063      -0.00011180      -0.00019161
Pb       6.22520752       0.78951565       1.28246182        6      -0.00028060       0.00016386      -0.00005886
I        5.69804049       1.41175653       4.42692571        7      -0.00002034      -0.00017184       0.00002971
I        9.33937650       1.21634145       2.06774190        8      -0.00002191      -0.00020896      -0.00001288
I        5.99772660       3.93071238       0.71728532        9      -0.00035164       0.00030666       0.00019463
