80
Lattice="17.87804134501714 0.3286185906759909 -0.5814811940808028 8.526935368709227 15.324080188799567 -0.6708877949141945 9.354254576642422 5.200621860461236 14.139390455725854" Properties=species:S:1:pos:R:3:spacegroup_kinds:I:1:forces:R:3 spacegroup="P 1" unit_cell=conventional occupancy="_JSON {\"0\": {\"Cs\": 1.0}, \"1\": {\"Cs\": 1.0}, \"2\": {\"K\": 1.0}, \"3\": {\"In\": 1.0}, \"4\": {\"I\": 1.0}, \"5\": {\"I\": 1.0}, \"6\": {\"I\": 1.0}, \"7\": {\"I\": 1.0}, \"8\": {\"I\": 1.0}, \"9\": {\"I\": 1.0}, \"10\": {\"Cs\": 1.0}, \"11\": {\"Cs\": 1.0}, \"12\": {\"K\": 1.0}, \"13\": {\"In\": 1.0}, \"14\": {\"I\": 1.0}, \"15\": {\"I\": 1.0}, \"16\": {\"I\": 1.0}, \"17\": {\"I\": 1.0}, \"18\": {\"I\": 1.0}, \"19\": {\"I\": 1.0}, \"20\": {\"Cs\": 1.0}, \"21\": {\"Cs\": 1.0}, \"22\": {\"K\": 1.0}, \"23\": {\"In\": 1.0}, \"24\": {\"I\": 1.0}, \"25\": {\"I\": 1.0}, \"26\": {\"I\": 1.0}, \"27\": {\"I\": 1.0}, \"28\": {\"I\": 1.0}, \"29\": {\"I\": 1.0}, \"30\": {\"Cs\": 1.0}, \"31\": {\"Cs\": 1.0}, \"32\": {\"K\": 1.0}, \"33\": {\"In\": 1.0}, \"34\": {\"I\": 1.0}, \"35\": {\"I\": 1.0}, \"36\": {\"I\": 1.0}, \"37\": {\"I\": 1.0}, \"38\": {\"I\": 1.0}, \"39\": {\"I\": 1.0}, \"40\": {\"Cs\": 1.0}, \"41\": {\"Cs\": 1.0}, \"42\": {\"K\": 1.0}, \"43\": {\"In\": 1.0}, \"44\": {\"I\": 1.0}, \"45\": {\"I\": 1.0}, \"46\": {\"I\": 1.0}, \"47\": {\"I\": 1.0}, \"48\": {\"I\": 1.0}, \"49\": {\"I\": 1.0}, \"50\": {\"Cs\": 1.0}, \"51\": {\"Cs\": 1.0}, \"52\": {\"K\": 1.0}, \"53\": {\"In\": 1.0}, \"54\": {\"I\": 1.0}, \"55\": {\"I\": 1.0}, \"56\": {\"I\": 1.0}, \"57\": {\"I\": 1.0}, \"58\": {\"I\": 1.0}, \"59\": {\"I\": 1.0}, \"60\": {\"Cs\": 1.0}, \"61\": {\"Cs\": 1.0}, \"62\": {\"K\": 1.0}, \"63\": {\"In\": 1.0}, \"64\": {\"I\": 1.0}, \"65\": {\"I\": 1.0}, \"66\": {\"I\": 1.0}, \"67\": {\"I\": 1.0}, \"68\": {\"I\": 1.0}, \"69\": {\"I\": 1.0}, \"70\": {\"Cs\": 1.0}, \"71\": {\"Cs\": 1.0}, \"72\": {\"K\": 1.0}, \"73\": {\"In\": 1.0}, \"74\": {\"I\": 1.0}, \"75\": {\"I\": 1.0}, \"76\": {\"I\": 1.0}, \"77\": {\"I\": 1.0}, \"78\": {\"I\": 1.0}, \"79\": {\"I\": 1.0}}" energy=-206.2341967864811 free_energy=-206.2341967864811 stress="5.956410585236136e-07 1.6750819728741148e-07 -5.283740955454128e-07 1.6750819728741148e-07 -6.038008913993267e-07 -1.0046039201347883e-07 -5.283740955454128e-07 -1.0046039201347883e-07 -5.682616805774842e-07" pbc="T T T"
Cs       4.89381039       2.34007217       1.87554616        0      -0.00007837       0.00018616      -0.00012904
Cs      13.87549397       8.05733316       4.87249810        1      -0.00027853       0.00032855       0.00029575
K        9.89268704       4.74984489       4.01421008        2      -0.00013503       0.00021235      -0.00021689
In      17.87870976       0.32687227      -0.58289705        3       0.00034705       0.00024004      -0.00005150
I        6.89284991       3.34862812       5.23569445        4       0.00017029      -0.00009516       0.00035731
I       11.70252226       6.74074643       1.76452625        5      -0.00019650      -0.00005389       0.00032043
I        9.07277824       2.81120638       1.03367392        6       0.00017891      -0.00030687      -0.00014347
I        8.21556076       7.66452350       5.42780591        7       0.00018799      -0.00067626       0.00027940
I        6.10813541       6.12570169       1.42644720        8       0.00025780       0.00001574       0.00023625
I       11.92499534       5.18939706       6.97402574        9       0.00008823      -0.00008777       0.00031283
Cs       8.43323881       5.66995239       8.77998592       10       0.00038381       0.00022268      -0.00005400
Cs      17.33123075      10.00400024      11.89505984       11       0.00000508       0.00000482      -0.00002965
K       13.31973102       6.73515746      10.01479545       12      -0.00001384      -0.00026949       0.00009415
In      22.55453461       2.93001067       6.48816948       13      -0.00038701      -0.00040745       0.00003250
I       10.84979350       4.40560611      11.64104442       14       0.00009975      -0.00000659      -0.00029834
I       16.10144947       8.72437940       8.25582164       15      -0.00016463      -0.00049767      -0.00003590
I       15.14869511       3.64464601       9.17543672       16      -0.00013693       0.00024798       0.00005151
I       13.40718672      10.50054936      11.95456183       17      -0.00004829      -0.00014607      -0.00003380
I       11.07801025       9.02331608       8.38233744       18      -0.00020318       0.00000032      -0.00056121
I       15.68932342       6.25850902      12.63725725       19      -0.00006831      -0.00011694      -0.00018517
Cs       8.36430049       9.44171221       1.77178421       20       0.00000324      -0.00018779      -0.00027009
Cs      17.37066433      15.23358053       5.31132797       21      -0.00030104      -0.00032734      -0.00009160
K       13.29041207      12.58187703       2.74742298       22       0.00007776       0.00023874      -0.00004038
In      22.14034405       7.98999808      -0.91617302       23       0.00071949      -0.00002350      -0.00008172
I       10.87818537      10.81443498       4.52108985       24       0.00060296       0.00006955       0.00012428
I       16.00397749      14.39259180       1.41049761       25       0.00022797       0.00017909      -0.00037754
I       14.59763134       9.77708661       1.11410719       26       0.00040317       0.00057237       0.00027635
I       13.28519004      15.17113042       5.34684572       27       0.00030068      -0.00008390      -0.00040884
I       10.92543235      14.40258782       0.99688716       28      -0.00016878      -0.00001395       0.00025086
I       15.42565543      11.67795093       5.37184837       29      -0.00048550      -0.00052971      -0.00043486
Cs      13.73673893      12.94964479       8.82672602       30      -0.00003447      -0.00037832      -0.00023849
Cs      22.78997667      17.89897456      12.27919383       31       0.00012702      -0.00005600      -0.00020864
K       18.07464413      16.33099263      10.67782147       32       0.00005356       0.00003793      -0.00033007
In      26.81810783      10.59115954       6.15255202       33      -0.00018165       0.00010451       0.00012153
I       15.97761742      13.77830908      12.21630302       34      -0.00041408      -0.00001568       0.00017420
I       20.24137899      16.52686592       7.81487435       35       0.00003518      -0.00037014       0.00023106
I       17.91104716      12.53967675       8.51848990       36      -0.00059693       0.00008111       0.00025529
I       16.66877581      17.90567585      13.60257738       37      -0.00019787      -0.00000380       0.00005425
I       15.24967601      17.10958436       8.48300432       38       0.00025289      -0.00024403      -0.00003443
I       20.40061382      14.99715670      13.07850518       39      -0.00009201       0.00041063       0.00017085
Cs      12.96946952       2.95200488       0.60654495       40      -0.00069016      -0.00007050       0.00026457
Cs      22.02123825       7.90481645       4.06196274       41       0.00019441       0.00019926       0.00013057
K       17.68502305       4.51759502       2.20601315       42      -0.00014639       0.00012371       0.00049874
In       8.93915411       0.16354336      -0.29009988       43       0.00009642      -0.00025090       0.00014582
I       15.51916551       4.32999704       5.07047805       44       0.00022660      -0.00014226       0.00018016
I       19.77988545       7.07391486       0.67212283       45      -0.00041676       0.00003370       0.00006640
I       19.09219263       2.94414187      -0.71831652       46      -0.00008184      -0.00040233       0.00026320
I       17.84969675       8.31857547       4.37200437       47       0.00007700      -0.00000965      -0.00028374
I       15.35881660       5.85221683      -0.19431426       48       0.00005207       0.00047801       0.00012405
I       20.50840751       3.74548834       4.40405333       49      -0.00013060       0.00040410      -0.00036630
Cs      18.38834960       5.62381608       7.57616555       50       0.00023017      -0.00016994       0.00013421
Cs      27.39388027      11.41067291      11.11380313       51       0.00028545       0.00002020       0.00017895
K       22.46976234       8.26850609      10.13983378       52       0.00013992       0.00047957       0.00011462
In      13.61684481       2.76677002       6.77862947       53      -0.00025852      -0.00002642      -0.00037329
I       19.75617449       6.45903838      11.47845584       54      -0.00040698      -0.00022383       0.00023900
I       24.87942072      10.03837648       8.36449061       55      -0.00000739       0.00005575       0.00026874
I       22.47257811       5.68466626       7.53973020       56       0.00030431      -0.00047862      -0.00036008
I       21.16168723      11.07304424      11.77129544       57      -0.00015591       0.00015051      -0.00033757
I       20.33395175       9.17969391       7.51866814       58       0.00020548      -0.00046585      -0.00014557
I       24.83518033       6.44700559      11.88785319       59      -0.00012829       0.00036307       0.00035709
Cs      18.42737213      10.84921552       0.99499455       60       0.00005016       0.00009456       0.00020071
Cs      27.32530928      15.18058229       4.10466553       61       0.00020993       0.00006083       0.00023294
K       22.43862781      14.12136547       2.87487355       62      -0.00021304      -0.00008281      -0.00010254
In      13.20272409       7.82468512      -0.62751522       63      -0.00031718       0.00009042       0.00054592
I       19.65795307      12.13352821       4.63436591       64       0.00010864       0.00031640      -0.00073402
I       24.91034065      16.44420071       1.24359304       65      -0.00012642       0.00052991      -0.00004022
I       22.35062568      10.35173251       0.93323379       66       0.00001235       0.00000733      -0.00056085
I       20.61157998      17.21248720       3.71097115       67       0.00003449      -0.00054573       0.00015228
I       20.07015732      14.59282038       0.25141273       68       0.00010834       0.00050593       0.00022411
I       24.68006833      11.83172715       4.50495181       69       0.00030488      -0.00048972      -0.00001574
Cs      21.88627448      12.79722259       8.01269500       70      -0.00006078       0.00025501       0.00004166
Cs      30.86630948      18.50956144      11.01433793       71      -0.00025075      -0.00006091      -0.00021111
K       25.86659541      16.10537351       8.87233429       72       0.00021167      -0.00029255       0.00034144
In      17.87988642      10.42897694       6.44543879       73       0.00003811      -0.00012368      -0.00051588
I       24.05794148      14.11032692      11.12080526       74       0.00005934       0.00033158       0.00002011
I       28.86558284      17.50764229       7.65151272       75       0.00009143      -0.00006371       0.00042789
I       27.54226982      13.18970567       7.45831388       76       0.00022826       0.00049364       0.00003390
I       26.68688132      18.04029981      11.85516327       77      -0.00050689       0.00058248      -0.00024439
I       23.83571362      15.66813229       5.91214885       78       0.00000992      -0.00040125      -0.00019609
I       29.64875927      14.72574518      11.46153477       79       0.00027865       0.00047044      -0.00008283
