10
Lattice="8.324892909854901 0.0 0.0 6.941507291408435 6.64628157275674 0.0 3.9018450831561102 4.680914862089325 7.785866575292885" Properties=species:S:1:pos:R:3 pbc="T T T"
Cs       4.79204611       2.83179428       1.94647061
Cs      14.37619914       8.49540202       5.83939587
K        9.58412272       5.66359820       3.89293331
In       0.00000010       0.00000011       0.00000004
I        6.69349524       4.92480880       5.75712589
I       12.47475022       6.40238754       2.02874069
I        9.30562195       2.66108654       2.01436700
I        9.86262321       8.66610983       5.77149947
I        8.26433605       6.00535342       1.60450670
I       10.90390943       5.32184346       6.18136019
