10
Lattice="8.919105052918525 -1.7515620097981506 1.287410518310889 5.997433265174697 6.307613523723537 -0.37880662717215985 4.213778424734785 3.082337816779209 7.60016981421507" Properties=species:S:1:pos:R:3:spacegroup_kinds:I:1:forces:R:3 spacegroup="P 1" unit_cell=conventional occupancy="_JSON {\"0\": {\"Cs\": 1.0}, \"1\": {\"Cs\": 1.0}, \"2\": {\"K\": 1.0}, \"3\": {\"In\": 1.0}, \"4\": {\"I\": 1.0}, \"5\": {\"I\": 1.0}, \"6\": {\"I\": 1.0}, \"7\": {\"I\": 1.0}, \"8\": {\"I\": 1.0}, \"9\": {\"I\": 1.0}}" energy=-25.648945605729402 free_energy=-25.648945605729402 stress="-4.362893195454017e-06 4.4106784066776294e-07 1.1930695878212804e-06 4.4106784066776294e-07 4.8420965625128266e-06 2.4736387100760797e-07 1.1930695878212804e-06 2.4736387100760797e-07 -1.6371366514910382e-06" pbc="T T T"
Cs       4.84097198       2.06241216       2.02762801        0      -0.00031545      -0.00045665      -0.00031621
Cs      14.29020538       5.57772026       6.48142239        1      -0.00010274      -0.00048587      -0.00023927
K        9.56494130       3.81924194       4.25417125        2       0.00028627       0.00001927      -0.00001204
In       8.91901253      -1.75164364       1.28728217        3      -0.00004645      -0.00008602       0.00010636
I        6.27726813       3.31119475       5.46216685        4      -0.00029348       0.00012207       0.00053508
I       12.85307187       4.32706631       3.04653047        5       0.00003809       0.00002060       0.00010707
I        9.93249426       0.73678722       2.55883736        6      -0.00001974       0.00002957      -0.00049102
I        9.19757830       6.90090575       5.95052485        7       0.00034600       0.00026425       0.00000548
I        7.89998271       4.71526460       1.26595927        8      -0.00003502       0.00014671       0.00006890
I       11.23000432       2.92224080       7.24236981        9       0.00014253       0.00042607       0.00023566
