20
Lattice="20.456573221266666 0.0 0.0 -7.913413582017762 5.125591479719327 0.0 0.0 0.0 9.711671437906563" Properties=species:S:1:pos:R:3 pbc="T T T"
Cs       4.47201817       1.70989436       9.70253392
Cs      -1.57521523       3.41842486       0.00911783
K        0.29096585       0.00136260       4.85583617
In       0.29096800       0.00136349       0.00000553
I        7.83520238       0.00492229       1.94264824
I       -4.93840121       5.12338874       7.76902737
I        0.90428835       1.34363828       1.94265021
I        1.99252135       3.78468561       7.76902935
I        4.67656624       3.78112206       1.94264744
I       -1.77976336       1.34719975       7.76902658
Cs      14.70030478       1.70989436       9.70253392
Cs       8.65307138       3.41842486       0.00911783
K       10.51925246       0.00136260       4.85583617
In      10.51925461       0.00136349       0.00000553
I       18.06348899       0.00492229       1.94264824
I        5.28988540       5.12338874       7.76902737
I       11.13257496       1.34363828       1.94265021
I       12.22080796       3.78468561       7.76902935
I       14.90485285       3.78112206       1.94264744
I        8.44852325       1.34719975       7.76902658
