40
Lattice="19.148258384429415 0.0 0.0 13.120843109698725 15.00452616021206 0.0 5.990698029288659 -0.6910566789897243 8.4322712363121" Properties=species:S:1:pos:R:3 pbc="T T T"
Cs       5.53122915       1.70277702       2.10808320
Cs      16.59401947       5.10842872       6.32418759
K       11.06262435       3.40560276       4.21613539
In       0.00000019       0.00000046       0.00000020
I        9.16748283       0.05429691       5.17804140
I       12.95776586       6.75690828       3.25422937
I       12.18819510       2.18814944       2.57525281
I        9.93705233       4.62305587       5.85701761
I        8.93718882       5.04488763       1.34395286
I       13.18806029       1.76632009       7.08831924
Cs      12.09165071       9.20504010       2.10808320
Cs      23.15444102      12.61069180       6.32418759
K       17.62304590      10.90786584       4.21613539
In       6.56042174       7.50226354       0.00000020
I       15.72790439       7.55655999       5.17804140
I       19.51818741      14.25917136       3.25422937
I       18.74861666       9.69041252       2.57525281
I       16.49747388      12.12531895       5.85701761
I       15.49761037      12.54715071       1.34395286
I       19.74848185       9.26858317       7.08831924
Cs      15.10535835       1.70277702       2.10808320
Cs      26.16814866       5.10842872       6.32418759
K       20.63675354       3.40560276       4.21613539
In       9.57412938       0.00000046       0.00000020
I       18.74161203       0.05429691       5.17804140
I       22.53189505       6.75690828       3.25422937
I       21.76232430       2.18814944       2.57525281
I       19.51118152       4.62305587       5.85701761
I       18.51131801       5.04488763       1.34395286
I       22.76218948       1.76632009       7.08831924
Cs      21.66577990       9.20504010       2.10808320
Cs      32.72857022      12.61069180       6.32418759
K       27.19717509      10.90786584       4.21613539
In      16.13455094       7.50226354       0.00000020
I       25.30203358       7.55655999       5.17804140
I       29.09231660      14.25917136       3.25422937
I       28.32274585       9.69041252       2.57525281
I       26.07160307      12.12531895       5.85701761
I       25.07173956      12.54715071       1.34395286
I       29.32261104       9.26858317       7.08831924
