160
Lattice="17.327429655609293 0.0013203543551582597 -0.0004761315899337924 0.0014527502766071487 18.306680663528315 0.002682947757832093 -0.0006864103672511648 0.0036719309021634628 25.27806549518082" Properties=species:S:1:pos:R:3:spacegroup_kinds:I:1:forces:R:3 spacegroup="P 1" unit_cell=conventional occupancy="_JSON {\"0\": {\"Cs\": 1.0}, \"1\": {\"Cs\": 1.0}, \"2\": {\"Cs\": 1.0}, \"3\": {\"Cs\": 1.0}, \"4\": {\"Pb\": 1.0}, \"5\": {\"Pb\": 1.0}, \"6\": {\"Pb\": 1.0}, \"7\": {\"Pb\": 1.0}, \"8\": {\"I\": 1.0}, \"9\": {\"I\": 1.0}, \"10\": {\"I\": 1.0}, \"11\": {\"I\": 1.0}, \"12\": {\"I\": 1.0}, \"13\": {\"I\": 1.0}, \"14\": {\"I\": 1.0}, \"15\": {\"I\": 1.0}, \"16\": {\"I\": 1.0}, \"17\": {\"I\": 1.0}, \"18\": {\"I\": 1.0}, \"19\": {\"I\": 1.0}, \"20\": {\"Cs\": 1.0}, \"21\": {\"Cs\": 1.0}, \"22\": {\"Cs\": 1.0}, \"23\": {\"Cs\": 1.0}, \"24\": {\"Pb\": 1.0}, \"25\": {\"Pb\": 1.0}, \"26\": {\"Pb\": 1.0}, \"27\": {\"Pb\": 1.0}, \"28\": {\"I\": 1.0}, \"29\": {\"I\": 1.0}, \"30\": {\"I\": 1.0}, \"31\": {\"I\": 1.0}, \"32\": {\"I\": 1.0}, \"33\": {\"I\": 1.0}, \"34\": {\"I\": 1.0}, \"35\": {\"I\": 1.0}, \"36\": {\"I\": 1.0}, \"37\": {\"I\": 1.0}, \"38\": {\"I\": 1.0}, \"39\": {\"I\": 1.0}, \"40\": {\"Cs\": 1.0}, \"41\": {\"Cs\": 1.0}, \"42\": {\"Cs\": 1.0}, \"43\": {\"Cs\": 1.0}, \"44\": {\"Pb\": 1.0}, \"45\": {\"Pb\": 1.0}, \"46\": {\"Pb\": 1.0}, \"47\": {\"Pb\": 1.0}, \"48\": {\"I\": 1.0}, \"49\": {\"I\": 1.0}, \"50\": {\"I\": 1.0}, \"51\": {\"I\": 1.0}, \"52\": {\"I\": 1.0}, \"53\": {\"I\": 1.0}, \"54\": {\"I\": 1.0}, \"55\": {\"I\": 1.0}, \"56\": {\"I\": 1.0}, \"57\": {\"I\": 1.0}, \"58\": {\"I\": 1.0}, \"59\": {\"I\": 1.0}, \"60\": {\"Cs\": 1.0}, \"61\": {\"Cs\": 1.0}, \"62\": {\"Cs\": 1.0}, \"63\": {\"Cs\": 1.0}, \"64\": {\"Pb\": 1.0}, \"65\": {\"Pb\": 1.0}, \"66\": {\"Pb\": 1.0}, \"67\": {\"Pb\": 1.0}, \"68\": {\"I\": 1.0}, \"69\": {\"I\": 1.0}, \"70\": {\"I\": 1.0}, \"71\": {\"I\": 1.0}, \"72\": {\"I\": 1.0}, \"73\": {\"I\": 1.0}, \"74\": {\"I\": 1.0}, \"75\": {\"I\": 1.0}, \"76\": {\"I\": 1.0}, \"77\": {\"I\": 1.0}, \"78\": {\"I\": 1.0}, \"79\": {\"I\": 1.0}, \"80\": {\"Cs\": 1.0}, \"81\": {\"Cs\": 1.0}, \"82\": {\"Cs\": 1.0}, \"83\": {\"Cs\": 1.0}, \"84\": {\"Pb\": 1.0}, \"85\": {\"Pb\": 1.0}, \"86\": {\"Pb\": 1.0}, \"87\": {\"Pb\": 1.0}, \"88\": {\"I\": 1.0}, \"89\": {\"I\": 1.0}, \"90\": {\"I\": 1.0}, \"91\": {\"I\": 1.0}, \"92\": {\"I\": 1.0}, \"93\": {\"I\": 1.0}, \"94\": {\"I\": 1.0}, \"95\": {\"I\": 1.0}, \"96\": {\"I\": 1.0}, \"97\": {\"I\": 1.0}, \"98\": {\"I\": 1.0}, \"99\": {\"I\": 1.0}, \"100\": {\"Cs\": 1.0}, \"101\": {\"Cs\": 1.0}, \"102\": {\"Cs\": 1.0}, \"103\": {\"Cs\": 1.0}, \"104\": {\"Pb\": 1.0}, \"105\": {\"Pb\": 1.0}, \"106\": {\"Pb\": 1.0}, \"107\": {\"Pb\": 1.0}, \"108\": {\"I\": 1.0}, \"109\": {\"I\": 1.0}, \"110\": {\"I\": 1.0}, \"111\": {\"I\": 1.0}, \"112\": {\"I\": 1.0}, \"113\": {\"I\": 1.0}, \"114\": {\"I\": 1.0}, \"115\": {\"I\": 1.0}, \"116\": {\"I\": 1.0}, \"117\": {\"I\": 1.0}, \"118\": {\"I\": 1.0}, \"119\": {\"I\": 1.0}, \"120\": {\"Cs\": 1.0}, \"121\": {\"Cs\": 1.0}, \"122\": {\"Cs\": 1.0}, \"123\": {\"Cs\": 1.0}, \"124\": {\"Pb\": 1.0}, \"125\": {\"Pb\": 1.0}, \"126\": {\"Pb\": 1.0}, \"127\": {\"Pb\": 1.0}, \"128\": {\"I\": 1.0}, \"129\": {\"I\": 1.0}, \"130\": {\"I\": 1.0}, \"131\": {\"I\": 1.0}, \"132\": {\"I\": 1.0}, \"133\": {\"I\": 1.0}, \"134\": {\"I\": 1.0}, \"135\": {\"I\": 1.0}, \"136\": {\"I\": 1.0}, \"137\": {\"I\": 1.0}, \"138\": {\"I\": 1.0}, \"139\": {\"I\": 1.0}, \"140\": {\"Cs\": 1.0}, \"141\": {\"Cs\": 1.0}, \"142\": {\"Cs\": 1.0}, \"143\": {\"Cs\": 1.0}, \"144\": {\"Pb\": 1.0}, \"145\": {\"Pb\": 1.0}, \"146\": {\"Pb\": 1.0}, \"147\": {\"Pb\": 1.0}, \"148\": {\"I\": 1.0}, \"149\": {\"I\": 1.0}, \"150\": {\"I\": 1.0}, \"151\": {\"I\": 1.0}, \"152\": {\"I\": 1.0}, \"153\": {\"I\": 1.0}, \"154\": {\"I\": 1.0}, \"155\": {\"I\": 1.0}, \"156\": {\"I\": 1.0}, \"157\": {\"I\": 1.0}, \"158\": {\"I\": 1.0}, \"159\": {\"I\": 1.0}}" energy=-452.06421470328075 free_energy=-452.06421470328075 stress="5.72162667324752e-06 7.83195020241973e-06 -1.6253637617326681e-06 7.83195020241973e-06 -4.770182186470891e-06 9.158129370082722e-06 -1.6253637617326681e-06 9.158129370082722e-06 -1.3153474128661892e-06" pbc="T T T"
Cs       4.26518011       8.44264586       3.16097093        0      -0.00022740       0.00030229      -0.00020443
Cs       0.40498033       3.86487401       3.16044861        1       0.00007890       0.00011694      -0.00002574
Cs       4.73699122       0.71394224       9.47891350        2      -0.00020293       0.00033105      -0.00001462
Cs       8.59543182       5.28974263       9.47968747        3       0.00000118       0.00048820       0.00014780
Pb       0.16835964       0.00018775      -0.00031448        4       0.00016230       0.00014006       0.00014266
Pb       4.50018766       4.57758452       0.00033391        5       0.00011168      -0.00007799       0.00016006
Pb       0.16864424       0.00040899       6.31967391        6       0.00010561       0.00063375       0.00001727
Pb       4.50051868       4.57811402       6.31997388        7       0.00012886      -0.00062968       0.00001154
I        1.84508961       6.39742272       0.52795397        8      -0.00010466      -0.00022596      -0.00005382
I        2.82388568       1.82120508       0.52588397        9       0.00004218      -0.00030378       0.00023851
I        8.09916391       0.08676709       3.15963144       10      -0.00040105      -0.00003926      -0.00034319
I        7.15556568       2.75894026      12.11290644       11      -0.00003476      -0.00000994      -0.00000496
I        6.17654276       7.33596099      12.11381683       12       0.00017869      -0.00025356       0.00001404
I        5.23427173       4.66353846       3.16037198       13       0.00013862      -0.00023851      -0.00005531
I        1.84490124       6.39733250       5.79330037       14      -0.00013489      -0.00008501       0.00009642
I        2.82469671       1.82051608       5.79413134       15       0.00002045       0.00036510      -0.00009773
I        0.90366461       9.06799984       9.48060606       16      -0.00026328      -0.00011260       0.00029136
I        7.15673966       2.75774613       6.84603647       17      -0.00033424       0.00013311      -0.00000719
I        6.17666886       7.33433400       6.84693204       18       0.00020405       0.00012088      -0.00012298
I        3.76593517       4.49350936       9.47985533       19       0.00047229      -0.00049133      -0.00006968
Cs       4.26483805       8.44447612      15.79999893       20      -0.00023436       0.00033711      -0.00017568
Cs       0.40463587       3.86671564      15.79948202       21       0.00008632       0.00008245      -0.00002970
Cs       4.73664714       0.71577699      22.11794965       22      -0.00019767       0.00033837      -0.00003518
Cs       8.59508912       5.29157202      22.11871567       23      -0.00000176       0.00052818       0.00017546
Pb       0.16801818       0.00204046      12.63872196       24       0.00015150       0.00003827       0.00012040
Pb       4.49984270       4.57944856      12.63937404       25       0.00012221      -0.00024884       0.00011434
Pb       0.16830136       0.00226036      18.95873276       26       0.00010254       0.00054025      -0.00014132
Pb       4.50017772       4.57994650      18.95899308       27       0.00011512      -0.00060846       0.00009403
I        1.84475008       6.39925384      13.16698692       28      -0.00012698      -0.00019646      -0.00005498
I        2.82352767       1.82302120      13.16491645       29       0.00013224      -0.00018297       0.00024015
I        8.09881873       0.08859983      15.79864654       30      -0.00038914      -0.00001971      -0.00023566
I        7.15520884       2.76079461      24.75193943       31       0.00004812      -0.00012182      -0.00000643
I        6.17620363       7.33780230      24.75285014       32       0.00015400      -0.00028600       0.00001053
I        5.23392810       4.66537375      15.79940923       33       0.00014120      -0.00023439      -0.00008212
I        1.84455469       6.39917404      18.43233549       34      -0.00011405      -0.00011933       0.00008200
I        2.82435251       1.82234822      18.43316215       35       0.00002701       0.00038878      -0.00008597
I        0.90332263       9.06983687      22.11965259       36      -0.00027069      -0.00011897       0.00020751
I        7.15639770       2.75958034      19.48506946       37      -0.00034217       0.00014404      -0.00000869
I        6.17632975       7.33617689      19.48596807       38       0.00017874       0.00007835      -0.00014293
I        3.76559152       4.49534768      22.11890324       39       0.00047504      -0.00050561      -0.00016260
Cs       4.26590733      17.59598021       3.16230842       40      -0.00023253       0.00033876      -0.00018016
Cs       0.40570677      13.01822001       3.16179045       41       0.00007855       0.00008247      -0.00002794
Cs       4.73771726       9.86728158       9.48025749       42      -0.00020085       0.00033702      -0.00002996
Cs       8.59615761      14.44307656       9.48102450       43       0.00000471       0.00052718       0.00017479
Pb       0.16908842       9.15354456       0.00103027       44       0.00014760       0.00003977       0.00012285
Pb       4.50091108      13.73095293       0.00168848       45       0.00012953      -0.00024882       0.00008047
Pb       0.16937712       9.15376384       6.32103867       46       0.00006603       0.00054543      -0.00012440
Pb       4.50124797      13.73145124       6.32130141       47       0.00011117      -0.00061048       0.00009632
I        1.84582024      15.55075762       0.52929535       48      -0.00013053      -0.00019294      -0.00005326
I        2.82459774      10.97452623       0.52722477       49       0.00012923      -0.00018700       0.00024256
I        8.09988894       9.24010429       3.16095368       50      -0.00039283      -0.00002022      -0.00022604
I        7.15627731      11.91229992      12.11424855       51       0.00005475      -0.00012744      -0.00000876
I        6.17727215      16.48930549      12.11515936       52       0.00016031      -0.00027899       0.00000763
I        5.23499801      13.81687814       3.16171420       53       0.00013919      -0.00023452      -0.00005988
I        1.84562144      15.55068079       5.79464433       54      -0.00009725      -0.00013355       0.00008132
I        2.82541902      10.97385000       5.79547103       55       0.00004515       0.00040409      -0.00008692
I        0.90439166      18.22134116       9.48196245       56      -0.00026740      -0.00011853       0.00020074
I        7.15746974      11.91108255       6.84737813       57      -0.00035668       0.00015682      -0.00000833
I        6.17740166      16.48768318       6.84827673       58       0.00016491       0.00006686      -0.00014256
I        3.76666071      13.64685201       9.48121648       59       0.00047733      -0.00050540      -0.00018933
Cs       4.26556358      17.59782256      15.80134444       60      -0.00022920       0.00029998      -0.00020021
Cs       0.40536219      13.02005041      15.80082312       61       0.00008663       0.00011638      -0.00002747
Cs       4.73737387       9.86911821      22.11928865       62      -0.00019980       0.00033295      -0.00002011
Cs       8.59581609      14.44491888      22.12006158       63      -0.00000533       0.00048856       0.00014851
Pb       0.16874210       9.15536397      12.64006016       64       0.00016650       0.00014050       0.00014021
Pb       4.50057202      13.73276094      12.64070241       65       0.00010439      -0.00007873       0.00019395
Pb       0.16902118       9.15558583      18.96005095       66       0.00014243       0.00063049       0.00000034
Pb       4.50090108      13.73329050      18.96034849       67       0.00013340      -0.00063068       0.00000927
I        1.84547232      15.55259940      13.16832849       68      -0.00010179      -0.00022834      -0.00005559
I        2.82426844      10.97638082      13.16625861       69       0.00004469      -0.00030033       0.00023604
I        8.09954648       9.24194333      15.80000760       70      -0.00039753      -0.00003891      -0.00035469
I        7.15594988      11.91411570      24.75328026       71      -0.00004095      -0.00000481      -0.00000258
I        6.17692685      16.49113825      24.75419058       72       0.00017311      -0.00025939       0.00001683
I        5.23465457      13.81871468      15.80074996       73       0.00014062      -0.00023804      -0.00007753
I        1.84528753      15.55250601      18.43367446       74      -0.00015331      -0.00006859       0.00009720
I        2.82508288      10.97569489      18.43450540       75       0.00000268       0.00035018      -0.00009679
I        0.90404833      18.22317616      22.12097950       76      -0.00026656      -0.00011269       0.00029623
I        7.15712047      11.91292448      19.48641075       77      -0.00032024       0.00012092      -0.00000753
I        6.17704941      16.48950798      19.48730632       78       0.00021945       0.00013451      -0.00012332
I        3.76631875      13.64868567      22.12022504       79       0.00046982      -0.00049139      -0.00004296
Cs      12.92889523       8.44330638       3.16073210       80      -0.00022915       0.00030030      -0.00019996
Cs       9.06869382       3.86553423       3.16021085       81       0.00008681       0.00011666      -0.00002752
Cs      13.40070551       0.71460214       9.47867636       82      -0.00019968       0.00033267      -0.00002011
Cs      17.25914777       5.29040270       9.47944931       83      -0.00000548       0.00048888       0.00014841
Pb       8.83207376       0.00084802      -0.00055210       84       0.00016648       0.00013955       0.00014007
Pb      13.16390367       4.57824476       0.00009012       85       0.00010446      -0.00007838       0.00019395
Pb       8.83235265       0.00106991       6.31943869       86       0.00014342       0.00062940       0.00000023
Pb      13.16423269       4.57877409       6.31973620       87       0.00013365      -0.00062910       0.00000931
I       10.50880392       6.39808339       0.52771620       88      -0.00010149      -0.00022895      -0.00005557
I       11.48760007       1.82186464       0.52564632       89       0.00004488      -0.00030002       0.00023605
I       16.76287811       0.08742719       3.15939520       90      -0.00039737      -0.00003882      -0.00035410
I       15.81928158       2.75959954      12.11266797       91      -0.00004115      -0.00000457      -0.00000257
I       14.84025858       7.33662225      12.11357828       92       0.00017274      -0.00026002       0.00001693
I       13.89798622       4.66419859       3.16013783       93       0.00014066      -0.00023821      -0.00007838
I       10.50861917       6.39798998       5.79306218       94      -0.00015321      -0.00006908       0.00009715
I       11.48841470       1.82117891       5.79389311       95       0.00000181       0.00034941      -0.00009678
I        9.56738002       9.06866007       9.48036711       96      -0.00026672      -0.00011288       0.00029677
I       15.82045203       2.75840845       6.84579846       97      -0.00031974       0.00012041      -0.00000754
I       14.84038117       7.33499202       6.84669404       98       0.00021891       0.00013364      -0.00012334
I       12.42965042       4.49416956       9.47961260       99       0.00046977      -0.00049146      -0.00004213
Cs      12.92855257       8.44513597      15.79976158      100      -0.00023248       0.00033907      -0.00017991
Cs       9.06835198       3.86737577      15.79924366      101       0.00007873       0.00008275      -0.00002799
Cs      13.40036248       0.71643744      22.11771070      102      -0.00020073       0.00033676      -0.00002996
Cs      17.25880289       5.29223231      22.11847773      103       0.00000454       0.00052749       0.00017468
Pb       8.83173367       0.00270054      12.63848350      104       0.00014759       0.00003882       0.00012271
Pb      13.16355632       4.58010868      12.63914166      105       0.00012960      -0.00024846       0.00008058
Pb       8.83202218       0.00291985      18.95849190      106       0.00006703       0.00054433      -0.00012455
Pb      13.16389317       4.58060676      18.95875461      107       0.00011142      -0.00060892       0.00009637
I       10.50846544       6.39991353      13.16674856      108      -0.00013024      -0.00019352      -0.00005325
I       11.48724295       1.82368198      13.16467798      109       0.00012944      -0.00018666       0.00024257
I       16.76253415       0.08926008      15.79840680      110      -0.00039267      -0.00002012      -0.00022559
I       15.81892260       2.76145568      24.75170175      111       0.00005452      -0.00012718      -0.00000874
I       14.83991746       7.33846141      24.75261255      112       0.00015997      -0.00027960       0.00000773
I       13.89764326       4.66603398      15.79916758      113       0.00013922      -0.00023468      -0.00006082
I       10.50826667       6.39983669      18.43209755      114      -0.00009714      -0.00013406       0.00008125
I       11.48806444       1.82300596      18.43292424      115       0.00004423       0.00040327      -0.00008691
I        9.56703694       9.07049700      22.11941555      116      -0.00026756      -0.00011872       0.00020135
I       15.82011489       2.76023845      19.48483134      117      -0.00035619       0.00015634      -0.00000833
I       14.84004699       7.33683914      19.48572994      118       0.00016441       0.00006605      -0.00014257
I       12.42930597       4.49600784      22.11866952      119       0.00047728      -0.00050547      -0.00018843
Cs      12.92962244      17.59664073       3.16206959      120      -0.00023428       0.00033676      -0.00017569
Cs       9.06942025      13.01888023       3.16155268      121       0.00008647       0.00008220      -0.00002973
Cs      13.40143154       9.86794148       9.48002036      122      -0.00019759       0.00033867      -0.00003545
Cs      17.25987357      14.44373663       9.48078634      123      -0.00000197       0.00052784       0.00017540
Pb       8.83280254       9.15420482       0.00079266      124       0.00015179       0.00003927       0.00012019
Pb      13.16462709      13.73161317       0.00144468      125       0.00012232      -0.00024921       0.00011444
Pb       8.83308553       9.15442475       6.32080346      126       0.00010383       0.00054108      -0.00014148
Pb      13.16496197      13.73211131       6.32106372      127       0.00011595      -0.00060992       0.00009415
I       10.50953455      15.55141828       0.52905758      128      -0.00012735      -0.00019593      -0.00005501
I       11.48831212      10.97518578       0.52698712      129       0.00013198      -0.00018319       0.00024010
I       16.76360314       9.24076439       3.16071745      130      -0.00038915      -0.00001977      -0.00023703
I       15.81999320      11.91295920      12.11401008      131       0.00004836      -0.00012207      -0.00000637
I       14.84098796      16.48996674      12.11492081      132       0.00015441      -0.00028540       0.00001051
I       13.89871250      13.81753826       3.16148006      133       0.00014123      -0.00023421      -0.00008305
I       10.50933938      15.55133827       5.79440615      134      -0.00011559      -0.00011761       0.00008204
I       11.48913703      10.97451285       5.79523281      135       0.00002643       0.00038832      -0.00008597
I        9.56810707      18.22200138       9.48172350      136      -0.00027083      -0.00011881       0.00020618
I       15.82118210      11.91174488       6.84714012      137      -0.00034217       0.00014411      -0.00000868
I       14.84111396      16.48834119       6.84803872      138       0.00017984       0.00007971      -0.00014292
I       12.43037597      13.64751221       9.48097374      139       0.00047482      -0.00050553      -0.00016175
Cs      12.92927809      17.59848240      15.80110709      140      -0.00022731       0.00030195      -0.00020444
Cs       9.06907830      13.02071053      15.80058477      141       0.00007904       0.00011668      -0.00002575
Cs      13.40108921       9.86977866      22.11904970      142      -0.00020287       0.00033132      -0.00001490
Cs      17.25952985      14.44557917      22.11982364      143       0.00000100       0.00048789       0.00014774
Pb       8.83245759       9.15602405      12.63982169      144       0.00016259       0.00014104       0.00014260
Pb      13.16428564      13.73342106      12.64047005      145       0.00011177      -0.00007837       0.00016010
Pb       8.83274199       9.15624532      18.95981008      146       0.00010691       0.00063458       0.00001716
Pb      13.16461653      13.73395076      18.96011003      147       0.00012970      -0.00063113       0.00001157
I       10.50918768      15.55325910      13.16809013      148      -0.00010506      -0.00022540      -0.00005385
I       11.48798373      10.97704161      13.16602014      149       0.00004185      -0.00030407       0.00023846
I       16.76326191       9.24260358      15.79976785      150      -0.00040106      -0.00003932      -0.00034455
I       15.81966364      11.91477677      24.75304259      151      -0.00003455      -0.00001017      -0.00000489
I       14.84064070      16.49179737      24.75395299      152       0.00017903      -0.00025303       0.00001403
I       13.89836973      13.81937491      15.80050829      153       0.00013864      -0.00023833      -0.00005613
I       10.50899951      15.55316867      18.43343652      154      -0.00013638      -0.00008333       0.00009647
I       11.48879479      10.97635261      18.43426749      155       0.00001998       0.00036475      -0.00009773
I        9.56776263      18.22383629      22.12074246      156      -0.00026343      -0.00011243       0.00029006
I       15.82083766      11.91358258      19.48617262      157      -0.00033428       0.00013322      -0.00000718
I       14.84076667      16.49017025      19.48706819      158       0.00020504       0.00012211      -0.00012296
I       12.43003321      13.64934582      22.11999133      159       0.00047207      -0.00049125      -0.00006883
