160
Lattice="18.19061084532717 0.0 0.0 0.0 19.22475024252611 0.0 0.0 0.0 26.542490963708584" Properties=species:S:1:pos:R:3 pbc="T T T"
Cs       4.48530401       8.86420615       3.31781138
Cs       0.43482277       4.05807864       3.31781138
Cs       4.98247548       0.74810888       9.95343412
Cs       9.03295672       5.55435650       9.95343412
Pb       0.18623177       0.00001544       0.00000085
Pb       4.54765271       4.80618756       0.00000000
Pb       0.18623177       0.00001544       6.63562191
Pb       4.73388448       4.80617208       6.63562359
I        1.94630061       6.71772928       0.55156576
I        2.97382177       1.91153689       0.55162248
I        8.51116475       0.09067805       3.31781138
I        7.52147448       2.89465063      12.71962302
I        6.49395332       7.70083337      12.71967973
I        5.50424904       4.89680413       3.31781138
I        1.94630061       6.71772928       6.08405699
I        2.97382177       1.91153689       6.08400028
I        0.95659633       9.52175851       9.95343412
I        7.52147448       2.89465063       7.18724522
I        6.49395332       7.70083337       7.18718851
I        3.96351204       4.71550947       9.95343412
Cs       4.48530401       8.86420615      16.58905686
Cs       0.43482277       4.05807864      16.58905686
Cs       4.98247548       0.74810888      23.22467960
Cs       9.03295672       5.55435650      23.22467960
Pb       0.18623177       0.00001544      13.27124633
Pb       4.54765271       4.80618756      13.27124548
Pb       0.18623177       0.00001544      19.90686739
Pb       4.73388448       4.80617208      19.90686907
I        1.94630061       6.71772928      13.82281125
I        2.97382177       1.91153689      13.82286796
I        8.51116475       0.09067805      16.58905686
I        7.52147448       2.89465063      25.99086850
I        6.49395332       7.70083337      25.99092521
I        5.50424904       4.89680413      16.58905686
I        1.94630061       6.71772928      19.35530247
I        2.97382177       1.91153689      19.35524576
I        0.95659633       9.52175851      23.22467960
I        7.52147448       2.89465063      20.45849070
I        6.49395332       7.70083337      20.45843399
I        3.96351204       4.71550947      23.22467960
Cs       4.48530401      18.47658127       3.31781138
Cs       0.43482277      13.67045376       3.31781138
Cs       4.98247548      10.36048400       9.95343412
Cs       9.03295672      15.16673162       9.95343412
Pb       0.18623177       9.61239056       0.00000085
Pb       4.54765271      14.41856268       0.00000000
Pb       0.18623177       9.61239056       6.63562191
Pb       4.73388448      14.41854720       6.63562359
I        1.94630061      16.33010440       0.55156576
I        2.97382177      11.52391202       0.55162248
I        8.51116475       9.70305317       3.31781138
I        7.52147448      12.50702575      12.71962302
I        6.49395332      17.31320849      12.71967973
I        5.50424904      14.50917925       3.31781138
I        1.94630061      16.33010440       6.08405699
I        2.97382177      11.52391202       6.08400028
I        0.95659633      19.13413364       9.95343412
I        7.52147448      12.50702575       7.18724522
I        6.49395332      17.31320849       7.18718851
I        3.96351204      14.32788459       9.95343412
Cs       4.48530401      18.47658127      16.58905686
Cs       0.43482277      13.67045376      16.58905686
Cs       4.98247548      10.36048400      23.22467960
Cs       9.03295672      15.16673162      23.22467960
Pb       0.18623177       9.61239056      13.27124633
Pb       4.54765271      14.41856268      13.27124548
Pb       0.18623177       9.61239056      19.90686739
Pb       4.73388448      14.41854720      19.90686907
I        1.94630061      16.33010440      13.82281125
I        2.97382177      11.52391202      13.82286796
I        8.51116475       9.70305317      16.58905686
I        7.52147448      12.50702575      25.99086850
I        6.49395332      17.31320849      25.99092521
I        5.50424904      14.50917925      16.58905686
I        1.94630061      16.33010440      19.35530247
I        2.97382177      11.52391202      19.35524576
I        0.95659633      19.13413364      23.22467960
I        7.52147448      12.50702575      20.45849070
I        6.49395332      17.31320849      20.45843399
I        3.96351204      14.32788459      23.22467960
Cs      13.58060943       8.86420615       3.31781138
Cs       9.53012820       4.05807864       3.31781138
Cs      14.07778091       0.74810888       9.95343412
Cs      18.12826214       5.55435650       9.95343412
Pb       9.28153719       0.00001544       0.00000085
Pb      13.64295813       4.80618756       0.00000000
Pb       9.28153719       0.00001544       6.63562191
Pb      13.82918990       4.80617208       6.63562359
I       11.04160603       6.71772928       0.55156576
I       12.06912719       1.91153689       0.55162248
I       17.60647017       0.09067805       3.31781138
I       16.61677990       2.89465063      12.71962302
I       15.58925874       7.70083337      12.71967973
I       14.59955446       4.89680413       3.31781138
I       11.04160603       6.71772928       6.08405699
I       12.06912719       1.91153689       6.08400028
I       10.05190175       9.52175851       9.95343412
I       16.61677990       2.89465063       7.18724522
I       15.58925874       7.70083337       7.18718851
I       13.05881746       4.71550947       9.95343412
Cs      13.58060943       8.86420615      16.58905686
Cs       9.53012820       4.05807864      16.58905686
Cs      14.07778091       0.74810888      23.22467960
Cs      18.12826214       5.55435650      23.22467960
Pb       9.28153719       0.00001544      13.27124633
Pb      13.64295813       4.80618756      13.27124548
Pb       9.28153719       0.00001544      19.90686739
Pb      13.82918990       4.80617208      19.90686907
I       11.04160603       6.71772928      13.82281125
I       12.06912719       1.91153689      13.82286796
I       17.60647017       0.09067805      16.58905686
I       16.61677990       2.89465063      25.99086850
I       15.58925874       7.70083337      25.99092521
I       14.59955446       4.89680413      16.58905686
I       11.04160603       6.71772928      19.35530247
I       12.06912719       1.91153689      19.35524576
I       10.05190175       9.52175851      23.22467960
I       16.61677990       2.89465063      20.45849070
I       15.58925874       7.70083337      20.45843399
I       13.05881746       4.71550947      23.22467960
Cs      13.58060943      18.47658127       3.31781138
Cs       9.53012820      13.67045376       3.31781138
Cs      14.07778091      10.36048400       9.95343412
Cs      18.12826214      15.16673162       9.95343412
Pb       9.28153719       9.61239056       0.00000085
Pb      13.64295813      14.41856268       0.00000000
Pb       9.28153719       9.61239056       6.63562191
Pb      13.82918990      14.41854720       6.63562359
I       11.04160603      16.33010440       0.55156576
I       12.06912719      11.52391202       0.55162248
I       17.60647017       9.70305317       3.31781138
I       16.61677990      12.50702575      12.71962302
I       15.58925874      17.31320849      12.71967973
I       14.59955446      14.50917925       3.31781138
I       11.04160603      16.33010440       6.08405699
I       12.06912719      11.52391202       6.08400028
I       10.05190175      19.13413364       9.95343412
I       16.61677990      12.50702575       7.18724522
I       15.58925874      17.31320849       7.18718851
I       13.05881746      14.32788459       9.95343412
Cs      13.58060943      18.47658127      16.58905686
Cs       9.53012820      13.67045376      16.58905686
Cs      14.07778091      10.36048400      23.22467960
Cs      18.12826214      15.16673162      23.22467960
Pb       9.28153719       9.61239056      13.27124633
Pb      13.64295813      14.41856268      13.27124548
Pb       9.28153719       9.61239056      19.90686739
Pb      13.82918990      14.41854720      19.90686907
I       11.04160603      16.33010440      13.82281125
I       12.06912719      11.52391202      13.82286796
I       17.60647017       9.70305317      16.58905686
I       16.61677990      12.50702575      25.99086850
I       15.58925874      17.31320849      25.99092521
I       14.59955446      14.50917925      16.58905686
I       11.04160603      16.33010440      19.35530247
I       12.06912719      11.52391202      19.35524576
I       10.05190175      19.13413364      23.22467960
I       16.61677990      12.50702575      20.45849070
I       15.58925874      17.31320849      20.45843399
I       13.05881746      14.32788459      23.22467960
