10
Lattice="8.05602955789882 -1.5161756979713512 -2.6641122984851946 6.730349312682387 10.257842184865842 0.5701571059571405 -1.3739994809891314 4.1079077749353345 7.451900087175533" Properties=species:S:1:pos:R:3:spacegroup_kinds:I:1:forces:R:3 spacegroup="P 1" unit_cell=conventional occupancy="_JSON {\"0\": {\"Cs\": 1.0}, \"1\": {\"Cs\": 1.0}, \"2\": {\"K\": 1.0}, \"3\": {\"In\": 1.0}, \"4\": {\"I\": 1.0}, \"5\": {\"I\": 1.0}, \"6\": {\"I\": 1.0}, \"7\": {\"I\": 1.0}, \"8\": {\"I\": 1.0}, \"9\": {\"I\": 1.0}}" energy=-25.77578081196452 free_energy=-25.77578081196452 stress="8.312200687106927e-07 -6.270636827766562e-07 -8.399782848034952e-07 -6.270636827766562e-07 -3.8408358487525345e-07 2.0827443245976383e-06 -8.399782848034952e-07 2.0827443245976383e-06 2.468798078425111e-06" pbc="T T T"
Cs       4.91910718       1.43972459       0.11257240        0       0.00022033      -0.00017676       0.00048204
Cs       8.49299814      11.41015114       5.24422269        1      -0.00000121      -0.00018115       0.00041593
K        6.70611466       6.42473428       2.67905421        2       0.00000174       0.00002027      -0.00022173
In       8.05612512      -1.51634347      -2.66381136        3      -0.00028195       0.00017676      -0.00047474
I        5.43399264       9.72850139       3.21143953        4      -0.00015358      -0.00006991      -0.00022383
I        7.97879475       3.12107249       2.14717240        5      -0.00018866       0.00017459      -0.00014647
I        9.14702764       8.75900844       1.49204201        6       0.00005834       0.00004447       0.00012227
I        4.26550366       4.09029897       3.86583280        7       0.00015424      -0.00000998       0.00013552
I        9.20480462       1.03997219      -1.62357501        8       0.00008231      -0.00016661       0.00018840
I        4.20726727      11.80977893       6.98168610        9       0.00010844       0.00018831      -0.00027738
