10
Lattice="8.941376136350573 -2.476898847100477 0.5882271508138409 -2.279678345345202 8.9345189360411 -1.2172394595080838 -0.263591268707024 1.1276363600042194 8.751859460461011" Properties=species:S:1:pos:R:3:spacegroup_kinds:I:1:forces:R:3 spacegroup="P 1" unit_cell=conventional occupancy="_JSON {\"0\": {\"Cs\": 1.0}, \"1\": {\"Cs\": 1.0}, \"2\": {\"K\": 1.0}, \"3\": {\"In\": 1.0}, \"4\": {\"I\": 1.0}, \"5\": {\"I\": 1.0}, \"6\": {\"I\": 1.0}, \"7\": {\"I\": 1.0}, \"8\": {\"I\": 1.0}, \"9\": {\"I\": 1.0}}" energy=-25.793813826639408 free_energy=-25.793813826639408 stress="-7.066644363924856e-06 8.264258448132451e-07 -5.515220022489778e-07 8.264258448132451e-07 7.282560953319697e-06 2.854167871285008e-06 -5.515220022489778e-07 2.854167871285008e-06 -6.154291120314579e-06" pbc="T T T"
Cs       4.50603417       1.53407627      -0.03668146        0      -0.00007008      -0.00018501      -0.00017372
Cs       0.50293012       6.45818293       8.06659696        1       0.00019477       0.00025702      -0.00034233
K        8.11583533      -1.70978165       4.91703700        2      -0.00027716       0.00008331       0.00003169
In       8.24674623      -2.27327227       0.54060553        3       0.00018955      -0.00026174       0.00029984
I        7.61102418       0.29760177       1.97280471        4      -0.00000812       0.00041677      -0.00000832
I        6.33926583       5.21739126       6.64407387        5       0.00031290       0.00004559      -0.00016880
I        0.85241003       2.78832347       6.79000768        6      -0.00051868      -0.00042644       0.00019921
I        4.15712849       5.20467852       1.23840211        7      -0.00021424      -0.00053417       0.00000459
I       -0.68615758       8.69899552       0.64234361        8       0.00019842       0.00022272      -0.00002935
I        5.69499547      -0.70721436       7.38567753        9       0.00019264       0.00038196       0.00018718
