10
Lattice="10.701538015338604 0.0 0.0 -0.40357013918382106 7.877977569410196 0.0 -0.13009480911854557 1.9465195556906496 7.121437186219442" Properties=species:S:1:pos:R:3 pbc="T T T"
Cs       6.07936533       2.64389967       0.02263139
Cs       2.24839630       7.20401549       7.09871625
K       -0.06504740       0.97325978       3.56071859
In      -0.92006038       0.01171569       0.00003108
I       -1.02841061       2.47548165       1.42458914
I        9.35616438       7.37249875       5.69685108
I        1.68833342       3.62554878       5.69687105
I        6.63941605       6.22231432       1.42460911
I        1.44514684       8.26145118       1.42459724
I        6.88262487       1.58646494       5.69685918
