40
Lattice="16.18612454813394 0.0 0.0 8.386598977995368 17.348272194752006 0.0 1.7210374363653604 1.9678721063144702 7.870219314057707" Properties=species:S:1:pos:R:3 pbc="T T T"
Cs       3.50167804       2.66045056       1.96759991
Cs      10.50572093       7.98155623       5.90261847
K        7.00369934       5.32100312       3.93510903
In       0.00000030       0.00000085       0.00000038
I        5.86943612       1.13200309       3.49859421
I        8.13796247       9.51000254       4.37162391
I       11.86139696       3.13340304       3.75784929
I        2.14599872       7.50860304       4.11236785
I        6.38947839       5.38206491      -0.10004393
I        7.61792089       5.25994647       7.97026532
Cs       7.69497753      11.33458666       1.96759991
Cs      14.69902042      16.65569233       5.90261847
K       11.19699883      13.99513922       3.93510903
In       4.19329978       8.67413694       0.00000038
I       10.06273561       9.80613918       3.49859421
I       12.33126196      18.18413864       4.37162391
I       16.05469645      11.80753914       3.75784929
I        6.33929821      16.18273914       4.11236785
I       10.58277788      14.05620101      -0.10004393
I       11.81122038      13.93408257       7.97026532
Cs      11.59474032       2.66045056       1.96759991
Cs      18.59878320       7.98155623       5.90261847
K       15.09676161       5.32100312       3.93510903
In       8.09306257       0.00000085       0.00000038
I       13.96249840       1.13200309       3.49859421
I       16.23102474       9.51000254       4.37162391
I       19.95445923       3.13340304       3.75784929
I       10.23906099       7.50860304       4.11236785
I       14.48254066       5.38206491      -0.10004393
I       15.71098316       5.25994647       7.97026532
Cs      15.78803981      11.33458666       1.96759991
Cs      22.79208269      16.65569233       5.90261847
K       19.29006110      13.99513922       3.93510903
In      12.28636206       8.67413694       0.00000038
I       18.15579789       9.80613918       3.49859421
I       20.42432423      18.18413864       4.37162391
I       24.14775872      11.80753914       3.75784929
I       14.43236048      16.18273914       4.11236785
I       18.67584015      14.05620101      -0.10004393
I       19.90428265      13.93408257       7.97026532
