5
Lattice="5.169688353216603 0.0 0.0 -0.5260379756673536 5.849995245231273 0.0 -1.8727856253105273 2.8245581100848542 6.037178557545281" Properties=species:S:1:pos:R:3:oxi_states:R:1 pbc="T T T"
Cs       1.38543594       4.33727312       3.01858928       1.00000000
Pb      -0.00000000      -0.00000000       0.00000000       2.00000000
I       -0.93639281       1.41227906       3.01858928      -1.00000000
I        2.58484418       0.00000000      -0.00000000      -1.00000000
I       -0.26301899       2.92499762       0.00000000      -1.00000000
