5
Lattice="6.3193672827749126 0.3435849855155591 0.8638328131998545 -0.12931603378470433 6.207953103279564 -1.4952730963258258 -0.9166306897702458 1.465640001901229 6.148618408402013" Properties=species:S:1:pos:R:3:spacegroup_kinds:I:1:forces:R:3 spacegroup="P 1" unit_cell=conventional occupancy="_JSON {\"0\": {\"Cs\": 1.0}, \"1\": {\"Pb\": 1.0}, \"2\": {\"I\": 1.0}, \"3\": {\"I\": 1.0}, \"4\": {\"I\": 1.0}}" energy=-13.980739586193774 free_energy=-13.980739586193774 stress="4.314614508158625e-06 1.3707005055515208e-05 9.564205555086543e-06 1.3707005055515208e-05 4.956498926638513e-07 1.465401782787509e-05 9.564205555086543e-06 1.465401782787509e-05 -5.0239976325700815e-06" pbc="T T T"
Cs       2.63671682       4.00858634       2.75858604        0       0.00000017       0.00000007      -0.00000008
Pb      -0.12931760       6.20795472      -1.49527710        1       0.00000084      -0.00000158       0.00000854
I       -0.45831329       0.73281744       3.07431685        2       0.00000132      -0.00000290      -0.00001151
I        3.15968365       0.17179448       0.43191657        3      -0.00000190      -0.00000013       0.00000197
I       -0.06466101       3.10397464      -0.74763589        4      -0.00000043       0.00000455       0.00000107
