10
Lattice="8.725875915878456 -0.27498180890022045 -0.1827306781092705 4.12629315237725 7.670807564899043 -0.17277999081014084 4.133571761067383 2.3832622754375707 7.3812423215575125" Properties=species:S:1:pos:R:3:spacegroup_kinds:I:1:forces:R:3 spacegroup="P 1" unit_cell=conventional occupancy="_JSON {\"0\": {\"Cs\": 1.0}, \"1\": {\"Cs\": 1.0}, \"2\": {\"K\": 1.0}, \"3\": {\"In\": 1.0}, \"4\": {\"I\": 1.0}, \"5\": {\"I\": 1.0}, \"6\": {\"I\": 1.0}, \"7\": {\"I\": 1.0}, \"8\": {\"I\": 1.0}, \"9\": {\"I\": 1.0}}" energy=-25.648944609275848 free_energy=-25.648944609275848 stress="3.385638999199836e-07 -6.354719829283954e-07 1.6543579202439982e-06 -6.354719829283954e-07 -9.503282046388529e-08 1.0768534305469184e-06 1.6543579202439982e-06 1.0768534305469184e-06 1.5233467298025054e-06" pbc="T T T"
Cs       4.10178112       2.34571268       1.68158486        0       0.00007342       0.00014964      -0.00026506
Cs      12.88424547       7.43340332       5.34485858        1       0.00000297      -0.00002106      -0.00044136
K        8.49308231       4.88950310       3.51260349        2      -0.00002179       0.00026490       0.00006883
In       8.72583906      -0.27490273      -0.18307558        3       0.00007347      -0.00002037       0.00038578
I        8.76252874       1.66424066       2.07973748        4       0.00014405      -0.00051284       0.00060721
I        8.22218169       8.11580577       4.94461932        5       0.00037649      -0.00015935       0.00078003
I        2.38809371       5.86659813       1.42672009        6      -0.00074877      -0.00002933      -0.00042155
I       14.59925433       3.91250229       5.60010233        7      -0.00080432      -0.00011442      -0.00021499
I        6.52791684       6.30634323       0.93637202        8       0.00034541       0.00018361      -0.00020690
I       10.45678340       3.47170296       6.08953623        9       0.00055907       0.00025922      -0.00029199
