80
Lattice="17.303348023218508 0.0 0.0 -8.801998865852424 15.24550924382004 0.0 0.0 0.0 20.132376334477144" Properties=species:S:1:pos:R:3 pbc="T T T"
Cs       5.04638566       1.85993642      10.05669670
Cs       0.69549451       4.40085463       0.00943028
K        0.74560467      -0.68097936       5.03309038
In       0.74561095      -0.68098740       0.00000936
I        7.12854474      -0.67569507       2.01355587
I       -1.38667032       6.93646325       8.05262228
I        1.86477672       1.31524236       2.01356683
I        3.87712095       4.94555604       8.05263323
I        6.14584215       4.94025641       2.01356424
I       -0.40396046       1.32053903       8.05263064
Cs       5.04638566       1.85993642      20.12288487
Cs       0.69549451       4.40085463      10.07561844
K        0.74560467      -0.68097936      15.09927855
In       0.74561095      -0.68098740      10.06619753
I        7.12854474      -0.67569507      12.07974404
I       -1.38667032       6.93646325      18.11881045
I        1.86477672       1.31524236      12.07975499
I        3.87712095       4.94555604      18.11882140
I        6.14584215       4.94025641      12.07975240
I       -0.40396046       1.32053903      18.11881881
Cs       0.64538623       9.48269104      10.05669670
Cs      -3.70550492      12.02360925       0.00943028
K       -3.65539477       6.94177526       5.03309038
In      -3.65538848       6.94176722       0.00000936
I        2.72754531       6.94705956       2.01355587
I       -5.78766975      14.55921787       8.05262228
I       -2.53622271       8.93799698       2.01356683
I       -0.52387848      12.56831066       8.05263323
I        1.74484272      12.56301103       2.01356424
I       -4.80495989       8.94329366       8.05263064
Cs       0.64538623       9.48269104      20.12288487
Cs      -3.70550492      12.02360925      10.07561844
K       -3.65539477       6.94177526      15.09927855
In      -3.65538848       6.94176722      10.06619753
I        2.72754531       6.94705956      12.07974404
I       -5.78766975      14.55921787      18.11881045
I       -2.53622271       8.93799698      12.07975499
I       -0.52387848      12.56831066      18.11882140
I        1.74484272      12.56301103      12.07975240
I       -4.80495989       8.94329366      18.11881881
Cs      13.69805967       1.85993642      10.05669670
Cs       9.34716853       4.40085463       0.00943028
K        9.39727868      -0.68097936       5.03309038
In       9.39728496      -0.68098740       0.00000936
I       15.78021875      -0.67569507       2.01355587
I        7.26500369       6.93646325       8.05262228
I       10.51645073       1.31524236       2.01356683
I       12.52879496       4.94555604       8.05263323
I       14.79751616       4.94025641       2.01356424
I        8.24771355       1.32053903       8.05263064
Cs      13.69805967       1.85993642      20.12288487
Cs       9.34716853       4.40085463      10.07561844
K        9.39727868      -0.68097936      15.09927855
In       9.39728496      -0.68098740      10.06619753
I       15.78021875      -0.67569507      12.07974404
I        7.26500369       6.93646325      18.11881045
I       10.51645073       1.31524236      12.07975499
I       12.52879496       4.94555604      18.11882140
I       14.79751616       4.94025641      12.07975240
I        8.24771355       1.32053903      18.11881881
Cs       9.29706024       9.48269104      10.05669670
Cs       4.94616909      12.02360925       0.00943028
K        4.99627925       6.94177526       5.03309038
In       4.99628553       6.94176722       0.00000936
I       11.37921932       6.94705956       2.01355587
I        2.86400426      14.55921787       8.05262228
I        6.11545130       8.93799698       2.01356683
I        8.12779553      12.56831066       8.05263323
I       10.39651673      12.56301103       2.01356424
I        3.84671412       8.94329366       8.05263064
Cs       9.29706024       9.48269104      20.12288487
Cs       4.94616909      12.02360925      10.07561844
K        4.99627925       6.94177526      15.09927855
In       4.99628553       6.94176722      10.06619753
I       11.37921932       6.94705956      12.07974404
I        2.86400426      14.55921787      18.11881045
I        6.11545130       8.93799698      12.07975499
I        8.12779553      12.56831066      18.11882140
I       10.39651673      12.56301103      12.07975240
I        3.84671412       8.94329366      18.11881881
