20
Lattice="17.44830186398161 -0.5236393108575014 -0.3998102159376508 4.136647567665658 7.751940944387499 -0.21445883233234742 4.131795755678764 2.3889108881080467 7.292865963044938" Properties=species:S:1:pos:R:3:spacegroup_kinds:I:1:forces:R:3 spacegroup="P 1" unit_cell=conventional occupancy="_JSON {\"0\": {\"Cs\": 1.0}, \"1\": {\"Cs\": 1.0}, \"2\": {\"K\": 1.0}, \"3\": {\"In\": 1.0}, \"4\": {\"I\": 1.0}, \"5\": {\"I\": 1.0}, \"6\": {\"I\": 1.0}, \"7\": {\"I\": 1.0}, \"8\": {\"I\": 1.0}, \"9\": {\"I\": 1.0}, \"10\": {\"Cs\": 1.0}, \"11\": {\"Cs\": 1.0}, \"12\": {\"K\": 1.0}, \"13\": {\"In\": 1.0}, \"14\": {\"I\": 1.0}, \"15\": {\"I\": 1.0}, \"16\": {\"I\": 1.0}, \"17\": {\"I\": 1.0}, \"18\": {\"I\": 1.0}, \"19\": {\"I\": 1.0}}" energy=-51.29786989755161 free_energy=-51.29786989755161 stress="4.886588433718363e-06 2.249353402217485e-06 1.2518604613795746e-06 2.249353402217485e-06 -1.8427625696369666e-08 -1.291074751691772e-06 1.2518604613795746e-06 -1.291074751691772e-06 -8.99823457251643e-06" pbc="T T T"
Cs       4.08566110       2.38120452       1.67224606        0      -0.00013527      -0.00016722       0.00057915
Cs      12.90741886       7.49864848       5.20499893        1      -0.00032640      -0.00020340       0.00069066
K        8.49659481       4.93858718       3.43955901        2      -0.00027434       0.00069299      -0.00006271
In      17.44845242      -0.52393723      -0.39970738        3      -0.00020352       0.00013241      -0.00026011
I        8.76054930       1.70830335       2.02863848        4       0.00020750       0.00019414      -0.00018792
I        8.23147764       8.17030714       4.85014219        5       0.00035657       0.00017041      -0.00012393
I       11.16666506       5.67703273       1.23721437        6       0.00024386      -0.00019532       0.00000667
I        5.82513530       4.20196426       5.64098803        7       0.00037231       0.00006243       0.00012349
I        6.57308013       6.44232051       0.87804840        8       0.00006915      -0.00027562      -0.00036392
I       10.41996363       3.43756385       6.00133157        9      -0.00041358      -0.00038673      -0.00051229
Cs      12.80981403       2.11937782       1.47233433       10      -0.00015119      -0.00016379       0.00057933
Cs      21.63157025       7.23683744       5.00509765       11      -0.00031275      -0.00020636       0.00069561
K       17.22075254       4.67676172       3.23965064       12      -0.00029561       0.00071324      -0.00005361
In       8.72428220      -0.26210563      -0.19984380       13      -0.00010854       0.00012294       0.00005624
I       17.48469477       1.44645977       1.82871762       14       0.00020955       0.00029600      -0.00009736
I       16.95562264       7.90853062       4.65027040       15       0.00035860      -0.00000928      -0.00029639
I       19.89081566       5.41522391       1.03731821       16       0.00022669      -0.00023411       0.00000303
I       14.54927264       3.94012477       5.44108552       17       0.00045361       0.00014930       0.00007217
I       15.29724042       6.18048159       0.67813181       18       0.00000420      -0.00022129      -0.00034652
I       19.14409119       3.17575854       5.80143006       19      -0.00028083      -0.00047074      -0.00050160
