20
Lattice="17.470486383236395 0.0 0.0 4.329400499324293 9.842928164042064 0.0 8.07160525718481 2.0240380934195943 4.8651161004822425" Properties=species:S:1:pos:R:3 pbc="T T T"
Cs       5.28402356       2.96673019       1.21628786
Cs      15.85222531       8.90023575       3.64882803
K       10.56812454       5.93348297       2.43255795
In       0.00000012       0.00000024       0.00000009
I        9.60958019       3.30714485       3.15754785
I       11.52666887       8.55982096       1.70756804
I       10.51801829       2.94905219       1.51198370
I       10.61823013       8.91791367       3.35313199
I        7.40513259       7.68309059       0.74927342
I       13.73111661       4.18387646       4.11584316
Cs      14.01926675       2.96673019       1.21628786
Cs      24.58746850       8.90023575       3.64882803
K       19.30336774       5.93348297       2.43255795
In       8.73524332       0.00000024       0.00000009
I       18.34482338       3.30714485       3.15754785
I       20.26191206       8.55982096       1.70756804
I       19.25326148       2.94905219       1.51198370
I       19.35347332       8.91791367       3.35313199
I       16.14037578       7.68309059       0.74927342
I       22.46635981       4.18387646       4.11584316
