20
Lattice="16.55775893024554 1.0260691067199001 -1.2933739918521427 4.584488681002586 9.413294561525188 2.0782263405709953 7.252353433710912 3.518062329820504 6.871235171704638" Properties=species:S:1:pos:R:3:spacegroup_kinds:I:1:forces:R:3 spacegroup="P 1" unit_cell=conventional occupancy="_JSON {\"0\": {\"Cs\": 1.0}, \"1\": {\"Cs\": 1.0}, \"2\": {\"K\": 1.0}, \"3\": {\"In\": 1.0}, \"4\": {\"I\": 1.0}, \"5\": {\"I\": 1.0}, \"6\": {\"I\": 1.0}, \"7\": {\"I\": 1.0}, \"8\": {\"I\": 1.0}, \"9\": {\"I\": 1.0}, \"10\": {\"Cs\": 1.0}, \"11\": {\"Cs\": 1.0}, \"12\": {\"K\": 1.0}, \"13\": {\"In\": 1.0}, \"14\": {\"I\": 1.0}, \"15\": {\"I\": 1.0}, \"16\": {\"I\": 1.0}, \"17\": {\"I\": 1.0}, \"18\": {\"I\": 1.0}, \"19\": {\"I\": 1.0}}" energy=-50.89705483999105 free_energy=-50.89705483999105 stress="5.149019654709944e-06 3.1754534236440356e-06 4.118557849461535e-06 3.1754534236440356e-06 -7.836092955715815e-06 -4.973068654865678e-06 4.118557849461535e-06 -4.973068654865678e-06 3.815931700532509e-06" pbc="T T T"
Cs       5.09315973       3.72895187       2.38524414        0      -0.00038492       0.00015248       0.00016003
Cs      15.02293043       9.71514671       5.91697561        1      -0.00014333       0.00038970      -0.00003275
K       10.05821884       6.72189644       4.15105202        2      -0.00008364       0.00035894      -0.00001707
In      16.55781795       1.02626932      -1.29324612        3      -0.00026175      -0.00035904       0.00013506
I        8.46075566       3.66866034       4.18727109        4       0.00065750      -0.00064370       0.00037944
I       11.65426565       9.77621522       4.11545730        5       0.00026094      -0.00022734       0.00021874
I        9.91590280       2.96196030       0.15814037        6      -0.00022167       0.00004489      -0.00017606
I       10.20015362      10.48238608       8.14494790        7      -0.00024304       0.00002662      -0.00000830
I        6.80678294       7.56388477       2.83492030        8       0.00026492       0.00029704      -0.00019395
I       13.30853187       5.88043414       5.46828175        9       0.00005994       0.00005227      -0.00020557
Cs      13.37203938       4.24198490       1.73855433       10      -0.00037828       0.00015834       0.00016774
Cs      23.30181135      10.22817967       5.27028544       11      -0.00016083       0.00039986      -0.00002515
K       18.33709799       7.23492692       3.50436275       12      -0.00008412       0.00039151      -0.00001794
In       8.27893193       0.51324295      -0.64653271       13      -0.00017630      -0.00039563      -0.00006435
I       16.73962907       4.18170612       3.54061843       14       0.00066373      -0.00066101       0.00032884
I       19.93313325      10.28926816       3.46882981       15       0.00033655      -0.00026679      -0.00003255
I       18.19478499       3.47500290      -0.48853431       16      -0.00024689       0.00000034      -0.00021693
I       18.47903620      10.99542687       7.49826924       17      -0.00027221      -0.00000337      -0.00002422
I       15.08565817       8.07692134       2.18823284       18       0.00029816       0.00027701      -0.00018219
I       21.58740595       6.39347190       4.82159536       19       0.00011522       0.00000789      -0.00019283
