20
Lattice="26.489076779633578 -0.09372628677054874 -0.42788574264678 -6.195424379415004 7.6555560929636215 -0.402003645578964 4.920012669047131 8.95883159015124 4.706672629123146" Properties=species:S:1:pos:R:3:spacegroup_kinds:I:1:forces:R:3 spacegroup="P 1" unit_cell=conventional occupancy="_JSON {\"0\": {\"Cs\": 1.0}, \"1\": {\"Cs\": 1.0}, \"2\": {\"K\": 1.0}, \"3\": {\"In\": 1.0}, \"4\": {\"I\": 1.0}, \"5\": {\"I\": 1.0}, \"6\": {\"I\": 1.0}, \"7\": {\"I\": 1.0}, \"8\": {\"I\": 1.0}, \"9\": {\"I\": 1.0}, \"10\": {\"Cs\": 1.0}, \"11\": {\"Cs\": 1.0}, \"12\": {\"K\": 1.0}, \"13\": {\"In\": 1.0}, \"14\": {\"I\": 1.0}, \"15\": {\"I\": 1.0}, \"16\": {\"I\": 1.0}, \"17\": {\"I\": 1.0}, \"18\": {\"I\": 1.0}, \"19\": {\"I\": 1.0}}" energy=-48.620351453044776 free_energy=-48.620351453044776 stress="7.768964276264237e-06 -2.2418744540953695e-06 5.74568590866901e-07 -2.2418744540953695e-06 -4.010164166140822e-06 -2.4727621177773996e-06 5.74568590866901e-07 -2.4727621177773996e-06 1.2761362115339021e-06" pbc="T T T"
Cs      13.19590904      12.08918644       4.77416088        0      -0.00001448      -0.00002547      -0.00018283
Cs       0.67533462       5.01316612      -1.56353066        1      -0.00015136       0.00000555       0.00003226
K       21.63417058       9.71153539       2.88076741        2      -0.00038797       0.00028571       0.00041291
In      -6.32620567       8.03437252      -0.36096302        3      -0.00017094       0.00025988      -0.00000463
I        5.92555598      10.70345632       0.86067423        4      -0.00013246       0.00028161      -0.00015999
I        1.61211431      14.09859277       1.77619382        5       0.00004555       0.00017965      -0.00006600
I        4.15466746       3.32824773       1.92409840        6       0.00016769      -0.00020361      -0.00012011
I       10.04418624      13.36751429       2.32941274        7      -0.00014808      -0.00025687      -0.00000023
I       12.73527054       7.98476052       0.26384258        8       0.00011189       0.00002985      -0.00030001
I        1.84637511       8.60627046       4.12385868        9       0.00009294      -0.00004574       0.00027507
Cs      26.44044041      12.04230060       4.56017126       10       0.00001570      -0.00005104      -0.00015446
Cs      13.91978147       4.96616611      -1.77734449       11       0.00000735       0.00016492      -0.00018993
K        8.38943862       9.75841455       3.09473899       12       0.00001604       0.00016652       0.00044300
In       6.91825205       7.98770359      -0.57496939       13       0.00024570      -0.00027808       0.00001301
I       19.17003176      10.65687389       0.64667808       14       0.00024089      -0.00030124      -0.00018804
I       14.85665297      14.05179921       1.56219138       15       0.00004710       0.00000558       0.00011370
I       17.39923427       3.28143516       1.71003715       16       0.00004916      -0.00009884       0.00004222
I       23.28859417      13.32051912       2.11563924       17      -0.00007206      -0.00005543      -0.00011225
I       -0.50925589       8.03171133       0.47765097       18       0.00003721      -0.00004263      -0.00004698
I       15.09092751       8.55936922       3.90999400       19       0.00000014      -0.00002032       0.00019328
