40
Lattice="12.774061740591147 -3.75511619005595e-08 -2.9788266633068314e-17 -3.7551161899268514e-08 12.774061740590938 -1.6060284928099245e-16 -3.2555869901342174e-17 -1.5975400913095476e-16 12.774061734334762" Properties=species:S:1:pos:R:3:spacegroup_kinds:I:1:forces:R:3 spacegroup="P 1" unit_cell=conventional occupancy="_JSON {\"0\": {\"Cs\": 1.0}, \"1\": {\"Pb\": 1.0}, \"2\": {\"I\": 1.0}, \"3\": {\"I\": 1.0}, \"4\": {\"I\": 1.0}, \"5\": {\"Cs\": 1.0}, \"6\": {\"Pb\": 1.0}, \"7\": {\"I\": 1.0}, \"8\": {\"I\": 1.0}, \"9\": {\"I\": 1.0}, \"10\": {\"Cs\": 1.0}, \"11\": {\"Pb\": 1.0}, \"12\": {\"I\": 1.0}, \"13\": {\"I\": 1.0}, \"14\": {\"I\": 1.0}, \"15\": {\"Cs\": 1.0}, \"16\": {\"Pb\": 1.0}, \"17\": {\"I\": 1.0}, \"18\": {\"I\": 1.0}, \"19\": {\"I\": 1.0}, \"20\": {\"Cs\": 1.0}, \"21\": {\"Pb\": 1.0}, \"22\": {\"I\": 1.0}, \"23\": {\"I\": 1.0}, \"24\": {\"I\": 1.0}, \"25\": {\"Cs\": 1.0}, \"26\": {\"Pb\": 1.0}, \"27\": {\"I\": 1.0}, \"28\": {\"I\": 1.0}, \"29\": {\"I\": 1.0}, \"30\": {\"Cs\": 1.0}, \"31\": {\"Pb\": 1.0}, \"32\": {\"I\": 1.0}, \"33\": {\"I\": 1.0}, \"34\": {\"I\": 1.0}, \"35\": {\"Cs\": 1.0}, \"36\": {\"Pb\": 1.0}, \"37\": {\"I\": 1.0}, \"38\": {\"I\": 1.0}, \"39\": {\"I\": 1.0}}" energy=-111.84593941672333 free_energy=-111.84593941672333 stress="-1.5585251436250316e-06 1.0084351385843706e-11 8.226773462774587e-18 1.0084351385843706e-11 -1.5585251655195616e-06 6.0464522031626086e-18 8.226773462774587e-18 6.0464522031626086e-18 -1.558112040547227e-06" pbc="T T T"
Cs       3.19338528       3.19364558       3.19351543        0      -0.00002729       0.00002729       0.00000000
Pb       0.00002926      -0.00002926      -0.00000000        1       0.00000068      -0.00000068      -0.00000000
I        0.00020577      -0.00020578       3.19351543        2      -0.00000768       0.00000768      -0.00000000
I        3.19357708      -0.00020579      -0.00000000        3       0.00004198       0.00000768       0.00000000
I        0.00020576       3.19345379      -0.00000000        4      -0.00000768      -0.00004198       0.00000000
Cs       3.19338528       3.19364558       9.58054630        5      -0.00002729       0.00002729       0.00000000
Pb       0.00002926      -0.00002926       6.38703087        6       0.00000068      -0.00000068       0.00000000
I        0.00020577      -0.00020578       9.58054630        7      -0.00000768       0.00000768      -0.00000000
I        3.19357708      -0.00020579       6.38703087        8       0.00004198       0.00000768       0.00000000
I        0.00020576       3.19345379       6.38703087        9      -0.00000768      -0.00004198       0.00000000
Cs       3.19338526       9.58067645       3.19351543       10      -0.00002729       0.00002729       0.00000000
Pb       0.00002924       6.38700161      -0.00000000       11       0.00000068      -0.00000068      -0.00000000
I        0.00020576       6.38682509       3.19351543       12      -0.00000768       0.00000768      -0.00000000
I        3.19357706       6.38682508      -0.00000000       13       0.00004198       0.00000768       0.00000000
I        0.00020575       9.58048466      -0.00000000       14      -0.00000768      -0.00004198       0.00000000
Cs       3.19338526       9.58067645       9.58054630       15      -0.00002729       0.00002729       0.00000000
Pb       0.00002924       6.38700161       6.38703087       16       0.00000068      -0.00000068       0.00000000
I        0.00020576       6.38682509       9.58054630       17      -0.00000768       0.00000768      -0.00000000
I        3.19357706       6.38682508       6.38703087       18       0.00004198       0.00000768       0.00000000
I        0.00020575       9.58048466       6.38703087       19      -0.00000768      -0.00004198       0.00000000
Cs       9.58041615       3.19364556       3.19351543       20      -0.00002729       0.00002729       0.00000000
Pb       6.38706013      -0.00002927      -0.00000000       21       0.00000068      -0.00000068      -0.00000000
I        6.38723664      -0.00020580       3.19351543       22      -0.00000768       0.00000768      -0.00000000
I        9.58060795      -0.00020581      -0.00000000       23       0.00004198       0.00000768       0.00000000
I        6.38723663       3.19345377      -0.00000000       24      -0.00000768      -0.00004198       0.00000000
Cs       9.58041615       3.19364556       9.58054630       25      -0.00002729       0.00002729       0.00000000
Pb       6.38706013      -0.00002927       6.38703087       26       0.00000068      -0.00000068       0.00000000
I        6.38723664      -0.00020580       9.58054630       27      -0.00000768       0.00000768      -0.00000000
I        9.58060795      -0.00020581       6.38703087       28       0.00004198       0.00000768       0.00000000
I        6.38723663       3.19345377       6.38703087       29      -0.00000768      -0.00004198       0.00000000
Cs       9.58041613       9.58067643       3.19351543       30      -0.00002729       0.00002729       0.00000000
Pb       6.38706011       6.38700160      -0.00000000       31       0.00000068      -0.00000068      -0.00000000
I        6.38723663       6.38682507       3.19351543       32      -0.00000768       0.00000768      -0.00000000
I        9.58060793       6.38682506      -0.00000000       33       0.00004198       0.00000768       0.00000000
I        6.38723662       9.58048464      -0.00000000       34      -0.00000768      -0.00004198       0.00000000
Cs       9.58041613       9.58067643       9.58054630       35      -0.00002729       0.00002729       0.00000000
Pb       6.38706011       6.38700160       6.38703087       36       0.00000068      -0.00000068       0.00000000
I        6.38723663       6.38682507       9.58054630       37      -0.00000768       0.00000768      -0.00000000
I        9.58060793       6.38682506       6.38703087       38       0.00004198       0.00000768       0.00000000
I        6.38723662       9.58048464       6.38703087       39      -0.00000768      -0.00004198       0.00000000
