20
Lattice="9.44575418065763 0.0 0.0 -3.646881234035755 6.429624153278636 0.0 -4.395820065489413 -0.5656597342015951 13.230639519040096" Properties=species:S:1:pos:R:3 pbc="T T T"
Cs       0.38492335       6.10143918       3.30765985
Cs      -1.99816171       2.88675036       3.30765985
Cs       1.78254298       0.38983086       9.92297961
Cs       4.16567515       3.60476618       9.92297961
Pb       0.38220061       0.31374019      -0.00000202
Pb       3.28165124       3.52848881      -0.00000547
Pb      -2.19791003      -0.28282987       6.61531976
Pb       1.08374121       3.24565894       6.61532517
I       -0.52127636       4.78362556       0.54982520
I        2.36927838       1.56880359       0.54994160
I        7.89455328       0.23299593       3.30765985
I        2.68875539       1.70776688      12.68065192
I       -0.20179570       4.92256906      12.68076831
I        2.94834438       3.44768182       3.30765985
I       -2.35377857       4.54781684       6.06549450
I        0.53677617       1.33299487       6.06537810
I       -5.72710727       6.25852398       9.92297961
I        4.52125760       1.94357560       7.16530730
I        1.63070651       5.15837779       7.16519091
I       -0.78088619       3.04358572       9.92297961
