40
Lattice="16.89729319596956 0.07942284428217175 0.19593088231028494 5.629746722597181 8.982417286780072 -2.5546164910184554 -0.15472233496911633 3.472483704525621 11.872948032344638" Properties=species:S:1:pos:R:3:spacegroup_kinds:I:1:forces:R:3 spacegroup="P 1" unit_cell=conventional occupancy="_JSON {\"0\": {\"Cs\": 1.0}, \"1\": {\"Cs\": 1.0}, \"2\": {\"Cs\": 1.0}, \"3\": {\"Cs\": 1.0}, \"4\": {\"Pb\": 1.0}, \"5\": {\"Pb\": 1.0}, \"6\": {\"Pb\": 1.0}, \"7\": {\"Pb\": 1.0}, \"8\": {\"I\": 1.0}, \"9\": {\"I\": 1.0}, \"10\": {\"I\": 1.0}, \"11\": {\"I\": 1.0}, \"12\": {\"I\": 1.0}, \"13\": {\"I\": 1.0}, \"14\": {\"I\": 1.0}, \"15\": {\"I\": 1.0}, \"16\": {\"I\": 1.0}, \"17\": {\"I\": 1.0}, \"18\": {\"I\": 1.0}, \"19\": {\"I\": 1.0}, \"20\": {\"Cs\": 1.0}, \"21\": {\"Cs\": 1.0}, \"22\": {\"Cs\": 1.0}, \"23\": {\"Cs\": 1.0}, \"24\": {\"Pb\": 1.0}, \"25\": {\"Pb\": 1.0}, \"26\": {\"Pb\": 1.0}, \"27\": {\"Pb\": 1.0}, \"28\": {\"I\": 1.0}, \"29\": {\"I\": 1.0}, \"30\": {\"I\": 1.0}, \"31\": {\"I\": 1.0}, \"32\": {\"I\": 1.0}, \"33\": {\"I\": 1.0}, \"34\": {\"I\": 1.0}, \"35\": {\"I\": 1.0}, \"36\": {\"I\": 1.0}, \"37\": {\"I\": 1.0}, \"38\": {\"I\": 1.0}, \"39\": {\"I\": 1.0}}" energy=-113.23993261387562 free_energy=-113.23993261387562 stress="8.432782698055603e-07 7.672079079912768e-06 -4.10659467840925e-06 7.672079079912768e-06 1.3978464201937466e-05 -5.387108614088396e-06 -4.10659467840925e-06 -5.387108614088396e-06 4.2027389680345525e-06" pbc="T T T"
Cs      10.79650095       9.28424887       0.64660007        0       0.00013567      -0.00027885       0.00010330
Cs       3.75811386       4.77338220       1.87520397        1      -0.00018873      -0.00014421      -0.00003028
Cs       4.43479578       4.28761463       8.47156444        2       0.00006068      -0.00011003      -0.00013098
Cs      11.47496635       8.79900947       7.24313691        3      -0.00050455       0.00010985      -0.00026059
Pb       0.49958565       4.01143168      11.72421520        4      -0.00007637      -0.00000109      -0.00025567
Pb       7.69324991       5.04955251      -1.37776901        5       0.00042218       0.00037371      -0.00001040
Pb       0.57685555       2.27475944       5.78769120        6      -0.00010226      -0.00004691       0.00007836
Pb       7.61572183       6.78530496       4.55889913        7       0.00039738      -0.00012743      -0.00004844
I        4.91282694       6.83050878      -1.36750165        8      -0.00008378       0.00031156       0.00040401
I        6.32211457       2.36009869      -0.04094678        9       0.00014023      -0.00033162       0.00010739
I        9.99486423       1.72098949       2.84946642       10      -0.00004045      -0.00004032      -0.00050301
I       10.31931018       6.74137519      10.48509032       11      -0.00023531      -0.00028912       0.00014470
I        8.90963464      11.21360225       9.15889530       12       0.00003912      -0.00086256       0.00001207
I        8.58547078       6.19109421       1.52229751       13      -0.00009809       0.00028381       0.00045911
I        4.84911958       8.26106354       3.52358081       14      -0.00017390       0.00030616       0.00024993
I        6.25801943       3.78911107       4.85137571       15       0.00036416       0.00013671      -0.00050027
I       -0.39232151       2.86948214       8.82405945       16      -0.00017543      -0.00026936      -0.00061694
I       10.38274093       5.31084520       5.59418883       17       0.00003694      -0.00008411      -0.00012707
I        8.97338205       9.78106108       4.26786136       18      -0.00010525       0.00054995       0.00001380
I        6.64638569       7.37952678       7.59484898       19       0.00014007       0.00008119       0.00017006
Cs      19.24515380       9.32395217       0.74459138       20       0.00010813      -0.00029994       0.00004808
Cs      12.20677745       4.81309226       1.97317078       21      -0.00027413      -0.00015456      -0.00000816
Cs      12.88344122       4.32732018       8.56953180       22       0.00006594      -0.00007963      -0.00013450
Cs       3.02631757       8.75931074       7.14514635       23      -0.00048175       0.00007084      -0.00018821
Pb       8.94825447       4.05113511      11.82216874       24      -0.00017273       0.00011617      -0.00015472
Pb      16.14195171       5.08928835      -1.27983985       25       0.00022804       0.00023780       0.00018503
Pb       9.02557536       2.31441787       5.88576660       26      -0.00037890       0.00010286      -0.00022092
Pb      16.06443677       6.82496780       4.65692747       27       0.00007689       0.00015809      -0.00030153
I       13.36141087       6.87014679      -1.26941052       28       0.00020265       0.00054662       0.00012568
I       14.77079163       2.39981804       0.05699357       29      -0.00000751      -0.00026616       0.00013718
I       18.44352093       1.76074385       2.94724364       30      -0.00009380       0.00014408       0.00035809
I       18.76791012       6.78099823      10.58319479       31      -0.00005323       0.00004455      -0.00014416
I       17.35826456      11.25328347       9.25690593       32       0.00008613      -0.00075040      -0.00006519
I       17.03410651       6.23078334       1.62035126       33      -0.00006624       0.00022504       0.00017271
I       13.29773507       8.30080972       3.62149717       34      -0.00001871       0.00011012       0.00036948
I       14.70665943       3.82885921       4.94929247       35       0.00042767      -0.00003466      -0.00039354
I        8.05632108       2.90924702       8.92180596       36      -0.00019399      -0.00009841       0.00031911
I       18.83137432       5.35057765       5.69212298       37       0.00010615      -0.00019066      -0.00005973
I       17.42194187       9.82081281       4.36574236       38       0.00029022       0.00040517       0.00023604
I       15.09501496       7.41925601       7.69273233       39       0.00019685       0.00014574       0.00046018
