10
Lattice="11.613426142074495 -1.6740655878708752 -3.6314457290630267 3.2359881006520332 7.299570625960544 -3.2452993695812684 4.421121392397134 -4.406591317977055 5.943115642583578" Properties=species:S:1:pos:R:3:spacegroup_kinds:I:1:forces:R:3 spacegroup="P 1" unit_cell=conventional occupancy="_JSON {\"0\": {\"Cs\": 1.0}, \"1\": {\"Cs\": 1.0}, \"2\": {\"K\": 1.0}, \"3\": {\"In\": 1.0}, \"4\": {\"I\": 1.0}, \"5\": {\"I\": 1.0}, \"6\": {\"I\": 1.0}, \"7\": {\"I\": 1.0}, \"8\": {\"I\": 1.0}, \"9\": {\"I\": 1.0}}" energy=-25.775781242763735 free_energy=-25.775781242763735 stress="2.4082826118606507e-06 -1.2834948518839722e-06 -2.6250871807769708e-06 -1.2834948518839722e-06 3.866171941798549e-06 -2.045606081619292e-06 -2.6250871807769708e-06 -2.045606081619292e-06 9.517799272979821e-07" pbc="T T T"
Cs       4.18900006       2.75339285      -1.07539784        0       0.00004593       0.00000849       0.00017510
Cs      15.08133537      -1.53458299       0.14151303        1       0.00008131       0.00014436       0.00003095
K        9.63542793       0.60976465      -0.46671562        2      -0.00008934      -0.00030757      -0.00026414
In      11.61334862      -1.67415097      -3.63142337        3       0.00009926       0.00023285       0.00016087
I       13.98421429       4.54565970      -4.22691290        4      -0.00006891       0.00015682      -0.00009187
I        5.28674246      -3.32651158       3.29359532        5      -0.00027899      -0.00029811      -0.00016053
I       12.73723144       0.72697518      -2.25028040        6       0.00011244      -0.00033824       0.00011934
I        6.53320609       0.49206070       1.31642436        7      -0.00008489       0.00012511      -0.00010500
I        5.86021019       5.88923393      -2.99882751        8      -0.00002406       0.00026115       0.00006988
I       13.41011925      -4.67079765       2.06524577        9       0.00020723       0.00001515       0.00006540
