20
Lattice="18.444058836902208 0.059180472486140785 0.08879733155934048 4.6448930634855525 7.98919322356412 0.03394185943209847 4.642819273603218 2.678242893244106 6.962784281300706" Properties=species:S:1:pos:R:3:spacegroup_kinds:I:1:forces:R:3 spacegroup="P 1" unit_cell=conventional occupancy="_JSON {\"0\": {\"Cs\": 1.0}, \"1\": {\"Cs\": 1.0}, \"2\": {\"K\": 1.0}, \"3\": {\"In\": 1.0}, \"4\": {\"I\": 1.0}, \"5\": {\"I\": 1.0}, \"6\": {\"I\": 1.0}, \"7\": {\"I\": 1.0}, \"8\": {\"I\": 1.0}, \"9\": {\"I\": 1.0}, \"10\": {\"Cs\": 1.0}, \"11\": {\"Cs\": 1.0}, \"12\": {\"K\": 1.0}, \"13\": {\"In\": 1.0}, \"14\": {\"I\": 1.0}, \"15\": {\"I\": 1.0}, \"16\": {\"I\": 1.0}, \"17\": {\"I\": 1.0}, \"18\": {\"I\": 1.0}, \"19\": {\"I\": 1.0}}" energy=-51.29788224719099 free_energy=-51.29788224719099 stress="4.9369544254221575e-06 1.465472954320056e-06 -6.801472618883759e-06 1.465472954320056e-06 8.736927552666192e-06 -2.124400525161424e-06 -6.801472618883759e-06 -2.124400525161424e-06 -1.2371261245040175e-05" pbc="T T T"
Cs       4.63222978       2.69311746       1.94664277        0      -0.00037521      -0.00045814       0.00055420
Cs      13.87806268       8.00527313       5.09459113        1      -0.00017836      -0.00034113      -0.00059838
K        9.25491322       5.34784298       3.52141895        2      -0.00013693       0.00034835      -0.00056823
In      18.44381612       0.05898621       0.08890110        3       0.00011156      -0.00004817      -0.00005385
I        6.99117607       3.23265384       5.22729476        4       0.00079408       0.00003651       0.00005275
I       11.51747098       7.46413304       1.81342700        5       0.00040507      -0.00012695      -0.00027714
I        9.95037165       2.36628089       1.74396814        6      -0.00005102       0.00045985       0.00048725
I        8.55940635       8.33008959       5.29673646        7       0.00006969       0.00041881       0.00029389
I        6.33608687       6.21446783       1.72236652        8      -0.00003410       0.00006374       0.00023349
I       12.17405441       4.48271007       5.31846601        9       0.00012593       0.00005449       0.00010593
Cs      13.85415524       2.72267499       1.99102951       10      -0.00019718      -0.00041856       0.00058445
Cs      23.09994645       8.03495748       5.13900644       11       0.00011470      -0.00042803      -0.00061887
K       18.47683872       5.37740570       3.56576064       12       0.00017475       0.00046712      -0.00047883
In       9.22177454       0.02927313       0.04452814       13       0.00011440       0.00031431      -0.00017805
I       16.21347809       3.26222380       5.27163027       14       0.00007940       0.00003904       0.00037439
I       20.73974482       7.49371044       1.85770480       15      -0.00024105      -0.00004034       0.00007790
I       19.17254844       2.39621508       1.78856997       16      -0.00027183      -0.00030280      -0.00008537
I       17.78144838       8.36000098       5.34122560       17       0.00004189      -0.00029273      -0.00008059
I       15.55835681       6.24408126       1.76680190       18      -0.00044859      -0.00002181       0.00009377
I       21.39614958       4.51222133       5.36283698       19      -0.00009719       0.00027645       0.00008129
