10
Lattice="8.73512194173707 -0.2837857393696362 -0.2044015841342825 4.130047352989701 7.6627925729428625 -0.18290370396946362 4.150523022264489 2.380827556653458 7.366293702152739" Properties=species:S:1:pos:R:3:spacegroup_kinds:I:1:forces:R:3 spacegroup="P 1" unit_cell=conventional occupancy="_JSON {\"0\": {\"Cs\": 1.0}, \"1\": {\"Cs\": 1.0}, \"2\": {\"K\": 1.0}, \"3\": {\"In\": 1.0}, \"4\": {\"I\": 1.0}, \"5\": {\"I\": 1.0}, \"6\": {\"I\": 1.0}, \"7\": {\"I\": 1.0}, \"8\": {\"I\": 1.0}, \"9\": {\"I\": 1.0}}" energy=-25.648940154072072 free_energy=-25.648940154072072 stress="-5.539271282381645e-07 8.563073496859486e-07 -1.5778276205073668e-06 8.563073496859486e-07 -2.57794168505129e-06 3.2769975057549586e-08 -1.5778276205073668e-06 3.2769975057549586e-08 -3.2440844773653693e-06" pbc="T T T"
Cs       4.10764755       2.34418750       1.66836836        0       0.00030884       0.00004773      -0.00033133
Cs      12.90683870       7.41444520       5.31125591        1       0.00046886       0.00022829      -0.00028887
K        8.50740028       4.88038857       3.48898678        2       0.00044795      -0.00046539       0.00017733
In       8.73518617      -0.28354107      -0.20442296        3      -0.00023309      -0.00008815      -0.00015950
I        8.78663392       1.65477091       2.05771197        4       0.00002155       0.00018784       0.00011756
I        8.22863728       8.10477387       4.92179975        5       0.00024640       0.00017925      -0.00029270
I       11.12776417       5.58070784       1.21926790        6      -0.00060870      -0.00002475       0.00001997
I        5.88900212       4.17910374       5.76003764        7      -0.00013413       0.00007914      -0.00003469
I        6.53382360       6.29233058       0.91666368        8       0.00002949      -0.00000165       0.00064029
I       10.48280223       3.46829932       6.06137579        9      -0.00054717      -0.00014231       0.00015194
