160
Lattice="15.817160426156029 0.0 0.0 -7.538108785592566 20.532336329747782 0.0 -9.36867368135942 9.130047973058195 20.851353099699192" Properties=species:S:1:pos:R:3 pbc="T T T"
Cs      -0.26026834      11.05631410       2.60641910
Cs      -1.89769541       5.92343909       2.60641910
Cs       1.01222273       4.67070626       7.81925737
Cs       2.64971708       9.80399943       7.81925737
Pb       0.64837108       0.44806394      -0.00000242
Pb       2.71815421       5.58104037      -0.00000828
Pb      -1.69379734       2.73057593       5.21284062
Pb       0.37598579       7.86355236       5.21284648
I       -0.64993690       7.81239413       0.43319187
I        2.12804652       2.67929327       0.43338933
I        6.68046253       1.68619476       2.60641910
I        1.40190700       7.91483675       9.99222153
I       -1.37607120      13.04790405       9.99241898
I        2.18136069       6.81906478       2.60641910
I       -2.60271419       9.71543302       4.77964632
I        0.17526923       4.58233216       4.77944887
I       -5.92854731      14.04124937       7.81925737
I        3.35468429       6.01179786       5.64629322
I        0.57670609      11.14486516       5.64609576
I       -1.42942806       8.90795122       7.81925737
Cs      -4.94460518      15.62133808      13.03209565
Cs      -6.58203225      10.48846308      13.03209565
Cs      -3.67211411       9.23573025      18.24493392
Cs      -2.03461976      14.36902341      18.24493392
Pb      -4.03596576       5.01308792      10.42567413
Pb      -1.96618264      10.14606435      10.42566827
Pb      -6.37813419       7.29559992      15.63851717
Pb      -4.30835106      12.42857635      15.63852303
I       -5.33427374      12.37741812      10.85886842
I       -2.55629032       7.24431726      10.85906588
I        1.99612569       6.25121875      13.03209565
I       -3.28242984      12.47986073      20.41789808
I       -6.06040804      17.61292804      20.41809553
I       -2.50297615      11.38408877      13.03209565
I       -7.28705103      14.28045701      15.20532287
I       -4.50906761       9.14735614      15.20512542
I      -10.61288415      18.60627335      18.24493392
I       -1.32965255      10.57682185      16.07196977
I       -4.10763075      15.70988915      16.07177231
I       -6.11376490      13.47297520      18.24493392
Cs      -4.02932273      21.32248226       2.60641910
Cs      -5.66674980      16.18960726       2.60641910
Cs      -2.75683166      14.93687443       7.81925737
Cs      -1.11933731      20.07016759       7.81925737
Pb      -3.12068332      10.71423210      -0.00000242
Pb      -1.05090019      15.84720853      -0.00000828
Pb      -5.46285174      12.99674409       5.21284062
Pb      -3.39306861      18.12972052       5.21284648
I       -4.41899129      18.07856230       0.43319187
I       -1.64100787      12.94546143       0.43338933
I        2.91140814      11.95236293       2.60641910
I       -2.36714739      18.18100491       9.99222153
I       -5.14512560      23.31407221       9.99241898
I       -1.58769370      17.08523294       2.60641910
I       -6.37176858      19.98160119       4.77964632
I       -3.59378516      14.84850032       4.77944887
I       -9.69760170      24.30741753       7.81925737
I       -0.41437010      16.27796602       5.64629322
I       -3.19234831      21.41103332       5.64609576
I       -5.19848245      19.17411938       7.81925737
Cs      -8.71365957      25.88750625      13.03209565
Cs     -10.35108665      20.75463124      13.03209565
Cs      -7.44116850      19.50189842      18.24493392
Cs      -5.80367415      24.63519158      18.24493392
Pb      -7.80502016      15.27925609      10.42567413
Pb      -5.73523703      20.41223252      10.42566827
Pb     -10.14718858      17.56176808      15.63851717
Pb      -8.07740545      22.69474451      15.63852303
I       -9.10332813      22.64358628      10.85886842
I       -6.32534471      17.51048542      10.85906588
I       -1.77292870      16.51738691      13.03209565
I       -7.05148423      22.74602890      20.41789808
I       -9.82946244      27.87909620      20.41809553
I       -6.27203054      21.65025693      13.03209565
I      -11.05610542      24.54662517      15.20532287
I       -8.27812200      19.41352431      15.20512542
I      -14.38193854      28.87244152      18.24493392
I       -5.09870694      20.84299001      16.07196977
I       -7.87668515      25.97605731      16.07177231
I       -9.88281929      23.73914337      18.24493392
Cs       7.64831188      11.05631410       2.60641910
Cs       6.01088480       5.92343909       2.60641910
Cs       8.92080294       4.67070626       7.81925737
Cs      10.55829729       9.80399943       7.81925737
Pb       8.55695129       0.44806394      -0.00000242
Pb      10.62673442       5.58104037      -0.00000828
Pb       6.21478287       2.73057593       5.21284062
Pb       8.28456600       7.86355236       5.21284648
I        7.25864332       7.81239413       0.43319187
I       10.03662674       2.67929327       0.43338933
I       14.58904274       1.68619476       2.60641910
I        9.31048721       7.91483675       9.99222153
I        6.53250901      13.04790405       9.99241898
I       10.08994090       6.81906478       2.60641910
I        5.30586603       9.71543302       4.77964632
I        8.08384945       4.58233216       4.77944887
I        1.98003291      14.04124937       7.81925737
I       11.26326450       6.01179786       5.64629322
I        8.48528630      11.14486516       5.64609576
I        6.47915216       8.90795122       7.81925737
Cs       2.96397504      15.62133808      13.03209565
Cs       1.32654796      10.48846308      13.03209565
Cs       4.23646610       9.23573025      18.24493392
Cs       5.87396045      14.36902341      18.24493392
Pb       3.87261445       5.01308792      10.42567413
Pb       5.94239758      10.14606435      10.42566827
Pb       1.53044603       7.29559992      15.63851717
Pb       3.60022916      12.42857635      15.63852303
I        2.57430648      12.37741812      10.85886842
I        5.35228990       7.24431726      10.85906588
I        9.90470590       6.25121875      13.03209565
I        4.62615037      12.47986073      20.41789808
I        1.84817217      17.61292804      20.41809553
I        5.40560406      11.38408877      13.03209565
I        0.62152919      14.28045701      15.20532287
I        3.39951261       9.14735614      15.20512542
I       -2.70430393      18.60627335      18.24493392
I        6.57892766      10.57682185      16.07196977
I        3.80094946      15.70988915      16.07177231
I        1.79481531      13.47297520      18.24493392
Cs       3.87925748      21.32248226       2.60641910
Cs       2.24183041      16.18960726       2.60641910
Cs       5.15174855      14.93687443       7.81925737
Cs       6.78924290      20.07016759       7.81925737
Pb       4.78789690      10.71423210      -0.00000242
Pb       6.85768003      15.84720853      -0.00000828
Pb       2.44572848      12.99674409       5.21284062
Pb       4.51551161      18.12972052       5.21284648
I        3.48958892      18.07856230       0.43319187
I        6.26757234      12.94546143       0.43338933
I       10.81998835      11.95236293       2.60641910
I        5.54143282      18.18100491       9.99222153
I        2.76345462      23.31407221       9.99241898
I        6.32088651      17.08523294       2.60641910
I        1.53681163      19.98160119       4.77964632
I        4.31479505      14.84850032       4.77944887
I       -1.78902149      24.30741753       7.81925737
I        7.49421011      16.27796602       5.64629322
I        4.71623191      21.41103332       5.64609576
I        2.71009776      19.17411938       7.81925737
Cs      -0.80507936      25.88750625      13.03209565
Cs      -2.44250643      20.75463124      13.03209565
Cs       0.46741171      19.50189842      18.24493392
Cs       2.10490606      24.63519158      18.24493392
Pb       0.10356006      15.27925609      10.42567413
Pb       2.17334319      20.41223252      10.42566827
Pb      -2.23860836      17.56176808      15.63851717
Pb      -0.16882524      22.69474451      15.63852303
I       -1.19474792      22.64358628      10.85886842
I        1.58323550      17.51048542      10.85906588
I        6.13565151      16.51738691      13.03209565
I        0.85709598      22.74602890      20.41789808
I       -1.92088222      27.87909620      20.41809553
I        1.63654967      21.65025693      13.03209565
I       -3.14752521      24.54662517      15.20532287
I       -0.36954179      19.41352431      15.20512542
I       -6.47335833      28.87244152      18.24493392
I        2.80987327      20.84299001      16.07196977
I        0.03189507      25.97605731      16.07177231
I       -1.97423908      23.73914337      18.24493392
