80
Lattice="17.670725291126676 0.15082426442874564 -0.2698943435861647 8.966055868255399 15.557037376447116 -0.10888797979391944 8.669164567039553 5.257952892858061 14.324268997334991" Properties=species:S:1:pos:R:3:spacegroup_kinds:I:1:forces:R:3 spacegroup="P 1" unit_cell=conventional occupancy="_JSON {\"0\": {\"Cs\": 1.0}, \"1\": {\"Cs\": 1.0}, \"2\": {\"K\": 1.0}, \"3\": {\"In\": 1.0}, \"4\": {\"I\": 1.0}, \"5\": {\"I\": 1.0}, \"6\": {\"I\": 1.0}, \"7\": {\"I\": 1.0}, \"8\": {\"I\": 1.0}, \"9\": {\"I\": 1.0}, \"10\": {\"Cs\": 1.0}, \"11\": {\"Cs\": 1.0}, \"12\": {\"K\": 1.0}, \"13\": {\"In\": 1.0}, \"14\": {\"I\": 1.0}, \"15\": {\"I\": 1.0}, \"16\": {\"I\": 1.0}, \"17\": {\"I\": 1.0}, \"18\": {\"I\": 1.0}, \"19\": {\"I\": 1.0}, \"20\": {\"Cs\": 1.0}, \"21\": {\"Cs\": 1.0}, \"22\": {\"K\": 1.0}, \"23\": {\"In\": 1.0}, \"24\": {\"I\": 1.0}, \"25\": {\"I\": 1.0}, \"26\": {\"I\": 1.0}, \"27\": {\"I\": 1.0}, \"28\": {\"I\": 1.0}, \"29\": {\"I\": 1.0}, \"30\": {\"Cs\": 1.0}, \"31\": {\"Cs\": 1.0}, \"32\": {\"K\": 1.0}, \"33\": {\"In\": 1.0}, \"34\": {\"I\": 1.0}, \"35\": {\"I\": 1.0}, \"36\": {\"I\": 1.0}, \"37\": {\"I\": 1.0}, \"38\": {\"I\": 1.0}, \"39\": {\"I\": 1.0}, \"40\": {\"Cs\": 1.0}, \"41\": {\"Cs\": 1.0}, \"42\": {\"K\": 1.0}, \"43\": {\"In\": 1.0}, \"44\": {\"I\": 1.0}, \"45\": {\"I\": 1.0}, \"46\": {\"I\": 1.0}, \"47\": {\"I\": 1.0}, \"48\": {\"I\": 1.0}, \"49\": {\"I\": 1.0}, \"50\": {\"Cs\": 1.0}, \"51\": {\"Cs\": 1.0}, \"52\": {\"K\": 1.0}, \"53\": {\"In\": 1.0}, \"54\": {\"I\": 1.0}, \"55\": {\"I\": 1.0}, \"56\": {\"I\": 1.0}, \"57\": {\"I\": 1.0}, \"58\": {\"I\": 1.0}, \"59\": {\"I\": 1.0}, \"60\": {\"Cs\": 1.0}, \"61\": {\"Cs\": 1.0}, \"62\": {\"K\": 1.0}, \"63\": {\"In\": 1.0}, \"64\": {\"I\": 1.0}, \"65\": {\"I\": 1.0}, \"66\": {\"I\": 1.0}, \"67\": {\"I\": 1.0}, \"68\": {\"I\": 1.0}, \"69\": {\"I\": 1.0}, \"70\": {\"Cs\": 1.0}, \"71\": {\"Cs\": 1.0}, \"72\": {\"K\": 1.0}, \"73\": {\"In\": 1.0}, \"74\": {\"I\": 1.0}, \"75\": {\"I\": 1.0}, \"76\": {\"I\": 1.0}, \"77\": {\"I\": 1.0}, \"78\": {\"I\": 1.0}, \"79\": {\"I\": 1.0}}" energy=-206.2341884859318 free_energy=-206.2341884859318 stress="2.697896807768277e-07 4.649568416290747e-07 4.192565228407333e-09 4.649568416290747e-07 2.1751807110903693e-07 5.098100807284563e-07 4.192565228407333e-09 5.098100807284563e-07 1.2788729727895233e-07" pbc="T T T"
Cs       4.03351968       2.02266249       2.22667056        0       0.00038349      -0.00031940      -0.00040948
Cs      13.15154966       7.49984730       5.68479590        1       0.00002971      -0.00002803      -0.00062028
K        8.05361863       5.25985286       2.62964907        2      -0.00002426      -0.00006072      -0.00018534
In      17.67029459       0.15077723      -0.26967615        3       0.00012646      -0.00010835       0.00013745
I        7.36079115       2.70604894      -0.05001061        4       0.00009082      -0.00050003      -0.00007051
I        8.29199674       7.95810957       5.35468598        5       0.00025945      -0.00005074       0.00032456
I       11.16267067       6.60900411       1.43139166        6       0.00012553       0.00007367       0.00017472
I       24.11218610       3.42402683       4.84285184        7      -0.00015111      -0.00019425       0.00058231
I        4.45615429       6.01963708       2.34685067        8       0.00058086      -0.00000850      -0.00014706
I       11.24897757       4.03833826       5.13838000        9      -0.00035281       0.00062861      -0.00054220
Cs       8.78518268       5.00009395       8.07879902       10       0.00005546      -0.00013210      -0.00019178
Cs      18.34230938      10.29076599      12.07158673       11       0.00020927      -0.00012429      -0.00032849
K       13.79955698       7.36602894      11.44714366       12       0.00024039       0.00011609       0.00019142
In      22.00569444       2.78010435       6.89227509       13       0.00008558       0.00009262      -0.00033765
I       12.71727529       4.96095853       8.93449123       14      -0.00023383      -0.00010360       0.00005683
I       12.81995173      10.67544779      12.45448853       15      -0.00045769       0.00012269      -0.00019048
I       15.90344581       8.87698859       8.85881879       16      -0.00025885      -0.00044539       0.00029868
I       29.14142849       5.59668381      13.13782421       17       0.00025823      -0.00028012       0.00002197
I       10.62040928       8.77364576       8.79114441       18       0.00022555       0.00010806       0.00021557
I       15.90013630       4.47719002      11.94589249       19      -0.00005323       0.00025934      -0.00012942
Cs       8.85327133      10.51759482       2.19990145       20       0.00000687       0.00017773      -0.00026101
Cs      17.27432822      15.44858627       5.46912118       21       0.00002705      -0.00000349       0.00007396
K       13.01012881      13.12741312       3.31524043       22       0.00016386      -0.00007124       0.00000373
In      22.15394473       7.92961997      -0.32449644       23      -0.00046104       0.00002980      -0.00019582
I       12.75758177      10.53769020       1.00837806       24       0.00035398       0.00060563      -0.00008549
I       13.13980346      15.37895312       6.02684895       25      -0.00012131       0.00037326       0.00007502
I       15.78177594      14.49241924       1.75740920       26       0.00027940       0.00063862      -0.00013124
I       28.82241884      11.16224714       5.12778762       27       0.00010508       0.00028702      -0.00052602
I        9.92203482      14.56238500       2.51560397       28       0.00028906       0.00018395      -0.00040052
I       15.25152783      11.07232408       5.36453414       29       0.00008623      -0.00013225      -0.00008786
Cs      13.18220616      12.13524116       8.72229821       30      -0.00008601      -0.00003298       0.00005601
Cs      21.54606046      17.56816200      11.77787498       31      -0.00007906       0.00022485       0.00020104
K       16.76051039      15.05805310      11.38115968       32      -0.00006315       0.00006373       0.00008283
In      26.48836324      10.55843552       6.83784811       33       0.00017292      -0.00027937      -0.00037765
I       17.13040070      12.90930489       8.60763805       34      -0.00021310      -0.00025069      -0.00018495
I       17.50460723      17.98034355      13.17040951       35       0.00012269      -0.00060712      -0.00018118
I       19.87685247      16.79873048       8.19342370       36       0.00033461      -0.00018335       0.00012998
I       33.77385969      12.96783257      13.87313883       37      -0.00050418      -0.00012871       0.00020130
I       15.50466983      17.38291370       8.86366298       38      -0.00011054      -0.00022142      -0.00010650
I       20.13331322      13.75473029      11.86908929       39       0.00047214      -0.00031969       0.00014612
Cs      13.76126586       3.39709843       2.16736073       40      -0.00055531      -0.00001605       0.00020454
Cs      22.12337452       8.83166538       5.22246136       41       0.00034693      -0.00021134       0.00039921
K       18.54547074       5.90840327       2.56413041       42      -0.00016948       0.00002913      -0.00006158
In       8.83526452       0.07541790      -0.13492808       43      -0.00036590      -0.00009466      -0.00005177
I       17.80070760       2.98554998       0.77558337       44       0.00000358       0.00039578      -0.00004003
I       18.17505991       8.05704336       5.33831130       45       0.00020377       0.00001872      -0.00020735
I        1.53254025       7.99909806       0.07203215       46       0.00024814      -0.00060024      -0.00010661
I       15.42927534       4.16664856       5.75169178       47       0.00020238       0.00017947       0.00041807
I       15.17262577       7.21055816       2.07612307       48      -0.00027562       0.00001154       0.00006129
I       19.80168363       3.58404280       5.08221346       49      -0.00008109       0.00003405      -0.00008100
Cs      18.03182622       5.51724052       8.47576439       50      -0.00020072       0.00016650       0.00002623
Cs      26.45380202      10.44799628      11.74536539       51      -0.00026421       0.00000080       0.00064128
K       22.29527677       7.83826350      10.62964260       52      -0.00036809      -0.00010341       0.00019581
In      13.17012758       2.70400703       7.02706257       53      -0.00001796      -0.00007865      -0.00025846
I       22.16668912       5.58744277       7.91811821       54       0.00011592      -0.00002851       0.00000400
I       22.54883943      10.42705542      12.93692056       55      -0.00061543       0.00008786       0.00022865
I        6.48420080       9.80291066       8.81814502       56      -0.00044220       0.00016658      -0.00014456
I       19.52358493       6.47290442      12.18760171       57       0.00001608      -0.00019311       0.00038876
I       20.05421013       9.89403172       8.58123426       58      -0.00006531      -0.00008331       0.00033688
I       25.38323013       6.40343682      11.43044752       59      -0.00013114      -0.00018934       0.00038914
Cs      16.96264752      10.67480747       1.87416810       60      -0.00002003       0.00002707       0.00016259
Cs      26.52170705      15.96664716       5.86718682       61      -0.00030403      -0.00009018      -0.00020313
K       21.50513269      13.59897632       2.49852982       62       0.00018751       0.00008166       0.00004537
In      13.31839271       7.85331405      -0.18971327       63      -0.00018272       0.00025903       0.00047929
I       22.48706873      10.29088584       1.49039939       64       0.00026514      -0.00001189       0.00057021
I       22.58963267      16.00431995       5.01080118       65      -0.00010936      -0.00000918       0.00015378
I        6.16381698      15.36856493       0.80852981       66       0.00020238       0.00041758      -0.00031658
I       19.40271349      12.08907493       5.08767048       67      -0.00015547       0.00036514      -0.00053092
I       19.40608243      16.48819514       1.99934174       68      -0.00043984       0.00014073       0.00011127
I       24.68618110      12.19232754       5.15421357       69      -0.00046652      -0.00042174       0.00002016
Cs      22.15439202      13.46532979       8.26075520       70       0.00010239       0.00010771       0.00039627
Cs      31.27122255      18.94287403      11.72016197       71       0.00015757       0.00014942      -0.00009804
K       27.25082270      15.70745007      11.31525666       72       0.00040928      -0.00018018       0.00032854
In      17.65256783      10.48302931       6.97317026       73       0.00069764       0.00009203      -0.00020425
I       27.01375151      13.00784325       8.59054505       74      -0.00011835       0.00012458       0.00005287
I       27.94432077      18.25937522      13.99590263       75       0.00032406       0.00017379      -0.00016644
I       11.19428036      17.54218707       9.10230464       76      -0.00003097       0.00001355      -0.00009148
I       24.14341681      14.35607999      12.51415341       77      -0.00003466      -0.00026635      -0.00063891
I       24.05753804      16.92644699       8.80702189       78       0.00007211      -0.00020732       0.00051485
I       30.84926111      14.94647221      11.59828684       79      -0.00005496       0.00034290      -0.00021053
