80
Lattice="17.45488115839662 -0.753510532126535 -1.195465770084683 7.45882399235357 18.300468770316908 5.780977957977822 15.251235401217015 6.048905404527036 15.57142800640926" Properties=species:S:1:pos:R:3:spacegroup_kinds:I:1:forces:R:3 spacegroup="P 1" unit_cell=conventional occupancy="_JSON {\"0\": {\"Cs\": 1.0}, \"1\": {\"Cs\": 1.0}, \"2\": {\"K\": 1.0}, \"3\": {\"In\": 1.0}, \"4\": {\"I\": 1.0}, \"5\": {\"I\": 1.0}, \"6\": {\"I\": 1.0}, \"7\": {\"I\": 1.0}, \"8\": {\"I\": 1.0}, \"9\": {\"I\": 1.0}, \"10\": {\"Cs\": 1.0}, \"11\": {\"Cs\": 1.0}, \"12\": {\"K\": 1.0}, \"13\": {\"In\": 1.0}, \"14\": {\"I\": 1.0}, \"15\": {\"I\": 1.0}, \"16\": {\"I\": 1.0}, \"17\": {\"I\": 1.0}, \"18\": {\"I\": 1.0}, \"19\": {\"I\": 1.0}, \"20\": {\"Cs\": 1.0}, \"21\": {\"Cs\": 1.0}, \"22\": {\"K\": 1.0}, \"23\": {\"In\": 1.0}, \"24\": {\"I\": 1.0}, \"25\": {\"I\": 1.0}, \"26\": {\"I\": 1.0}, \"27\": {\"I\": 1.0}, \"28\": {\"I\": 1.0}, \"29\": {\"I\": 1.0}, \"30\": {\"Cs\": 1.0}, \"31\": {\"Cs\": 1.0}, \"32\": {\"K\": 1.0}, \"33\": {\"In\": 1.0}, \"34\": {\"I\": 1.0}, \"35\": {\"I\": 1.0}, \"36\": {\"I\": 1.0}, \"37\": {\"I\": 1.0}, \"38\": {\"I\": 1.0}, \"39\": {\"I\": 1.0}, \"40\": {\"Cs\": 1.0}, \"41\": {\"Cs\": 1.0}, \"42\": {\"K\": 1.0}, \"43\": {\"In\": 1.0}, \"44\": {\"I\": 1.0}, \"45\": {\"I\": 1.0}, \"46\": {\"I\": 1.0}, \"47\": {\"I\": 1.0}, \"48\": {\"I\": 1.0}, \"49\": {\"I\": 1.0}, \"50\": {\"Cs\": 1.0}, \"51\": {\"Cs\": 1.0}, \"52\": {\"K\": 1.0}, \"53\": {\"In\": 1.0}, \"54\": {\"I\": 1.0}, \"55\": {\"I\": 1.0}, \"56\": {\"I\": 1.0}, \"57\": {\"I\": 1.0}, \"58\": {\"I\": 1.0}, \"59\": {\"I\": 1.0}, \"60\": {\"Cs\": 1.0}, \"61\": {\"Cs\": 1.0}, \"62\": {\"K\": 1.0}, \"63\": {\"In\": 1.0}, \"64\": {\"I\": 1.0}, \"65\": {\"I\": 1.0}, \"66\": {\"I\": 1.0}, \"67\": {\"I\": 1.0}, \"68\": {\"I\": 1.0}, \"69\": {\"I\": 1.0}, \"70\": {\"Cs\": 1.0}, \"71\": {\"Cs\": 1.0}, \"72\": {\"K\": 1.0}, \"73\": {\"In\": 1.0}, \"74\": {\"I\": 1.0}, \"75\": {\"I\": 1.0}, \"76\": {\"I\": 1.0}, \"77\": {\"I\": 1.0}, \"78\": {\"I\": 1.0}, \"79\": {\"I\": 1.0}}" energy=-203.80005354145058 free_energy=-203.80005354145058 stress="4.368727094065489e-07 1.1793834107055976e-07 5.136924286441178e-07 1.1793834107055976e-07 1.1551802301541151e-06 -2.0545049200258873e-07 5.136924286441178e-07 -2.0545049200258873e-07 4.5218394584595206e-07" pbc="T T T"
Cs       5.63790065       2.63115350       2.73002656        0      -0.00024006       0.00012640       0.00014444
Cs      14.13729104       9.32521579       7.24346963        1       0.00000204       0.00002003       0.00007285
K       11.83851285       4.97365053       5.65214979        2       0.00030455       0.00008438      -0.00029914
In      17.28303853      -0.66553984      -1.25380736        3      -0.00001914       0.00043868       0.00000687
I        8.61736063       3.56149368       5.01976033        4      -0.00005227      -0.00013012       0.00036801
I       11.13918803       8.40640943       4.94738345        5      -0.00024301      -0.00047753       0.00010710
I       11.09839667       0.79306657       0.50903843        6      -0.00003625      -0.00044033       0.00043665
I        8.57100470      11.37166653       9.32580134        7      -0.00043626      -0.00033064      -0.00044601
I        4.46612353       6.38033595       2.84128439        8      -0.00005204       0.00002860      -0.00010112
I       15.03941020       5.56112856       7.14347124        9      -0.00034535       0.00007162       0.00020159
Cs      13.26387389       5.65648363      10.51508378       10       0.00017973      -0.00048352       0.00002150
Cs      21.76136124      12.34954539      15.02950733       11      -0.00006030      -0.00004142      -0.00004135
K       19.46395409       7.99758722      13.43594964       12      -0.00025826      -0.00016857       0.00026295
In      24.90825616       2.36024324       6.53161380       13      -0.00027233       0.00034529      -0.00029426
I       16.24320060       6.58434699      12.80571630       14       0.00009261      -0.00004958       0.00014848
I       18.76277048      11.43022627      12.73272122       15       0.00010408       0.00016485       0.00042701
I       18.72558944       3.81195662       8.29583332       16      -0.00060337       0.00009355      -0.00051386
I       16.19620808      14.39750281      17.11043670       17      -0.00013364       0.00010957       0.00023196
I       12.09532082       9.40705394      10.62833023       18      -0.00029132      -0.00001685      -0.00040233
I       22.66229298       8.58624797      14.92872264       19       0.00044962       0.00009233      -0.00034567
Cs       9.36762516      11.78099858       5.62078281       20      -0.00017902       0.00027897      -0.00025112
Cs      17.86590709      18.47623846      10.13402052       21       0.00012720      -0.00001998      -0.00008795
K       15.56813036      14.12422659       8.54163092       22       0.00005997       0.00017871      -0.00005669
In      21.01251546       8.48456025       1.63683277       23      -0.00017617       0.00012911      -0.00002916
I       12.34733045      12.71077987       7.91012839       24      -0.00019151       0.00012780       0.00018148
I       14.86820157      17.55688087       7.83782875       25      -0.00009187      -0.00035007       0.00002576
I       14.82790457       9.94329045       3.39948815       26       0.00008143      -0.00041108       0.00045892
I       12.29988595      20.52206447      12.21605346       27       0.00045770      -0.00006328       0.00018647
I        8.19493890      15.53054154       5.73164488       28       0.00053345      -0.00041761      -0.00018149
I       18.76852616      14.71208828      10.03359353       29      -0.00026757       0.00038174       0.00034945
Cs      16.99263923      14.80743465      13.40512883       30       0.00046559      -0.00036020       0.00045982
Cs      25.49158170      21.49966130      17.92031572       31      -0.00041349      -0.00028140      -0.00011196
K       23.19347563      17.14685755      16.32757053       32      -0.00038469       0.00005619      -0.00017013
In      28.63792644      11.51013649       9.42186507       33       0.00075776       0.00012110       0.00021784
I       19.97253573      15.73493230      15.69638507       34      -0.00011849      -0.00028590      -0.00007525
I       22.49296334      20.57955566      15.62362801       35       0.00012882       0.00043183      -0.00020000
I       22.45461716      12.96266837      11.18589646       36      -0.00011419       0.00022086       0.00002572
I       19.92561828      23.54772036      20.00100253       37      -0.00038996      -0.00001995       0.00001224
I       15.82413923      18.55767070      13.51857340       38      -0.00036716      -0.00002285      -0.00007071
I       26.39163975      17.73611385      17.81899535       39       0.00051295       0.00005653       0.00015289
Cs      14.36499041       2.25504408       2.13172044       40       0.00030486      -0.00018254       0.00010127
Cs      22.86299812       8.94832886       6.64631320       41       0.00016214      -0.00021463       0.00009496
K       20.56528977       4.59533892       5.05337068       42       0.00001984       0.00017123       0.00013876
In       8.55533766      -0.28751677      -0.65669840       43       0.00085797       0.00013762       0.00032224
I       17.34473385       3.18291476       4.42227579       44       0.00002442       0.00003085       0.00005814
I       19.86518705       8.02813703       4.34972331       45      -0.00020434       0.00041798      -0.00026192
I       19.82714081       0.41132938      -0.08776061       46      -0.00032138       0.00021825      -0.00036363
I       17.29743266      10.99708768       8.72708285       47      -0.00023591      -0.00031927       0.00019597
I       13.19594469       6.00565199       2.24385705       48      -0.00007724      -0.00013830       0.00035708
I       23.76366910       5.18499096       6.54529427       49       0.00036485      -0.00025401      -0.00001021
Cs      21.99109995       5.27860113       9.91857471       50      -0.00010490       0.00043119      -0.00047339
Cs      30.49001172      11.97326263      14.43150267       51      -0.00003752      -0.00010215      -0.00007746
K       28.19219307       7.62133110      12.83916275       52       0.00012894       0.00005949      -0.00000294
In      16.18118707       2.73528838       7.12966981       53       0.00006921       0.00016427       0.00040221
I       24.97101129       6.20879658      12.20764884       54      -0.00037426      -0.00002140       0.00006635
I       27.49174933      11.05377986      12.13516949       55      -0.00001855      -0.00018984       0.00033157
I       27.45094635       3.44138762       7.69761483       56       0.00038528      -0.00026484       0.00000202
I       24.92357487      14.01926982      16.51373566       57       0.00031470       0.00013487      -0.00010551
I       20.81755526       9.02792445      10.02876007       58       0.00045746       0.00033304       0.00002317
I       31.39213301       8.20895974      14.33171094       59      -0.00021824       0.00031437      -0.00008823
Cs      18.09475239      11.40540439       5.02234374       60       0.00014560      -0.00034992      -0.00013673
Cs      26.59202528      18.09809966       9.53655023       61       0.00058400      -0.00005977      -0.00000022
K       24.29484484      13.74573534       7.94293124       62       0.00019224       0.00017287       0.00041410
In      12.28487250       8.86242832       2.23384192       63       0.00014075       0.00014831      -0.00013254
I       21.07394483      12.33366115       7.31282202       64       0.00039401      -0.00007972      -0.00038329
I       23.59420397      17.17855785       7.23979244       65      -0.00010996       0.00017336       0.00029122
I       23.55670604       9.56123503       2.80300514       66      -0.00017970       0.00035405      -0.00016630
I       21.02701423      20.14658312      11.61778124       67      -0.00000685      -0.00017308       0.00025407
I       16.92522721      15.15598189       5.13462695       68      -0.00000639       0.00003280       0.00002753
I       27.49342125      14.33478073       9.43565512       69       0.00014769       0.00018807      -0.00033218
Cs      25.72063720      14.42850560      12.80868723       70      -0.00024689       0.00026928      -0.00004184
Cs      34.21967157      21.12343182      17.32226874       71      -0.00019520      -0.00013733      -0.00004391
K       31.92123812      16.77172232      15.73029811       72       0.00032781       0.00002951      -0.00013073
In      19.91031328      11.88639095      10.02015535       73      -0.00044214      -0.00024460      -0.00019116
I       28.70014460      15.35907316      15.09822284       74      -0.00011424      -0.00005624      -0.00037478
I       31.22116315      20.20451600      15.02616594       75       0.00003133      -0.00049220      -0.00039243
I       31.18058219      12.59146828      10.58785871       76       0.00027199      -0.00033089       0.00004487
I       28.65316973      23.17022228      19.40445834       77      -0.00037343      -0.00005632      -0.00035076
I       24.54820304      18.17776388      12.91937765       78      -0.00012980       0.00042237       0.00019898
I       35.12178744      17.35910782      17.22242977       79      -0.00044794       0.00027604      -0.00008611
