20
Lattice="10.838235899371446 0.6580970363619716 0.9922671713860642 -4.790381044763759 6.954051691372196 -0.33844508419807456 -4.145603943623711 -3.9782216116167217 11.990701165335459" Properties=species:S:1:pos:R:3:spacegroup_kinds:I:1:forces:R:3 spacegroup="P 1" unit_cell=conventional occupancy="_JSON {\"0\": {\"Cs\": 1.0}, \"1\": {\"Cs\": 1.0}, \"2\": {\"Cs\": 1.0}, \"3\": {\"Cs\": 1.0}, \"4\": {\"Pb\": 1.0}, \"5\": {\"Pb\": 1.0}, \"6\": {\"Pb\": 1.0}, \"7\": {\"Pb\": 1.0}, \"8\": {\"I\": 1.0}, \"9\": {\"I\": 1.0}, \"10\": {\"I\": 1.0}, \"11\": {\"I\": 1.0}, \"12\": {\"I\": 1.0}, \"13\": {\"I\": 1.0}, \"14\": {\"I\": 1.0}, \"15\": {\"I\": 1.0}, \"16\": {\"I\": 1.0}, \"17\": {\"I\": 1.0}, \"18\": {\"I\": 1.0}, \"19\": {\"I\": 1.0}}" energy=-56.61996234629482 free_energy=-56.61996234629482 stress="7.685148433639845e-06 5.335937571916088e-07 -9.101913822899909e-06 5.335937571916088e-07 4.5160829534206655e-06 -4.267113408465824e-06 -9.101913822899909e-06 -4.267113408465824e-06 -7.377428667582405e-06" pbc="T T T"
Cs       1.31202273       6.91950089       3.31963378        0      -0.00073177      -0.00024509       0.00036585
Cs      -1.71220096       3.11397164       2.99327997        1      -0.00026363      -0.00062463       0.00020012
Cs       3.98793969      -1.99112924       9.65076425        2      -0.00023479      -0.00051587      -0.00022455
Cs      -3.82589300       1.15556470       8.98486110        3      -0.00019164      -0.00000388       0.00013645
Pb       0.18634961      -1.25690021      -0.00046968        4       0.00018497       0.00068417       0.00008736
Pb       3.21016553       2.54944080       0.32622360        5       0.00001226      -0.00015613       0.00012325
Pb      -0.37532728      -1.34359175       6.15825446        6       0.00049642       0.00016280       0.00021857
Pb       2.64882098       2.46253437       6.48515324        7       0.00020368       0.00035741      -0.00007624
I       -1.45683025       6.24417591       0.50055118        8      -0.00057321       0.00000046       0.00042443
I        6.35650112       3.09619363       1.16706592        9       0.00010926      -0.00040891      -0.00032062
I       -0.85173355      -0.69108201       3.01847457       10       0.00035087      -0.00018421       0.00029492
I        6.75634374      -1.31704186      12.47009860       11       0.00036236       0.00051251      -0.00045486
I       -1.05713059       1.83159938      11.80333605       12       0.00007324      -0.00040059       0.00027800
I        2.17274214       3.11526011       3.34528610       13      -0.00018203      -0.00044996       0.00016070
I       -4.94436831       2.36629029       5.24803413       14       0.00048233      -0.00004645      -0.00019715
I        2.87012213      -0.78174745       5.91368567       15       0.00008088       0.00026988      -0.00023234
I       -4.68724747       4.95959888       8.95991531       16      -0.00025523       0.00061941      -0.00046069
I        7.21838222      -1.24629278       7.39572532       17       0.00026786      -0.00005324      -0.00030828
I        3.12728659       1.81332261       9.62516720       18       0.00002621      -0.00011818       0.00008556
I       -0.59552024       1.90128808       6.73048978       19      -0.00021802       0.00060049      -0.00010050
