5
Lattice="6.387059926747682 -1.4358950236050946e-09 9.862332427112185e-18 -1.4358950232762694e-09 6.387059926747681 -3.228402662773902e-17 9.736095383930613e-18 -3.2829478765978184e-17 6.387059926410441" Properties=species:S:1:pos:R:3:spacegroup_kinds:I:1:forces:R:3 spacegroup="P 1" unit_cell=conventional occupancy="_JSON {\"0\": {\"Cs\": 1.0}, \"1\": {\"Pb\": 1.0}, \"2\": {\"I\": 1.0}, \"3\": {\"I\": 1.0}, \"4\": {\"I\": 1.0}}" energy=-13.980742427640745 free_energy=-13.980742427640745 stress="-1.957297544380677e-07 -1.1403958696151834e-11 -1.7016052828717462e-20 -1.1403958696151834e-11 -1.9572975485948666e-07 1.877186457591578e-17 -1.7016052828717462e-20 1.877186457591578e-17 -1.9572692811479742e-07" pbc="T T T"
Cs       3.19363413       3.19342579       3.19352996        0       0.00000414      -0.00000414      -0.00000000
Pb       0.00000344      -0.00000344      -0.00000000        1       0.00000243      -0.00000243      -0.00000000
I        0.00000138      -0.00000138       3.19352996        2      -0.00000673       0.00000673      -0.00000000
I        3.19353113      -0.00000138      -0.00000000        3       0.00000690       0.00000673       0.00000000
I        0.00000138       3.19352879      -0.00000000        4      -0.00000673      -0.00000690       0.00000000
