20
Lattice="12.174570352788463 -3.1093062807437795 -2.4263253616126943 3.0409421334845548 12.40423208204916 -0.641102287622499 1.346682731250473 -0.006510497918658107 6.2692874090677355" Properties=species:S:1:pos:R:3:spacegroup_kinds:I:1:forces:R:3 spacegroup="P 1" unit_cell=conventional occupancy="_JSON {\"0\": {\"Cs\": 1.0}, \"1\": {\"Pb\": 1.0}, \"2\": {\"I\": 1.0}, \"3\": {\"I\": 1.0}, \"4\": {\"I\": 1.0}, \"5\": {\"Cs\": 1.0}, \"6\": {\"Pb\": 1.0}, \"7\": {\"I\": 1.0}, \"8\": {\"I\": 1.0}, \"9\": {\"I\": 1.0}, \"10\": {\"Cs\": 1.0}, \"11\": {\"Pb\": 1.0}, \"12\": {\"I\": 1.0}, \"13\": {\"I\": 1.0}, \"14\": {\"I\": 1.0}, \"15\": {\"Cs\": 1.0}, \"16\": {\"Pb\": 1.0}, \"17\": {\"I\": 1.0}, \"18\": {\"I\": 1.0}, \"19\": {\"I\": 1.0}}" energy=-55.93767945320668 free_energy=-55.93767945320668 stress="-3.2771412846687636e-06 1.0368382646130552e-06 9.340602534346506e-07 1.0368382646130552e-06 -2.111566486883051e-06 -2.619522656675319e-06 9.340602534346506e-07 -2.619522656675319e-06 2.9543639446137466e-06" pbc="T T T"
Cs       4.21737997       2.38450768       2.08448227        0       0.00004036       0.00003292       0.00001444
Pb      -0.01720483       0.01963968       0.00259261        1       0.00036704      -0.00005853      -0.00040715
I       12.96397899      -3.12447120       0.73443240        2       0.00005834      -0.00001557       0.00049464
I        3.08018515      -0.76341314      -0.46481799        3      -0.00047950       0.00003388       0.00001195
I       12.95503792       0.00882705      -2.45329278        4       0.00001142       0.00021805      -0.00004503
Cs       5.73783753       8.58662809       1.76393822        5       0.00009338       0.00005849       0.00001110
Pb      13.67786356       3.11253728      -2.74445500        6       0.00009759      -0.00044357      -0.00006092
I       14.48441516       3.07764791       0.41407385        7       0.00002055       0.00001252       0.00012002
I        4.60058202       5.43874824      -0.78532843        8      -0.00021548      -0.00002547      -0.00002177
I       14.47551407       6.21093547      -2.77385071        9       0.00001303       0.00027363      -0.00003929
Cs      10.30467752       0.82983800       0.87133747       10       0.00000628       0.00008803       0.00000442
Pb       6.07017166      -1.53513080      -1.21089850       11      -0.00032716       0.00019101       0.00041256
I        6.87656454      -1.56980691       1.94816152       12       0.00005483       0.00003345      -0.00053329
I        9.16733950      -2.31797882      -1.67793184       13       0.00022397      -0.00015788      -0.00004783
I        6.86764095       1.56377086      -1.24018738       14       0.00004653      -0.00028577       0.00008018
Cs      11.82516406       7.03194845       0.55077484       15      -0.00004631       0.00005721       0.00001404
Pb       7.59061810       4.66697408      -1.53129654       16      -0.00018659       0.00026315       0.00007275
I        8.39709301       4.63228693       1.62737470       17       0.00008462       0.00004019      -0.00009678
I       10.68782404       3.88412470      -1.99847151       18       0.00006671      -0.00010252      -0.00005941
I        8.38811700       7.76586702      -1.56073923       19       0.00007040      -0.00021321       0.00007537
