10
Lattice="15.141868016993719 0.0 0.0 1.1237723922945921 6.695993771575456 0.0 0.40986508280215334 -1.5177276681655771 5.285533526328647" Properties=species:S:1:pos:R:3:oxi_states:R:1 pbc="T T T"
Cs       4.55238549       2.58903331       2.64276676       1.00000000
Pb      -0.00000000      -0.00000000       0.00000000       2.00000000
I       -0.36224097      -0.19169140       2.64276716      -1.00000000
I        3.78546700       0.00000000      -0.00000000      -1.00000000
I        0.56188620       3.34799689       0.00000000      -1.00000000
Cs      12.12331949       2.58903331       2.64276676       1.00000000
Pb       7.57093401      -0.00000000       0.00000000       2.00000000
I        7.20869304      -0.19169140       2.64276716      -1.00000000
I       11.35640101       0.00000000      -0.00000000      -1.00000000
I        8.13282020       3.34799689       0.00000000      -1.00000000
