40
Lattice="21.88840171288904 0.0 0.0 -5.11499429242702 15.936845031525035 0.0 0.0 0.0 7.945756492015823" Properties=species:S:1:pos:R:3 pbc="T T T"
Cs       6.15268975       2.65984353       0.02528681
Cs       1.65212375       5.31598437       7.92044136
K       -0.29094048       0.00370786       3.97287715
In      -0.29094658       0.00370480       0.00000983
I       -0.93988162       2.10188216       1.58948671
I        8.74469263       5.87396637       6.35627074
I        1.92308068       2.08403945       6.35627705
I        5.88172897       5.89177198       1.58949303
I        0.01452232       7.95430120       1.58948927
I        7.79029436       0.02152700       6.35627330
Cs       3.59519260      10.62826604       0.02528681
Cs      -0.90537340      13.28440688       7.92044136
K       -2.84843762       7.97213038       3.97287715
In      -2.84844373       7.97212732       0.00000983
I       -3.49737877      10.07030467       1.58948671
I        6.18719548      13.84238889       6.35627074
I       -0.63441647      10.05246196       6.35627705
I        3.32423182      13.86019450       1.58949303
I       -2.54297483      15.92272371       1.58948927
I        5.23279722       7.98994952       6.35627330
Cs      17.09689060       2.65984353       0.02528681
Cs      12.59632460       5.31598437       7.92044136
K       10.65326038       0.00370786       3.97287715
In      10.65325427       0.00370480       0.00000983
I       10.00431923       2.10188216       1.58948671
I       19.68889348       5.87396637       6.35627074
I       12.86728153       2.08403945       6.35627705
I       16.82592983       5.89177198       1.58949303
I       10.95872317       7.95430120       1.58948927
I       18.73449522       0.02152700       6.35627330
Cs      14.53939346      10.62826604       0.02528681
Cs      10.03882746      13.28440688       7.92044136
K        8.09576324       7.97213038       3.97287715
In       8.09575713       7.97212732       0.00000983
I        7.44682209      10.07030467       1.58948671
I       17.13139634      13.84238889       6.35627074
I       10.30978439      10.05246196       6.35627705
I       14.26843268      13.86019450       1.58949303
I        8.40122603      15.92272371       1.58948927
I       16.17699807       7.98994952       6.35627330
