20
Lattice="17.44086587111972 -0.5190911553144283 -0.39835943213123814 4.136540392567303 7.756911854809252 -0.2158084254074615 4.131116950607304 2.3897947641734523 7.2918795184901075" Properties=species:S:1:pos:R:3:spacegroup_kinds:I:1:forces:R:3 spacegroup="P 1" unit_cell=conventional occupancy="_JSON {\"0\": {\"Cs\": 1.0}, \"1\": {\"Cs\": 1.0}, \"2\": {\"K\": 1.0}, \"3\": {\"In\": 1.0}, \"4\": {\"I\": 1.0}, \"5\": {\"I\": 1.0}, \"6\": {\"I\": 1.0}, \"7\": {\"I\": 1.0}, \"8\": {\"I\": 1.0}, \"9\": {\"I\": 1.0}, \"10\": {\"Cs\": 1.0}, \"11\": {\"Cs\": 1.0}, \"12\": {\"K\": 1.0}, \"13\": {\"In\": 1.0}, \"14\": {\"I\": 1.0}, \"15\": {\"I\": 1.0}, \"16\": {\"I\": 1.0}, \"17\": {\"I\": 1.0}, \"18\": {\"I\": 1.0}, \"19\": {\"I\": 1.0}}" energy=-51.29786874843012 free_energy=-51.29786874843012 stress="4.673142068397725e-06 1.2887394120181655e-06 1.771719796231133e-06 1.2887394120181655e-06 3.855694205409269e-06 2.5759061468867095e-07 1.771719796231133e-06 2.5759061468867095e-07 -9.367821121893214e-06" pbc="T T T"
Cs       4.08471743       2.38287164       1.67337520        0      -0.00022101      -0.00036305       0.00081753
Cs      12.90397894       7.50534970       5.20181195        1      -0.00035172      -0.00015776       0.00089132
K        8.49437841       4.94252141       3.43880073        2      -0.00023855       0.00074964      -0.00004361
In      17.44103611      -0.51936082      -0.39828973        3       0.00001145      -0.00029151       0.00021135
I        8.75363151       1.71164990       2.02853911        4       0.00034499       0.00032407      -0.00020378
I        8.23367672       8.17494410       4.84879955        5       0.00045530       0.00027521      -0.00033322
I       11.16460433       5.68246115       1.23696665        6       0.00018961      -0.00036454       0.00014817
I        5.82256297       4.20467363       5.63956666        7       0.00047790       0.00010016       0.00012930
I        6.57417405       6.45095583       0.87778010        8      -0.00047874      -0.00023927      -0.00071345
I       10.41447940       3.43712581       6.00023425        9       0.00001822      -0.00041857      -0.00052165
Cs      12.80515886       2.12332076       1.47419020       10      -0.00026261      -0.00031758       0.00085309
Cs      21.62440525       7.24580237       5.00263903       11      -0.00032462      -0.00018611       0.00086374
K       17.21481463       4.68297260       3.23962445       12      -0.00026190       0.00077049      -0.00004711
In       8.72068437      -0.25996554      -0.19900377       13      -0.00055871       0.00053943      -0.00047781
I       17.47407170       1.45214281       1.82938867       14       0.00031151       0.00019346      -0.00027823
I       16.95411171       7.91537079       4.64960601       15       0.00049251       0.00032314      -0.00033990
I       19.88501922       5.42284671       1.03782264       16       0.00037595      -0.00005493      -0.00004755
I       14.54300711       3.94518025       5.44036629       17       0.00034114      -0.00013093       0.00025713
I       15.29451350       6.19146746       0.67859671       18       0.00008664      -0.00053984      -0.00056450
I       19.13497662       3.17756348       5.80104628       19      -0.00040735      -0.00021150      -0.00060083
