10
Lattice="9.280057485812145 -0.14710341517017653 0.5758363067899636 -4.602318492883009 8.010430243249235 1.0766536443845967 -0.5682023705337101 -1.485718798907007 8.683958622812368" Properties=species:S:1:pos:R:3:spacegroup_kinds:I:1:forces:R:3 spacegroup="P 1" unit_cell=conventional occupancy="_JSON {\"0\": {\"Cs\": 1.0}, \"1\": {\"Cs\": 1.0}, \"2\": {\"K\": 1.0}, \"3\": {\"In\": 1.0}, \"4\": {\"I\": 1.0}, \"5\": {\"I\": 1.0}, \"6\": {\"I\": 1.0}, \"7\": {\"I\": 1.0}, \"8\": {\"I\": 1.0}, \"9\": {\"I\": 1.0}}" energy=-25.79380447968924 free_energy=-25.79380447968924 stress="6.907359272511634e-06 -3.993840081623497e-06 -8.717646360870066e-06 -3.993840081623497e-06 1.0322457135651975e-06 4.403858316625492e-06 -8.717646360870066e-06 4.403858316625492e-06 1.919341325935059e-06" pbc="T T T"
Cs       0.69200584       4.83335682       9.80649692        0       0.00016792       0.00037725       0.00041828
Cs       5.31619286       2.10052053       9.72332588        1      -0.00049125       0.00050249       0.00016371
K        0.94975046       0.27870330       4.59757335        2      -0.00047622      -0.00013652      -0.00050646
In       1.23328850       1.02136465       0.25543588        3      -0.00003100       0.00006015      -0.00023606
I        2.32423520       2.79923465       2.42658513        4      -0.00004862       0.00010767      -0.00035529
I        4.25257166       5.62085706       8.42068387        5      -0.00039026       0.00021738      -0.00035319
I        3.21148492      -0.17790639       7.35817308        6       0.00008247      -0.00068638       0.00031850
I        7.96684487       0.58851190       2.41188222        7       0.00018409      -0.00027410       0.00045047
I       -2.25256097       6.64706130       2.79171275        8       0.00028305      -0.00016811      -0.00009986
I       -0.45200099       1.92020760       7.47918257        9       0.00071983       0.00000018       0.00019990
