10
Lattice="10.702130925603532 0.0 0.0 -5.37101594188101 5.777930640177209 0.0 -1.0761006641415891 -2.3805320216635235 6.906304604340264" Properties=species:S:1:pos:R:3 pbc="T T T"
Cs       1.40074723       4.60964624      -0.00003683
Cs       6.75846285       2.68366936      -0.00003683
K        0.87600482      -0.43257998       3.45316373
In       1.41406373       0.75769775       0.00003221
I        2.59659310       1.79640487       1.38174962
I        4.48655123       3.11638395       5.52460819
I        3.35934006      -1.14659091       5.52460366
I        9.09478237       0.28140974       1.38174509
I       -2.76398139       4.54440139       1.38173326
I       -0.85504639       0.36842100       5.52459183
