40
Lattice="18.519505450349445 1.7173763025982969 -0.03777542235190146 -10.74615279885487 15.177027773309996 -0.01938559262553641 0.01191190408332924 0.0255997953947919 8.82863247033854" Properties=species:S:1:pos:R:3:spacegroup_kinds:I:1:forces:R:3 spacegroup="P 1" unit_cell=conventional occupancy="_JSON {\"0\": {\"Cs\": 1.0}, \"1\": {\"Cs\": 1.0}, \"2\": {\"K\": 1.0}, \"3\": {\"In\": 1.0}, \"4\": {\"I\": 1.0}, \"5\": {\"I\": 1.0}, \"6\": {\"I\": 1.0}, \"7\": {\"I\": 1.0}, \"8\": {\"I\": 1.0}, \"9\": {\"I\": 1.0}, \"10\": {\"Cs\": 1.0}, \"11\": {\"Cs\": 1.0}, \"12\": {\"K\": 1.0}, \"13\": {\"In\": 1.0}, \"14\": {\"I\": 1.0}, \"15\": {\"I\": 1.0}, \"16\": {\"I\": 1.0}, \"17\": {\"I\": 1.0}, \"18\": {\"I\": 1.0}, \"19\": {\"I\": 1.0}, \"20\": {\"Cs\": 1.0}, \"21\": {\"Cs\": 1.0}, \"22\": {\"K\": 1.0}, \"23\": {\"In\": 1.0}, \"24\": {\"I\": 1.0}, \"25\": {\"I\": 1.0}, \"26\": {\"I\": 1.0}, \"27\": {\"I\": 1.0}, \"28\": {\"I\": 1.0}, \"29\": {\"I\": 1.0}, \"30\": {\"Cs\": 1.0}, \"31\": {\"Cs\": 1.0}, \"32\": {\"K\": 1.0}, \"33\": {\"In\": 1.0}, \"34\": {\"I\": 1.0}, \"35\": {\"I\": 1.0}, \"36\": {\"I\": 1.0}, \"37\": {\"I\": 1.0}, \"38\": {\"I\": 1.0}, \"39\": {\"I\": 1.0}}" energy=-103.17524962915898 free_energy=-103.17524962915898 stress="9.497080240995316e-07 -9.636443832662762e-07 -4.8240001678590415e-06 -9.636443832662762e-07 -1.1959127186993234e-06 5.589483651302252e-06 -4.8240001678590415e-06 5.589483651302252e-06 -7.38891519984905e-07" pbc="T T T"
Cs       4.06040451       3.07620294       0.01586604        0       0.00008192       0.00031565       0.00005873
Cs      -0.80479127       5.34590218       8.78511526        1      -0.00020131       0.00029855       0.00014451
K       18.20300918       1.70535928       4.37727166        2       0.00024710      -0.00001116      -0.00019446
In      18.19824177       1.69225650      -0.03706600        3       0.00010715       0.00002398       0.00028830
I       16.80781194       3.69882777       1.72555668        4       0.00048091      -0.00042236       0.00056047
I        4.96633771       6.44129262       7.03735339        5       0.00071592      -0.00004902       0.00022053
I        0.72537959       2.20203446       7.05531720        6      -0.00072726       0.00038309      -0.00022741
I        2.53173871       6.21990878       1.74593274        7      -0.00084370       0.00025699       0.00028144
I       -3.26239644       7.77375412       1.75336007        8       0.00017310      -0.00047134      -0.00043694
I        6.51771848       0.64958508       7.04893010        9      -0.00003358      -0.00032386      -0.00069516
Cs      -1.31267189      10.66471684       0.00617325       10       0.00008197       0.00031557       0.00005871
Cs      -6.17786766      12.93441606       8.77542246       11      -0.00020138       0.00029861       0.00014453
K       12.82993279       9.29387320       4.36757886       12       0.00024704      -0.00001134      -0.00019450
In      12.82516545       9.28077057      -0.04675881       13       0.00010672       0.00002285       0.00028840
I       11.43473555      11.28734160       1.71586386       14       0.00048079      -0.00042208       0.00056063
I       -0.40673870      14.02980654       7.02766061       15       0.00071602      -0.00004924       0.00022040
I       -4.64769686       9.79054823       7.04562444       16      -0.00072700       0.00038364      -0.00022770
I       -2.84133766      13.80842275       1.73623991       17      -0.00084391       0.00025652       0.00028170
I       -8.63547280      15.36226804       1.74366730       18       0.00017289      -0.00047146      -0.00043710
I        1.14464207       8.23809895       7.03923730       19      -0.00003349      -0.00032376      -0.00069506
Cs      13.32015724       3.93489109      -0.00302167       20       0.00008191       0.00031565       0.00005873
Cs       8.45496146       6.20459033       8.76622755       21      -0.00020131       0.00029855       0.00014451
K        8.94325645       0.84667113       4.39615937       22       0.00024712      -0.00001112      -0.00019446
In       8.93848903       0.83356830      -0.01817829       23       0.00010723       0.00002423       0.00028828
I        7.54805921       2.84013961       1.74444439       24       0.00048091      -0.00042237       0.00056046
I       14.22609043       7.29998079       7.01846568       25       0.00071595      -0.00004907       0.00022051
I        9.98513232       3.06072260       7.03642949       26      -0.00072726       0.00038307      -0.00022739
I       11.79149144       7.07859695       1.72704503       27      -0.00084372       0.00025694       0.00028146
I        5.99735630       8.63244228       1.73447237       28       0.00017302      -0.00047136      -0.00043699
I       15.77747120       1.50827323       7.03004239       29      -0.00003352      -0.00032383      -0.00069512
Cs       7.94708083      11.52340499      -0.01271446       30       0.00008196       0.00031558       0.00005871
Cs       3.08188506      13.79310421       8.75653475       31      -0.00020136       0.00029862       0.00014454
K        3.57018006       8.43518505       4.38646658       32       0.00024705      -0.00001132      -0.00019449
In       3.56541271       8.42208241      -0.02787110       33       0.00010681       0.00002294       0.00028839
I        2.17498283      10.42865347       1.73475158       34       0.00048080      -0.00042214       0.00056059
I        8.85301403      14.88849467       7.00877289       35       0.00071599      -0.00004916       0.00022046
I        4.61205588      10.64923641       7.02673672       36      -0.00072706       0.00038351      -0.00022765
I        6.41841505      14.66711086       1.71735222       37      -0.00084384       0.00025668       0.00028162
I        0.62427991      16.22095619       1.72477958       38       0.00017291      -0.00047146      -0.00043709
I       10.40439480       9.09678711       7.02034959       39      -0.00003350      -0.00032377      -0.00069508
