40
Lattice="16.73756840674311 0.0 0.0 -10.899247965654212 12.702463932386806 0.0 0.0 0.0 7.945756492015823" Properties=species:S:1:pos:R:3 pbc="T T T"
Cs       3.47170303       2.12078001       0.02528681
Cs      -1.13443303       4.23785733       7.92044136
K       -0.29094048       0.00370786       3.97287715
In      -0.29094658       0.00370480       0.00000983
I       -1.70716974       1.67605894       1.58948671
I        4.04443726       4.68259904       6.35627074
I        0.48988843       1.66183364       6.35627705
I        1.84737772       4.69678724       1.58949303
I       -3.54350864       6.34072806       1.58948927
I        5.88078183       0.01790959       6.35627330
Cs      -1.97792095       8.47201198       0.02528681
Cs      -6.58405701      10.58908930       7.92044136
K       -5.74056446       6.35493983       3.97287715
In      -5.74057057       6.35493677       0.00000983
I       -7.15679373       8.02729090       1.58948671
I       -1.40518672      11.03383100       6.35627074
I       -4.95973555       8.01306561       6.35627705
I       -3.60224626      11.04801921       1.58949303
I       -8.99313262      12.69196003       1.58948927
I        0.43115785       6.36914156       6.35627330
Cs      11.84048724       2.12078001       0.02528681
Cs       7.23435117       4.23785733       7.92044136
K        8.07784373       0.00370786       3.97287715
In       8.07783762       0.00370480       0.00000983
I        6.66161446       1.67605894       1.58948671
I       12.41322146       4.68259904       6.35627074
I        8.85867264       1.66183364       6.35627705
I       10.21616193       4.69678724       1.58949303
I        4.82527556       6.34072806       1.58948927
I       14.24956603       0.01790959       6.35627330
Cs       6.39086325       8.47201198       0.02528681
Cs       1.78472719      10.58908930       7.92044136
K        2.62821975       6.35493983       3.97287715
In       2.62821364       6.35493677       0.00000983
I        1.21199048       8.02729090       1.58948671
I        6.96359748      11.03383100       6.35627074
I        3.40904865       8.01306561       6.35627705
I        4.76653794      11.04801921       1.58949303
I       -0.62434842      12.69196003       1.58948927
I        8.79994205       6.36914156       6.35627330
