80
Lattice="18.444341346973445 0.05998246694323925 0.09253225316106821 9.289883551331375 15.973722041345184 0.0789372266947189 9.28466694468001 5.353580612277907 13.937434829770373" Properties=species:S:1:pos:R:3:spacegroup_kinds:I:1:forces:R:3 spacegroup="P 1" unit_cell=conventional occupancy="_JSON {\"0\": {\"Cs\": 1.0}, \"1\": {\"Cs\": 1.0}, \"2\": {\"K\": 1.0}, \"3\": {\"In\": 1.0}, \"4\": {\"I\": 1.0}, \"5\": {\"I\": 1.0}, \"6\": {\"I\": 1.0}, \"7\": {\"I\": 1.0}, \"8\": {\"I\": 1.0}, \"9\": {\"I\": 1.0}, \"10\": {\"Cs\": 1.0}, \"11\": {\"Cs\": 1.0}, \"12\": {\"K\": 1.0}, \"13\": {\"In\": 1.0}, \"14\": {\"I\": 1.0}, \"15\": {\"I\": 1.0}, \"16\": {\"I\": 1.0}, \"17\": {\"I\": 1.0}, \"18\": {\"I\": 1.0}, \"19\": {\"I\": 1.0}, \"20\": {\"Cs\": 1.0}, \"21\": {\"Cs\": 1.0}, \"22\": {\"K\": 1.0}, \"23\": {\"In\": 1.0}, \"24\": {\"I\": 1.0}, \"25\": {\"I\": 1.0}, \"26\": {\"I\": 1.0}, \"27\": {\"I\": 1.0}, \"28\": {\"I\": 1.0}, \"29\": {\"I\": 1.0}, \"30\": {\"Cs\": 1.0}, \"31\": {\"Cs\": 1.0}, \"32\": {\"K\": 1.0}, \"33\": {\"In\": 1.0}, \"34\": {\"I\": 1.0}, \"35\": {\"I\": 1.0}, \"36\": {\"I\": 1.0}, \"37\": {\"I\": 1.0}, \"38\": {\"I\": 1.0}, \"39\": {\"I\": 1.0}, \"40\": {\"Cs\": 1.0}, \"41\": {\"Cs\": 1.0}, \"42\": {\"K\": 1.0}, \"43\": {\"In\": 1.0}, \"44\": {\"I\": 1.0}, \"45\": {\"I\": 1.0}, \"46\": {\"I\": 1.0}, \"47\": {\"I\": 1.0}, \"48\": {\"I\": 1.0}, \"49\": {\"I\": 1.0}, \"50\": {\"Cs\": 1.0}, \"51\": {\"Cs\": 1.0}, \"52\": {\"K\": 1.0}, \"53\": {\"In\": 1.0}, \"54\": {\"I\": 1.0}, \"55\": {\"I\": 1.0}, \"56\": {\"I\": 1.0}, \"57\": {\"I\": 1.0}, \"58\": {\"I\": 1.0}, \"59\": {\"I\": 1.0}, \"60\": {\"Cs\": 1.0}, \"61\": {\"Cs\": 1.0}, \"62\": {\"K\": 1.0}, \"63\": {\"In\": 1.0}, \"64\": {\"I\": 1.0}, \"65\": {\"I\": 1.0}, \"66\": {\"I\": 1.0}, \"67\": {\"I\": 1.0}, \"68\": {\"I\": 1.0}, \"69\": {\"I\": 1.0}, \"70\": {\"Cs\": 1.0}, \"71\": {\"Cs\": 1.0}, \"72\": {\"K\": 1.0}, \"73\": {\"In\": 1.0}, \"74\": {\"I\": 1.0}, \"75\": {\"I\": 1.0}, \"76\": {\"I\": 1.0}, \"77\": {\"I\": 1.0}, \"78\": {\"I\": 1.0}, \"79\": {\"I\": 1.0}}" energy=-205.19157280468022 free_energy=-205.19157280468022 stress="2.0782086591278272e-07 -2.9450801820043254e-08 1.1322676788641455e-07 -2.9450801820043254e-08 2.2517003379801003e-07 -1.0362911502938098e-07 1.1322676788641455e-07 -1.0362911502938098e-07 3.403420023590857e-07" pbc="T T T"
Cs       4.63030559       2.69112744       1.95261285        0      -0.00009944       0.00026758       0.00004646
Cs      13.87988860       8.00075654       5.10086885        1      -0.00036149       0.00044708       0.00017305
K        9.25434308       5.34682011       3.52721199        2       0.00018639       0.00019425      -0.00008841
In      18.44444999       0.06013366       0.09283750        3       0.00006189      -0.00013874      -0.00027040
I        6.99091089       3.23153390       5.23349885        4       0.00037146      -0.00010077      -0.00003509
I       11.51838148       7.46228222       1.82115407        5      -0.00020412      -0.00002580      -0.00026668
I        9.95015891       2.36761969       1.74638669        6      -0.00022390      -0.00010441      -0.00027783
I        8.55931106       8.32606833       5.30852990        7       0.00022226      -0.00005701      -0.00015946
I        6.33526386       6.21270650       1.72911076        8      -0.00002644      -0.00023355      -0.00028139
I       12.17365295       4.48039980       5.32510512        9      -0.00001882      -0.00011862       0.00021355
Cs       9.27332323       5.36784176       8.92210117       10      -0.00019917       0.00018053       0.00013711
Cs      18.52103583      10.67854231      12.06964259       11      -0.00020962       0.00018824      -0.00002695
K       13.89692254       8.02380478      10.49560962       12      -0.00005998       0.00001076      -0.00003640
In      23.08642037       2.73685931       7.06115237       13       0.00040003      -0.00009881       0.00041409
I       11.63445776       5.90847959      12.20375627       14      -0.00001131      -0.00004963      -0.00046150
I       16.15943450      10.13952677       8.78832678       15       0.00010731      -0.00028003       0.00014288
I       14.59193048       5.04430070       8.71455339       16       0.00004717       0.00020085       0.00018093
I       13.20193990      11.00298658      12.27725431       17      -0.00039003      -0.00017180      -0.00006652
I       10.97693896       8.88936913       8.69786143       18       0.00045066      -0.00020863       0.00034664
I       16.81598664       7.15768025      12.29453818       19      -0.00005608      -0.00010752      -0.00002119
Cs       9.27624896      10.67875396       1.99281328       20      -0.00005414      -0.00006442       0.00001108
Cs      18.52397920      15.98911554       5.14039271       21      -0.00009898       0.00011882       0.00015748
K       13.89968713      13.33350959       3.56680999       22       0.00001797      -0.00004759       0.00018055
In      23.08902135       8.04680944       0.13219791       23      -0.00025117       0.00012162      -0.00009068
I       11.63690494      11.21736540       5.27329766       24      -0.00033056      -0.00036730       0.00048954
I       16.16311543      15.44939062       1.86042929       25      -0.00000510      -0.00013903      -0.00004508
I       14.59446266      10.35460560       1.78547149       26       0.00015005      -0.00000116      -0.00030039
I       13.20499209      16.31262658       5.34814000       27      -0.00034280       0.00012861       0.00004411
I       10.98068077      14.20008679       1.76885850       28       0.00009416      -0.00002116       0.00024440
I       16.81954021      12.46783062       5.36422366       29      -0.00026622       0.00002726      -0.00004286
Cs      13.91828649      13.35612725       8.96207302       30      -0.00022042       0.00008576      -0.00020463
Cs      23.16581199      18.66476619      12.10936213       31       0.00012143       0.00016643      -0.00005286
K       18.54154555      16.01043124      10.53531969       32       0.00020125      -0.00000608       0.00003679
In      27.73152719      10.72363662       7.10061602       33       0.00019638       0.00015591       0.00015646
I       16.27834168      13.89513967      12.24216627       34       0.00048760      -0.00024347       0.00015650
I       20.80526256      18.12571354       8.82877557       35       0.00011889      -0.00001477      -0.00027168
I       19.23624395      13.03120333       8.75450739       36      -0.00010008       0.00007923      -0.00002838
I       17.84799437      18.98945192      12.31702239       37       0.00003584       0.00011839      -0.00032248
I       15.62334423      16.87689758       8.73680286       38      -0.00012090       0.00026337       0.00009643
I       21.46030201      15.14413259      12.33384145       39      -0.00004144      -0.00001846       0.00019418
Cs      13.85357309       2.72134950       1.99878270       40      -0.00008723       0.00052851       0.00012895
Cs      23.10121089       8.03118642       5.14728757       41      -0.00051879       0.00013359       0.00018905
K       18.47684444       5.37698134       3.57344020       42      -0.00000204       0.00001755      -0.00003442
In       9.22217331       0.03021208       0.04648431       43       0.00030788      -0.00019611      -0.00033509
I       16.21379324       3.26147522       5.28010306       44      -0.00017649      -0.00004561      -0.00007734
I       20.73981979       7.49276878       1.86705734       45       0.00004950      -0.00025207      -0.00017659
I       19.17114307       2.39760108       1.79289842       46      -0.00005669       0.00009220      -0.00010595
I       17.78264065       8.35612967       5.35436273       47      -0.00015864      -0.00004766      -0.00008223
I       15.55830588       6.24335284       1.77471209       48       0.00015349      -0.00054583      -0.00000424
I       21.39544210       4.51036074       5.37182047       49      -0.00011113       0.00006376       0.00001506
Cs      18.49603845       5.39824080       8.96869174       50      -0.00057947       0.00015842      -0.00006442
Cs      27.74226812      10.70851329      12.11572684       51       0.00025694       0.00031018       0.00004389
K       23.11906472       8.05375417      10.54198440       52       0.00009620       0.00009174      -0.00012605
In      13.86442187       2.70689036       7.01471917       53       0.00045983      -0.00032806       0.00034999
I       20.85604680       5.93824629      12.24893242       54       0.00012157      -0.00021039       0.00008630
I       25.38175850      10.17004704       8.83547068       55       0.00030375       0.00004799      -0.00045183
I       23.81408311       5.07448686       8.76098006       56      -0.00005156      -0.00012627      -0.00011982
I       22.42420163      11.03275750      12.32353323       57       0.00012366       0.00019642       0.00007169
I       20.19953370       8.91983925       8.74416903       58      -0.00002309       0.00002940       0.00012027
I       26.03821061       7.18725264      12.34039309       59       0.00025760      -0.00034522       0.00013756
Cs      18.49815549      10.70894767       2.03870237       60      -0.00016494       0.00014000      -0.00001989
Cs      27.74586427      16.01882508       5.18712846       61       0.00005897       0.00011435       0.00005688
K       23.12180916      13.36331928       3.61293881       62       0.00017206       0.00006103       0.00016886
In      13.86702926       8.01703568       0.08563928       63      -0.00021807      -0.00013189      -0.00011573
I       20.85899709      11.24825194       5.32018609       64       0.00034169      -0.00017277       0.00002594
I       25.38487926      15.47880521       1.90589678       65      -0.00023151      -0.00017367       0.00029625
I       23.81692386      10.38393055       1.83233896       66       0.00007856       0.00043609      -0.00019696
I       22.42720767      16.34284679       5.39410952       67       0.00002051      -0.00021481      -0.00018618
I       20.20317215      14.22990306       1.81447690       68       0.00004443       0.00001488       0.00014363
I       26.04165155      12.49783641       5.41087146       69      -0.00033646       0.00001645      -0.00007230
Cs      23.13917776      13.38600684       9.00707548       70       0.00009595      -0.00005571       0.00013117
Cs      32.38906283      18.69536076      12.15647334       71      -0.00028354       0.00021411      -0.00023896
K       27.76412652      16.04059316      10.58135551       72       0.00003145      -0.00018497       0.00013453
In      18.50922164      10.69377340       7.05425213       73       0.00038231       0.00007780       0.00015100
I       25.50032599      13.92544601      12.28769869       74       0.00003766      -0.00014648       0.00013797
I       30.02762595      18.15610663       8.87554813       75       0.00029029      -0.00025504      -0.00023559
I       28.45956224      13.06104886       8.80056509       76      -0.00014677      -0.00001108      -0.00020244
I       27.06934423      19.01961728      12.36312746       77      -0.00017229       0.00038045       0.00012983
I       24.84525651      16.90656469       8.78311998       78      -0.00022482       0.00030935      -0.00016836
I       30.68293989      15.17466244      12.38020395       79       0.00028070      -0.00012656       0.00042420
