80
Lattice="21.236834312270776 0.0 0.0 -10.595730627728862 16.013845966538895 0.0 7.939621103812929 0.2958084564839169 14.104451011080343" Properties=species:S:1:pos:R:3 pbc="T T T"
Cs       9.79670908       2.77286948       7.04557948
Cs       0.52893322       5.29421760       0.00661028
K        1.98490528       0.07395211       3.52611275
In       0.51764540      -0.04387105       0.00000951
I        9.14574868      -0.00872665       1.41067458
I        1.17989040       8.07579904       5.64155695
I        2.71244345       2.08254467       1.41067849
I        7.61321089       5.98455040       5.64156087
I        8.01596990       5.89025043       1.41067386
I        2.30967239       2.17684111       5.64155624
Cs      13.76651963       2.92077371      14.09780499
Cs       4.49874377       5.44212183       7.05883578
K        5.95471583       0.22185634      10.57833826
In       4.48745595       0.10403317       7.05223502
I       13.11555923       0.13917758       8.46290008
I        5.14970095       8.22370327      12.69378246
I        6.68225400       2.23044890       8.46290399
I       11.58302144       6.13245463      12.69378637
I       11.98578046       6.03815466       8.46289937
I        6.27948294       2.32474534      12.69378175
Cs       4.49884377      10.77979246       7.04557948
Cs      -4.76893209      13.30114058       0.00661028
K       -3.31296004       8.08087510       3.52611275
In      -4.78021992       7.96305193       0.00000951
I        3.84788336       7.99819634       1.41067458
I       -4.11797492      16.08272202       5.64155695
I       -2.58542186      10.08946765       1.41067849
I        2.31534558      13.99147339       5.64156087
I        2.71810459      13.89717342       1.41067386
I       -2.98819292      10.18376410       5.64155624
Cs       8.46865432      10.92769669      14.09780499
Cs      -0.79912154      13.44904481       7.05883578
K        0.65685051       8.22877933      10.57833826
In      -0.81040936       8.11095616       7.05223502
I        7.81769392       8.14610057       8.46290008
I       -0.14816436      16.23062625      12.69378246
I        1.38438869      10.23737188       8.46290399
I        6.28515613      14.13937762      12.69378637
I        6.68791514      14.04507764       8.46289937
I        0.98161763      10.33166832      12.69378175
Cs      20.41512624       2.77286948       7.04557948
Cs      11.14735038       5.29421760       0.00661028
K       12.60332243       0.07395211       3.52611275
In      11.13606255      -0.04387105       0.00000951
I       19.76416583      -0.00872665       1.41067458
I       11.79830755       8.07579904       5.64155695
I       13.33086061       2.08254467       1.41067849
I       18.23162805       5.98455040       5.64156087
I       18.63438706       5.89025043       1.41067386
I       12.92808955       2.17684111       5.64155624
Cs      24.38493679       2.92077371      14.09780499
Cs      15.11716093       5.44212183       7.05883578
K       16.57313298       0.22185634      10.57833826
In      15.10587311       0.10403317       7.05223502
I       23.73397639       0.13917758       8.46290008
I       15.76811811       8.22370327      12.69378246
I       17.30067116       2.23044890       8.46290399
I       22.20143860       6.13245463      12.69378637
I       22.60419761       6.03815466       8.46289937
I       16.89790010       2.32474534      12.69378175
Cs      15.11726092      10.77979246       7.04557948
Cs       5.84948506      13.30114058       0.00661028
K        7.30545712       8.08087510       3.52611275
In       5.83819724       7.96305193       0.00000951
I       14.46630052       7.99819634       1.41067458
I        6.50044224      16.08272202       5.64155695
I        8.03299529      10.08946765       1.41067849
I       12.93376273      13.99147339       5.64156087
I       13.33652175      13.89717342       1.41067386
I        7.63022423      10.18376410       5.64155624
Cs      19.08707147      10.92769669      14.09780499
Cs       9.81929562      13.44904481       7.05883578
K       11.27526767       8.22877933      10.57833826
In       9.80800779       8.11095616       7.05223502
I       18.43611107       8.14610057       8.46290008
I       10.47025279      16.23062625      12.69378246
I       12.00280584      10.23737188       8.46290399
I       16.90357329      14.13937762      12.69378637
I       17.30633230      14.04507764       8.46289937
I       11.60003478      10.33166832      12.69378175
