80
Lattice="19.34594556341748 0.0 0.0 -0.8722234909031166 17.026425965865613 0.0 -0.26018961823709114 2.197628657747165 14.600878473381977" Properties=species:S:1:pos:R:3 pbc="T T T"
Cs       4.77818731       3.53492594       0.02317619
Cs       1.27922616       7.46448022       7.27712314
K       -1.58969794       1.24311765       3.65022057
In      -1.52468541       0.69370546       0.00005873
I       -1.64390433       3.15517240       1.46040929
I        7.70130241       7.84434496       5.84005737
I        0.80438058       3.79522931       5.84008747
I        5.25301189       7.20409550       1.46043940
I        0.53952977       9.40767032       1.46041161
I        5.51790112       1.59173884       5.84005969
Cs       4.64809250       4.63374027       7.32361543
Cs       1.14913135       8.56329455      14.57756238
K       -1.71979275       2.34193197      10.95065980
In      -1.65478022       1.79251979       7.30049797
I       -1.77399914       4.25398672       8.76084853
I        7.57120760       8.94315929      13.14049661
I        0.67428577       4.89404364      13.14052671
I        5.12291708       8.30290983       8.76087863
I        0.40943497      10.50648464       8.76085085
I        5.38780631       2.69055317      13.14049892
Cs       4.34207557      12.04813893       0.02317619
Cs       0.84311441      15.97769320       7.27712314
K       -2.02580969       9.75633063       3.65022057
In      -1.96079716       9.20691844       0.00005873
I       -2.08001608      11.66838538       1.46040929
I        7.26519066      16.35755794       5.84005737
I        0.36826883      12.30844229       5.84008747
I        4.81690014      15.71730848       1.46043940
I        0.10341803      17.92088330       1.46041161
I        5.08178937      10.10495183       5.84005969
Cs       4.21198076      13.14695326       7.32361543
Cs       0.71301960      17.07650753      14.57756238
K       -2.15590450      10.85514496      10.95065980
In      -2.09089197      10.30573277       7.30049797
I       -2.21011089      12.76719971       8.76084853
I        7.13509585      17.45637227      13.14049661
I        0.23817402      13.40725662      13.14052671
I        4.68680533      16.81612281       8.76087863
I       -0.02667678      19.01969763       8.76085085
I        4.95169457      11.20376616      13.14049892
Cs      14.45116009       3.53492594       0.02317619
Cs      10.95219894       7.46448022       7.27712314
K        8.08327484       1.24311765       3.65022057
In       8.14828737       0.69370546       0.00005873
I        8.02906845       3.15517240       1.46040929
I       17.37427519       7.84434496       5.84005737
I       10.47735336       3.79522931       5.84008747
I       14.92598467       7.20409550       1.46043940
I       10.21250256       9.40767032       1.46041161
I       15.19087390       1.59173884       5.84005969
Cs      14.32106528       4.63374027       7.32361543
Cs      10.82210413       8.56329455      14.57756238
K        7.95318003       2.34193197      10.95065980
In       8.01819256       1.79251979       7.30049797
I        7.89897364       4.25398672       8.76084853
I       17.24418038       8.94315929      13.14049661
I       10.34725855       4.89404364      13.14052671
I       14.79588986       8.30290983       8.76087863
I       10.08240775      10.50648464       8.76085085
I       15.06077909       2.69055317      13.14049892
Cs      14.01504835      12.04813893       0.02317619
Cs      10.51608720      15.97769320       7.27712314
K        7.64716309       9.75633063       3.65022057
In       7.71217562       9.20691844       0.00005873
I        7.59295671      11.66838538       1.46040929
I       16.93816344      16.35755794       5.84005737
I       10.04124161      12.30844229       5.84008747
I       14.48987292      15.71730848       1.46043940
I        9.77639081      17.92088330       1.46041161
I       14.75476216      10.10495183       5.84005969
Cs      13.88495354      13.14695326       7.32361543
Cs      10.38599239      17.07650753      14.57756238
K        7.51706829      10.85514496      10.95065980
In       7.58208082      10.30573277       7.30049797
I        7.46286190      12.76719971       8.76084853
I       16.80806863      17.45637227      13.14049661
I        9.91114681      13.40725662      13.14052671
I       14.35977811      16.81612281       8.76087863
I        9.64629600      19.01969763       8.76085085
I       14.62466735      11.20376616      13.14049892
