80
Lattice="16.662143301641294 -4.364830795819715 0.6904080428922338 -4.521768499806144 16.59161407256354 -1.187790191496407 -0.4271636468842589 1.1334698231485092 17.458531981877535" Properties=species:S:1:pos:R:3:spacegroup_kinds:I:1:forces:R:3 spacegroup="P 1" unit_cell=conventional occupancy="_JSON {\"0\": {\"Cs\": 1.0}, \"1\": {\"Cs\": 1.0}, \"2\": {\"K\": 1.0}, \"3\": {\"In\": 1.0}, \"4\": {\"I\": 1.0}, \"5\": {\"I\": 1.0}, \"6\": {\"I\": 1.0}, \"7\": {\"I\": 1.0}, \"8\": {\"I\": 1.0}, \"9\": {\"I\": 1.0}, \"10\": {\"Cs\": 1.0}, \"11\": {\"Cs\": 1.0}, \"12\": {\"K\": 1.0}, \"13\": {\"In\": 1.0}, \"14\": {\"I\": 1.0}, \"15\": {\"I\": 1.0}, \"16\": {\"I\": 1.0}, \"17\": {\"I\": 1.0}, \"18\": {\"I\": 1.0}, \"19\": {\"I\": 1.0}, \"20\": {\"Cs\": 1.0}, \"21\": {\"Cs\": 1.0}, \"22\": {\"K\": 1.0}, \"23\": {\"In\": 1.0}, \"24\": {\"I\": 1.0}, \"25\": {\"I\": 1.0}, \"26\": {\"I\": 1.0}, \"27\": {\"I\": 1.0}, \"28\": {\"I\": 1.0}, \"29\": {\"I\": 1.0}, \"30\": {\"Cs\": 1.0}, \"31\": {\"Cs\": 1.0}, \"32\": {\"K\": 1.0}, \"33\": {\"In\": 1.0}, \"34\": {\"I\": 1.0}, \"35\": {\"I\": 1.0}, \"36\": {\"I\": 1.0}, \"37\": {\"I\": 1.0}, \"38\": {\"I\": 1.0}, \"39\": {\"I\": 1.0}, \"40\": {\"Cs\": 1.0}, \"41\": {\"Cs\": 1.0}, \"42\": {\"K\": 1.0}, \"43\": {\"In\": 1.0}, \"44\": {\"I\": 1.0}, \"45\": {\"I\": 1.0}, \"46\": {\"I\": 1.0}, \"47\": {\"I\": 1.0}, \"48\": {\"I\": 1.0}, \"49\": {\"I\": 1.0}, \"50\": {\"Cs\": 1.0}, \"51\": {\"Cs\": 1.0}, \"52\": {\"K\": 1.0}, \"53\": {\"In\": 1.0}, \"54\": {\"I\": 1.0}, \"55\": {\"I\": 1.0}, \"56\": {\"I\": 1.0}, \"57\": {\"I\": 1.0}, \"58\": {\"I\": 1.0}, \"59\": {\"I\": 1.0}, \"60\": {\"Cs\": 1.0}, \"61\": {\"Cs\": 1.0}, \"62\": {\"K\": 1.0}, \"63\": {\"In\": 1.0}, \"64\": {\"I\": 1.0}, \"65\": {\"I\": 1.0}, \"66\": {\"I\": 1.0}, \"67\": {\"I\": 1.0}, \"68\": {\"I\": 1.0}, \"69\": {\"I\": 1.0}, \"70\": {\"Cs\": 1.0}, \"71\": {\"Cs\": 1.0}, \"72\": {\"K\": 1.0}, \"73\": {\"In\": 1.0}, \"74\": {\"I\": 1.0}, \"75\": {\"I\": 1.0}, \"76\": {\"I\": 1.0}, \"77\": {\"I\": 1.0}, \"78\": {\"I\": 1.0}, \"79\": {\"I\": 1.0}}" energy=-206.20625089355852 free_energy=-206.20625089355852 stress="1.6815567576583511e-06 -9.853907894572664e-08 -6.157783955905621e-07 -9.853907894572664e-08 1.0952855025275455e-06 -4.914721952353956e-07 -6.157783955905621e-07 -4.914721952353956e-07 8.678176122638542e-07" pbc="T T T"
Cs       3.30359747       2.40204529       1.16178484        0      -0.00002473       0.00010123       0.00007217
Cs      -0.38036511       6.30167200       7.11573130        1      -0.00018954       0.00013830       0.00005493
K       15.08868913      -3.06971729       4.95354450        2      -0.00008107       0.00011304      -0.00010911
In      15.19541585      -3.35269146       0.58891496        3       0.00003353      -0.00053052      -0.00023676
I       15.47555074      -0.83822382       2.18079417        4       0.00016093      -0.00017679      -0.00004799
I        4.10948444       5.17755609       6.78718536        5       0.00003844      -0.00002683      -0.00019753
I        0.60680000       2.39087614       6.88261181        6      -0.00010264      -0.00025496       0.00007078
I        2.31611584       6.31353950       1.39483948        7      -0.00003949      -0.00019163      -0.00006359
I       -1.84856054       7.94410829       1.18738960        8       0.00004499      -0.00005545       0.00008222
I        4.77158117       0.75997032       7.09011626        9       0.00009945       0.00007059      -0.00012577
Cs       3.08982815       2.96908892       9.89101794       10       0.00014979      -0.00019710       0.00009568
Cs      -0.59410459       6.86863199      15.84448502       11      -0.00000487      -0.00002199       0.00034585
K       14.87503525      -2.50282115      13.68258593       12      -0.00007501      -0.00003087       0.00042222
In      14.98173025      -2.78613837       9.31810463       13       0.00006161       0.00030369       0.00018322
I       15.26223816      -0.27159152      10.91027849       14      -0.00025424      -0.00020479      -0.00044021
I        3.89606831       5.74421544      15.51637916       15      -0.00017388       0.00014671       0.00000183
I        0.39352536       2.95738516      15.61185800       16      -0.00072113      -0.00014622       0.00026527
I        2.10272466       6.87996990      10.12416590       17      -0.00023988       0.00012633       0.00002713
I       -2.06214347       8.51082338       9.91674291       18       0.00011060      -0.00012973      -0.00008042
I        4.55791710       1.32674130      15.81936710       19       0.00042165      -0.00002921       0.00015891
Cs       1.04273471      10.69799812       0.56787838       20      -0.00003642      -0.00009199      -0.00006148
Cs      -2.64144024      14.59762465       6.52200991       21       0.00001407       0.00009177      -0.00010283
K       12.82755186       5.22639831       4.35970013       22       0.00015555      -0.00006957      -0.00019757
In      12.93441420       4.94286971      -0.00501389       23       0.00020060       0.00019237       0.00003695
I       13.21486372       7.45746504       1.58686089       24      -0.00007072      -0.00004588       0.00015276
I        1.84845760      13.47348714       6.19340314       25       0.00011927      -0.00030505      -0.00054089
I       -1.65422734      10.68663984       6.28879183       26       0.00028897      -0.00013590      -0.00020455
I        0.05538070      14.60904623       0.80112518       27       0.00012522       0.00020134      -0.00008146
I        0.41233394      -0.35187543       1.78143784       28      -0.00012847       0.00039341      -0.00026957
I        2.51075551       9.05585380       6.49627391       29      -0.00022730      -0.00004679      -0.00010418
Cs       0.82919299      11.26465144       9.29697521       30      -0.00005329       0.00002237       0.00023290
Cs      -2.85504660      15.16442655      15.25129473       31      -0.00003635       0.00004572      -0.00018427
K       12.61395718       5.79321385      13.08875838       32       0.00012284      -0.00017200       0.00023823
In      12.72091955       5.50960016       8.72427124       33      -0.00000023       0.00021934       0.00010157
I       13.00131296       8.02415974      10.31621487       34      -0.00013898       0.00008045       0.00003584
I        1.63484732      14.04029366      14.92252200       35       0.00011735      -0.00010417       0.00003260
I       -1.86783930      11.25328167      15.01791908       36       0.00026444      -0.00005126       0.00002197
I       -0.15817704      15.17569915       9.53027143       37       0.00005985       0.00029149       0.00004746
I        0.19876531       0.21495906      10.51062110       38      -0.00005170       0.00006740      -0.00024929
I        2.29718068       9.62253875      15.22542809       39      -0.00017274       0.00004297       0.00005888
Cs      11.63467520       0.21963043       1.50726285       40       0.00002632       0.00008098      -0.00018848
Cs       7.95068957       4.11932119       7.46077379       41      -0.00021352       0.00009023       0.00011125
K        6.75784134      -0.88755583       4.60812744       42      -0.00030689       0.00033574       0.00042092
In       6.86431850      -1.17026447       0.24378340       43      -0.00005853      -0.00020398      -0.00047077
I        7.14439488       1.34420037       1.83580781       44       0.00033129      -0.00022730      -0.00041846
I       12.44054473       2.99512843       7.13239056       45       0.00009301      -0.00004222      -0.00019322
I        8.93799885       0.20831684       7.22786652       46      -0.00025001      -0.00006426      -0.00014992
I       10.64720367       4.13113383       1.74005304       47      -0.00007894      -0.00018847      -0.00006377
I        6.48251022       5.76174993       1.53257060       48       0.00005592      -0.00025552       0.00006341
I       13.10267736      -1.42243001       7.43506816       49       0.00007749       0.00005506       0.00042170
Cs      11.42089269       0.78664885      10.23620286       50       0.00024424      -0.00021398       0.00008572
Cs       7.73697637       4.68622647      16.18960131       51      -0.00004434      -0.00005869       0.00048148
K        6.54399145      -0.32047069      13.33748886       52      -0.00006646       0.00002638       0.00012122
In       6.65068203      -0.60357602       8.97288464       53      -0.00006304       0.00003743       0.00043946
I        6.93102011       1.91092836      10.56501223       54      -0.00003592      -0.00029391      -0.00024633
I       12.22723023       3.56172798      15.86177817       55      -0.00028522       0.00018565      -0.00026341
I        8.72459465       0.77480447      15.95703132       56      -0.00070191       0.00015136       0.00046846
I       10.43371750       4.69766721      10.46928607       57      -0.00016569       0.00004223       0.00012454
I        6.26892278       6.32838347      10.26193381       58       0.00016639      -0.00009272      -0.00003498
I       12.88905003      -0.85572002      16.16452025       59       0.00022375       0.00005297       0.00014520
Cs       9.37378549       8.51556714       0.91322570       60      -0.00001243      -0.00003504      -0.00011621
Cs       5.68953890      12.41541896       6.86698759       61       0.00007702      -0.00011269      -0.00002872
K        4.49648540       7.40884304       4.01445507       62       0.00010861      -0.00014323      -0.00004374
In       4.60331853       7.12529897      -0.35018193       63       0.00030798       0.00020510      -0.00012375
I        4.88383402       9.63985456       1.24187841       64      -0.00016339      -0.00001534      -0.00016204
I       10.17958913      11.29097851       6.53845737       65       0.00016054      -0.00013470      -0.00006554
I        6.67687976       8.50410906       6.63405291       66       0.00030420       0.00003521      -0.00021169
I        8.38641933      12.42654226       1.14619894       67       0.00024791       0.00038992       0.00010039
I        8.74345084      -2.53433706       2.12644844       68      -0.00000943       0.00031786       0.00007543
I       10.84180531       6.87342856       6.84143760       69      -0.00015482      -0.00003327      -0.00001387
Cs       9.16029175       9.08215739       9.64238372       70      -0.00006663       0.00008705       0.00002542
Cs       5.47602875      12.98202980      15.59663019       71       0.00001760      -0.00007602      -0.00034549
K        4.28289137       7.97556197      12.74353994       72       0.00016078      -0.00003626       0.00021833
In       4.38984422       7.69206804       8.37908931       73       0.00004361       0.00003704       0.00011276
I        4.67016487      10.20662740       9.97097902       74      -0.00005766       0.00006423       0.00004036
I        9.96590388      11.85776769      15.26777365       75       0.00029561       0.00016449      -0.00003586
I        6.46328742       9.07083767      15.36317944       76       0.00008300      -0.00001536       0.00007680
I        8.17277693      12.99344013       9.87536083       77       0.00009165       0.00012612      -0.00000090
I        8.52982746      -1.96754210      10.85555935       78       0.00005032       0.00027042       0.00023925
I       10.62824834       7.44018157      15.57066015       79      -0.00019886      -0.00014233      -0.00003682
