10
Lattice="9.60819899976114 0.9713674682982064 0.5707877039762624 6.113501814051475 9.88822156434645 -0.4095375008749789 6.038716498047134 3.562241955589455 6.799766664086221" Properties=species:S:1:pos:R:3:spacegroup_kinds:I:1:forces:R:3 spacegroup="P 1" unit_cell=conventional occupancy="_JSON {\"0\": {\"Cs\": 1.0}, \"1\": {\"Cs\": 1.0}, \"2\": {\"K\": 1.0}, \"3\": {\"In\": 1.0}, \"4\": {\"I\": 1.0}, \"5\": {\"I\": 1.0}, \"6\": {\"I\": 1.0}, \"7\": {\"I\": 1.0}, \"8\": {\"I\": 1.0}, \"9\": {\"I\": 1.0}}" energy=-24.4851873569359 free_energy=-24.4851873569359 stress="-8.798929851760622e-06 3.0123473168191995e-06 1.0028434878653595e-05 3.0123473168191995e-06 -7.516192909286136e-06 1.1303048388539246e-06 1.0028434878653595e-05 1.1303048388539246e-06 1.363333613267257e-05" pbc="T T T"
Cs       5.95339674       4.48126908       1.67145197        0       0.00008540       0.00012850      -0.00001860
Cs      15.96722066       9.69607892       5.36035722        1      -0.00022917       0.00020160      -0.00041575
K       11.26919313       8.04593893       3.10823201        2       0.00021142      -0.00017200       0.00058366
In       9.08559376       0.31462867       0.44170161        3      -0.00007085      -0.00005861       0.00043338
I        9.37359942       3.00046547       2.97677053        4       0.00029112      -0.00006265       0.00000897
I       12.99803154      11.24558695       3.43454919        5      -0.00020133       0.00014987      -0.00017975
I       11.50070100       4.58601383       1.85208995        6       0.00007289      -0.00028511      -0.00034325
I        9.69598531      10.10278509       6.22648546        7      -0.00021832       0.00011509       0.00000202
I        8.02745854       7.86322927       1.43603388        8      -0.00006703       0.00001169      -0.00012060
I       13.65889491       6.53360777       5.38769073        9       0.00012587      -0.00002840       0.00004991
