80
Lattice="18.326779754153755 0.023843069509620566 0.001507877073649721 9.176083059087931 16.05470319351369 -0.09214417587261182 9.173057118082594 5.285992259715591 13.852623517573962" Properties=species:S:1:pos:R:3:spacegroup_kinds:I:1:forces:R:3 spacegroup="P 1" unit_cell=conventional occupancy="_JSON {\"0\": {\"Cs\": 1.0}, \"1\": {\"Cs\": 1.0}, \"2\": {\"K\": 1.0}, \"3\": {\"In\": 1.0}, \"4\": {\"I\": 1.0}, \"5\": {\"I\": 1.0}, \"6\": {\"I\": 1.0}, \"7\": {\"I\": 1.0}, \"8\": {\"I\": 1.0}, \"9\": {\"I\": 1.0}, \"10\": {\"Cs\": 1.0}, \"11\": {\"Cs\": 1.0}, \"12\": {\"K\": 1.0}, \"13\": {\"In\": 1.0}, \"14\": {\"I\": 1.0}, \"15\": {\"I\": 1.0}, \"16\": {\"I\": 1.0}, \"17\": {\"I\": 1.0}, \"18\": {\"I\": 1.0}, \"19\": {\"I\": 1.0}, \"20\": {\"Cs\": 1.0}, \"21\": {\"Cs\": 1.0}, \"22\": {\"K\": 1.0}, \"23\": {\"In\": 1.0}, \"24\": {\"I\": 1.0}, \"25\": {\"I\": 1.0}, \"26\": {\"I\": 1.0}, \"27\": {\"I\": 1.0}, \"28\": {\"I\": 1.0}, \"29\": {\"I\": 1.0}, \"30\": {\"Cs\": 1.0}, \"31\": {\"Cs\": 1.0}, \"32\": {\"K\": 1.0}, \"33\": {\"In\": 1.0}, \"34\": {\"I\": 1.0}, \"35\": {\"I\": 1.0}, \"36\": {\"I\": 1.0}, \"37\": {\"I\": 1.0}, \"38\": {\"I\": 1.0}, \"39\": {\"I\": 1.0}, \"40\": {\"Cs\": 1.0}, \"41\": {\"Cs\": 1.0}, \"42\": {\"K\": 1.0}, \"43\": {\"In\": 1.0}, \"44\": {\"I\": 1.0}, \"45\": {\"I\": 1.0}, \"46\": {\"I\": 1.0}, \"47\": {\"I\": 1.0}, \"48\": {\"I\": 1.0}, \"49\": {\"I\": 1.0}, \"50\": {\"Cs\": 1.0}, \"51\": {\"Cs\": 1.0}, \"52\": {\"K\": 1.0}, \"53\": {\"In\": 1.0}, \"54\": {\"I\": 1.0}, \"55\": {\"I\": 1.0}, \"56\": {\"I\": 1.0}, \"57\": {\"I\": 1.0}, \"58\": {\"I\": 1.0}, \"59\": {\"I\": 1.0}, \"60\": {\"Cs\": 1.0}, \"61\": {\"Cs\": 1.0}, \"62\": {\"K\": 1.0}, \"63\": {\"In\": 1.0}, \"64\": {\"I\": 1.0}, \"65\": {\"I\": 1.0}, \"66\": {\"I\": 1.0}, \"67\": {\"I\": 1.0}, \"68\": {\"I\": 1.0}, \"69\": {\"I\": 1.0}, \"70\": {\"Cs\": 1.0}, \"71\": {\"Cs\": 1.0}, \"72\": {\"K\": 1.0}, \"73\": {\"In\": 1.0}, \"74\": {\"I\": 1.0}, \"75\": {\"I\": 1.0}, \"76\": {\"I\": 1.0}, \"77\": {\"I\": 1.0}, \"78\": {\"I\": 1.0}, \"79\": {\"I\": 1.0}}" energy=-205.19140933469797 free_energy=-205.19140933469797 stress="-1.6152862330224118e-05 -3.296805362553041e-06 -2.280484902891717e-06 -3.296805362553041e-06 1.5189851326668815e-05 -8.789686509248115e-06 -2.280484902891717e-06 -8.789686509248115e-06 2.635676388771236e-06" pbc="T T T"
Cs       4.56244079       2.65690343       1.91013156        0      -0.00003377       0.00004411      -0.00004470
Cs      13.77554485       8.02534435       4.97086343        1       0.00000655       0.00004192       0.00004679
K        9.16898369       5.34115437       3.44046161        2      -0.00006925      -0.00007105       0.00003545
In      18.32674557       0.02383351       0.00150403        3       0.00031082       0.00020238      -0.00003228
I        8.46917861       2.31538697       1.74527050        4      -0.00013130       0.00007960       0.00000594
I        9.86869366       8.36685224       5.13584453        5       0.00029129      -0.00023664      -0.00025360
I       12.08855322       6.23168791       1.64635116        6       0.00009297      -0.00008808      -0.00009807
I       24.57604958       4.47463916       5.23616387        7      -0.00000605      -0.00033101       0.00006668
I        6.96756168       7.44085413       1.64104756        8       0.00025395       0.00007733       0.00029729
I       11.37032587       3.24145208       5.23988301        9      -0.00007598      -0.00009914      -0.00007403
Cs       9.14890743       5.29995950       8.83645011       10       0.00013102      -0.00005643      -0.00000097
Cs      18.36207172      10.66835995      11.89718746       11       0.00004046      -0.00001092      -0.00004846
K       13.75544506       7.98405576      10.36681203       12       0.00010773       0.00012492      -0.00000918
In      22.91330907       2.66682202       6.92782815       13       0.00017377       0.00003132      -0.00022030
I       13.05573194       4.95844572       8.67155503       14      -0.00015213      -0.00017793      -0.00011696
I       14.45553246      11.00977360      12.06204360       15      -0.00023250       0.00021124       0.00020794
I       16.67512192       8.87449735       8.57265668       16       0.00019701       0.00029372      -0.00015822
I       29.16276876       7.11748706      12.16237198       17      -0.00043659      -0.00009666       0.00036775
I       11.55424262      10.08390123       8.56747097       18      -0.00003871       0.00004047      -0.00006336
I       15.95674483       5.88440822      12.16609135       19       0.00032213      -0.00013120       0.00025535
Cs       9.15052246      10.68427864       1.86406100       20      -0.00012476       0.00002229      -0.00001232
Cs      18.36361004      16.05265236       4.92479592       21      -0.00001677       0.00011049       0.00003364
K       13.75699376      13.36853287       3.39441210       22       0.00000065      -0.00007989      -0.00003430
In      22.91482328       8.05121830      -0.04452405       23       0.00002258      -0.00004997      -0.00023274
I       13.05710152      10.34275002       1.69919809       24       0.00009844       0.00000572      -0.00008565
I       14.45676564      16.39412575       5.08970510       25       0.00022845       0.00016227       0.00007153
I       16.67667783      14.25896693       1.60023881       26      -0.00000233       0.00002776      -0.00002509
I       29.16413206      12.50196753       5.19006740       27      -0.00007252      -0.00027634       0.00008106
I       11.55562974      15.46825404       1.59497313       28       0.00015186       0.00002972       0.00022631
I       15.95835216      11.26875694       5.19380803       29      -0.00021632       0.00000461      -0.00015808
Cs      13.73695751      13.32731153       8.79036780       30       0.00011202      -0.00009488       0.00001481
Cs      22.95010466      18.69573865      11.85112193       31       0.00003650      -0.00004239      -0.00004192
K       18.34350842      16.01141804      10.32073686       32       0.00007360       0.00012881      -0.00000501
In      27.50145221      10.69409366       6.88172053       33      -0.00044360       0.00060229       0.00000290
I       17.64387190      12.98569833       8.62540875       34      -0.00036632       0.00027794       0.00024952
I       19.04350199      19.03721874      12.01601048       35      -0.00009024      -0.00009062       0.00000514
I       21.26314633      16.90190150       8.52659746       36       0.00019064       0.00023621      -0.00019793
I       33.75076664      15.14476223      12.11633523       37      -0.00022312       0.00008779       0.00020046
I       16.14232062      18.11126391       8.52142233       38      -0.00025061       0.00003331      -0.00019976
I       20.54483984      13.91180201      12.12005094       39       0.00017421      -0.00016210       0.00010404
Cs      13.72582120       2.66882102       1.91087374       40      -0.00002882       0.00002863       0.00003575
Cs      22.93900075       8.03723577       4.97159967       41      -0.00017309       0.00013443       0.00002630
K       18.33238256       5.35310806       3.44122070       42      -0.00004755      -0.00010860       0.00004735
In       9.16338654       0.01193220       0.00078119       43      -0.00020825      -0.00016097      -0.00001837
I       17.63241418       2.32733231       1.74605947       44       0.00016320      -0.00002562      -0.00021821
I       19.03210290       8.37872746       5.13653122       45       0.00016526       0.00017748       0.00017436
I        2.92517324       6.21980277       1.64557300       46       0.00007029      -0.00020747       0.00000005
I       15.41263036       4.46259297       5.23546761       47       0.00021812       0.00006166      -0.00019850
I       16.13110554       7.45278854       1.64188740       48      -0.00021877       0.00007872       0.00006123
I       20.53362117       3.25324601       5.24060992       49       0.00017798       0.00004366      -0.00001408
Cs      18.31232471       5.31188726       8.83722693       50      -0.00000417      -0.00006326      -0.00004440
Cs      27.52542535      10.68031677      11.89790524       51       0.00010522      -0.00004366       0.00002842
K       22.91889225       7.99597471      10.36756312       52       0.00000670       0.00012612       0.00001274
In      13.74995193       2.65489624       6.92701968       53      -0.00027195      -0.00005805       0.00033839
I       22.21912562       4.97029665       8.67226125       54      -0.00014802       0.00017039       0.00009495
I       23.61888958      11.02181525      12.06282848       55      -0.00021989      -0.00020711       0.00004415
I        7.51179127       8.86270111       8.57183597       56      -0.00012222      -0.00006878       0.00016715
I       19.99917623       7.10543103      12.16180785       57       0.00024986       0.00035570      -0.00024982
I       20.71767389      10.09587671       8.56821034       58      -0.00027902      -0.00013519      -0.00008489
I       25.12029299       5.89622031      12.16702789       59      -0.00023738       0.00018485      -0.00036016
Cs      18.31387058      10.69622884       1.86480543       60      -0.00003864      -0.00007065       0.00002584
Cs      27.52702156      16.06459585       4.92552405       61      -0.00009568       0.00006038       0.00001560
K       22.92044023      13.38045534       3.39515300       62      -0.00007166      -0.00011588       0.00004847
In      13.75140639       8.03924977      -0.04530948       63       0.00002177       0.00003501       0.00003269
I       22.22039396      10.35475402       1.69999600       64       0.00025237      -0.00013381      -0.00025370
I       23.62023461      16.40605966       5.09044818       65       0.00006143       0.00008702       0.00009310
I        7.51322463      14.24710853       1.59950802       66       0.00006155      -0.00017573       0.00001620
I       20.00067173      12.48999832       5.18939645       67       0.00017660      -0.00006839      -0.00017288
I       20.71917852      15.48019953       1.59584028       68      -0.00019521      -0.00003088       0.00000784
I       25.12159196      11.28060867       5.19452177       69       0.00049136      -0.00000682       0.00016867
Cs      22.90036388      13.33919455       8.79114314       70       0.00005931      -0.00001919      -0.00006600
Cs      32.11350868      18.70769764      11.85182664       71       0.00000770      -0.00012228       0.00005233
K       27.50690432      16.02338144      10.32148487       72       0.00006409       0.00002605       0.00000320
In      18.33789713      10.68232778       6.88097731       73       0.00031621      -0.00058845       0.00014209
I       26.80718398      12.99765509       8.62620034       74      -0.00008209      -0.00001321      -0.00009952
I       28.20680679      19.04916045      12.01676739       75      -0.00000863      -0.00016458       0.00000278
I       12.09985521      16.89003925       8.52573554       76      -0.00014538      -0.00008762       0.00021915
I       24.58731758      15.13274386      12.11566988       77       0.00002140       0.00031980      -0.00002855
I       25.30561072      18.12317500       8.52210737       78       0.00002533      -0.00005449       0.00010182
I       29.70835471      13.92362969      12.12094148       79      -0.00015313       0.00005978      -0.00031119
