20
Lattice="16.691989741113414 0.0 0.0 -2.9153030952941816 7.902050691052375 0.0 0.4950217065499037 -2.294669517435599 8.645288119982432" Properties=species:S:1:pos:R:3 pbc="T T T"
Cs       3.65653222       3.53919857       0.02748849
Cs       0.39463543       3.89315938       8.61771976
K        0.24751085      -1.14733476       4.32264406
In      -0.93727940       0.91250182       0.00004131
I       -1.58721441       2.53418580       1.72943855
I        5.63837090       4.89824272       6.91588258
I        0.89519597       1.13984332       6.91589893
I        3.15595816       6.29246816       1.72945490
I       -1.56810491       8.33783417       1.72943197
I        5.61928381      -0.90547338       6.91587599
Cs      12.00252709       3.53919857       0.02748849
Cs       8.74063030       3.89315938       8.61771976
K        8.59350572      -1.14733476       4.32264406
In       7.40871547       0.91250182       0.00004131
I        6.75878046       2.53418580       1.72943855
I       13.98436577       4.89824272       6.91588258
I        9.24119084       1.13984332       6.91589893
I       11.50195303       6.29246816       1.72945490
I        6.77788996       8.33783417       1.72943197
I       13.96527868      -0.90547338       6.91587599
