20
Lattice="20.885360225601868 0.0 0.0 -3.7734855320796816 6.535868663188091 0.0 3.9235545406251346 5.516614146002785 6.0895226562335845" Properties=species:S:1:pos:R:3 pbc="T T T"
Cs      10.25967069       7.63484841       6.08377735
Cs       1.60476950       4.30722691       0.00570137
K        1.96177727       2.75830707       3.04476133
In       0.63585222      -0.05520496       0.00001167
I        9.12604508       1.05282994       1.21810376
I        2.73839115      10.88922735       4.87142626
I        3.17445344       2.75989170       1.21810858
I        8.69000154       9.18219344       4.87143108
I        9.07342889       5.86803437       1.21810291
I        2.79101129       6.07404644       4.87142540
Cs      20.70235080       7.63484841       6.08377735
Cs      12.04744962       4.30722691       0.00570137
K       12.40445738       2.75830707       3.04476133
In      11.07853234      -0.05520496       0.00001167
I       19.56872519       1.05282994       1.21810376
I       13.18107126      10.88922735       4.87142626
I       13.61713356       2.75989170       1.21810858
I       19.13268165       9.18219344       4.87143108
I       19.51610901       5.86803437       1.21810291
I       13.23369140       6.07404644       4.87142540
