20
Lattice="29.359501038915575 -0.07737750262466507 1.0554331576427238 -5.279929720927088 6.762919627825636 -0.2172291429116348 5.813154166958126 5.649380958845313 6.462919108216225" Properties=species:S:1:pos:R:3:spacegroup_kinds:I:1:forces:R:3 spacegroup="P 1" unit_cell=conventional occupancy="_JSON {\"0\": {\"Cs\": 1.0}, \"1\": {\"Cs\": 1.0}, \"2\": {\"K\": 1.0}, \"3\": {\"In\": 1.0}, \"4\": {\"I\": 1.0}, \"5\": {\"I\": 1.0}, \"6\": {\"I\": 1.0}, \"7\": {\"I\": 1.0}, \"8\": {\"I\": 1.0}, \"9\": {\"I\": 1.0}, \"10\": {\"Cs\": 1.0}, \"11\": {\"Cs\": 1.0}, \"12\": {\"K\": 1.0}, \"13\": {\"In\": 1.0}, \"14\": {\"I\": 1.0}, \"15\": {\"I\": 1.0}, \"16\": {\"I\": 1.0}, \"17\": {\"I\": 1.0}, \"18\": {\"I\": 1.0}, \"19\": {\"I\": 1.0}}" energy=-50.82880735606702 free_energy=-50.82880735606702 stress="-4.5890095369193436e-07 9.48556438923704e-06 -7.161183273211194e-07 9.48556438923704e-06 2.562042498597646e-06 -1.2682797606715206e-06 -7.161183273211194e-07 -1.2682797606715206e-06 -6.0247475202103984e-06" pbc="T T T"
Cs      16.43696709       7.04763041       6.53480371        0       0.00000273      -0.00025391      -0.00001123
Cs       0.31633553       5.01461980       0.20585900        1      -0.00005827       0.00016377       0.00005599
K        2.28412650       1.62770499       3.62565078        2       0.00036221      -0.00038255       0.00007777
In      -4.74120083       7.05261030      -0.95471551        3      -0.00010794       0.00032531      -0.00022572
I        8.80242853       7.83133186       2.02602139        4      -0.00016031       0.00009220       0.00012322
I        2.80581357      10.67481904       4.67439586        5      -0.00033544      -0.00066375       0.00007863
I        2.99224267       2.01410106      -0.00960192        6      -0.00022963       0.00037563       0.00022952
I       13.46106052      10.67054817       5.81816181        7       0.00014601      -0.00004148       0.00061697
I       13.72939002       5.61998446       4.33948390        8       0.00019195      -0.00004875       0.00004191
I        5.15352334       7.75905128       3.92154824        9       0.00062280      -0.00018580      -0.00046922
Cs      31.11695467       7.00890903       7.06197180       10       0.00014759       0.00034534       0.00004425
Cs      14.99626519       4.97626122       0.73345301       11      -0.00009507      -0.00003065      -0.00001823
K       16.96452921       1.58782232       4.15345894       12      -0.00049967       0.00003330      -0.00049367
In       9.93797788       7.01364285      -0.42711415       13       0.00030470       0.00015241      -0.00019985
I       23.48245137       7.79177170       2.55411035       14       0.00007161       0.00050106      -0.00000732
I       17.48477461      10.63488003       5.20355020       15       0.00042113       0.00033716      -0.00003829
I       17.67165191       1.97538389       0.51809098       16      -0.00014190      -0.00026841      -0.00021820
I       28.14171683      10.63159761       6.34661669       17      -0.00009056      -0.00067752      -0.00017299
I       -0.95048619       5.65953692       3.81161835       18      -0.00009720      -0.00015270       0.00002132
I       19.83408702       7.71976475       4.44803536       19      -0.00045474       0.00037935       0.00056513
