10
Lattice="9.178143019009195 -0.03817232547812379 -0.03950510998075945 4.608339422299616 7.990915437085593 -0.05382560441110653 4.6175664048014875 2.6216340001673566 6.908939735333385" Properties=species:S:1:pos:R:3:spacegroup_kinds:I:1:forces:R:3 spacegroup="P 1" unit_cell=conventional occupancy="_JSON {\"0\": {\"Cs\": 1.0}, \"1\": {\"Cs\": 1.0}, \"2\": {\"K\": 1.0}, \"3\": {\"In\": 1.0}, \"4\": {\"I\": 1.0}, \"5\": {\"I\": 1.0}, \"6\": {\"I\": 1.0}, \"7\": {\"I\": 1.0}, \"8\": {\"I\": 1.0}, \"9\": {\"I\": 1.0}}" energy=-25.64894407607359 free_energy=-25.64894407607359 stress="-8.092764374666266e-07 -3.229040054992761e-07 4.185081108936634e-08 -3.229040054992761e-07 9.300978832852587e-08 -1.1412848606374178e-06 4.185081108936634e-08 -1.1412848606374178e-06 -4.134720552987247e-07" pbc="T T T"
Cs       4.61726760       2.63174812       1.89524379        0      -0.00013555       0.00014556      -0.00075134
Cs      13.78689123       7.94240920       4.92373299        1      -0.00009977       0.00018999      -0.00060412
K        9.20172669       5.28745499       3.40847427        2       0.00033057      -0.00007003      -0.00048395
In       9.17812825      -0.03798642      -0.03970120        3       0.00002235      -0.00018141       0.00005496
I        6.99246939       3.19535813       5.20898065        4       0.00033130      -0.00012850       0.00042722
I       11.41118585       7.37914260       1.60533179        5      -0.00003536      -0.00018379       0.00022894
I        9.88693908       2.26837375       1.69624389        6       0.00009614       0.00016217      -0.00016724
I        8.51665591       8.30587732       5.11921338        7      -0.00009583      -0.00006517       0.00004162
I        6.27245440       6.18422540       1.63398137        8      -0.00001445       0.00002308       0.00069311
I       12.13264486       4.38992153       5.17923466        9      -0.00039939       0.00010811       0.00056080
