20
Lattice="12.773808800893987 -3.9576450446663533e-10 1.9789864994889953e-16 -3.9576450316161616e-10 12.773808800893985 -4.4997756759594194e-18 9.839994401322325e-17 -1.4046631917475962e-18 6.386904400420446" Properties=species:S:1:pos:R:3:spacegroup_kinds:I:1:forces:R:3 spacegroup="P 1" unit_cell=conventional occupancy="_JSON {\"0\": {\"Cs\": 1.0}, \"1\": {\"Pb\": 1.0}, \"2\": {\"I\": 1.0}, \"3\": {\"I\": 1.0}, \"4\": {\"I\": 1.0}, \"5\": {\"Cs\": 1.0}, \"6\": {\"Pb\": 1.0}, \"7\": {\"I\": 1.0}, \"8\": {\"I\": 1.0}, \"9\": {\"I\": 1.0}, \"10\": {\"Cs\": 1.0}, \"11\": {\"Pb\": 1.0}, \"12\": {\"I\": 1.0}, \"13\": {\"I\": 1.0}, \"14\": {\"I\": 1.0}, \"15\": {\"Cs\": 1.0}, \"16\": {\"Pb\": 1.0}, \"17\": {\"I\": 1.0}, \"18\": {\"I\": 1.0}, \"19\": {\"I\": 1.0}}" energy=-55.92296941620142 free_energy=-55.92296941620142 stress="-7.4891531559361245e-06 -1.693445724663011e-12 -6.228040808416676e-18 -1.693445724663011e-12 -7.489153155984403e-06 1.3215757236249505e-18 -6.228040808416676e-18 1.3215757236249505e-18 -7.489153492683402e-06" pbc="T T T"
Cs       3.19346341       3.19344099       3.19345220        0      -0.00000067       0.00000067       0.00000000
Pb       0.00000223      -0.00000223      -0.00000000        1      -0.00000008       0.00000008       0.00000000
I        0.00001049      -0.00001049       3.19345220        2      -0.00000166       0.00000166      -0.00000000
I        3.19345502      -0.00001049      -0.00000000        3       0.00000408       0.00000166       0.00000000
I        0.00001049       3.19344938      -0.00000000        4      -0.00000166      -0.00000408       0.00000000
Cs       3.19346341       9.58034539       3.19345220        5      -0.00000067       0.00000067       0.00000000
Pb       0.00000223       6.38690217      -0.00000000        6      -0.00000008       0.00000008       0.00000000
I        0.00001049       6.38689391       3.19345220        7      -0.00000166       0.00000166      -0.00000000
I        3.19345502       6.38689391      -0.00000000        8       0.00000408       0.00000166       0.00000000
I        0.00001049       9.58035378      -0.00000000        9      -0.00000166      -0.00000408       0.00000000
Cs       9.58036781       3.19344099       3.19345220       10      -0.00000067       0.00000067       0.00000000
Pb       6.38690663      -0.00000223      -0.00000000       11      -0.00000008       0.00000008       0.00000000
I        6.38691489      -0.00001049       3.19345220       12      -0.00000166       0.00000166      -0.00000000
I        9.58035942      -0.00001049      -0.00000000       13       0.00000408       0.00000166       0.00000000
I        6.38691489       3.19344938      -0.00000000       14      -0.00000166      -0.00000408       0.00000000
Cs       9.58036781       9.58034539       3.19345220       15      -0.00000067       0.00000067       0.00000000
Pb       6.38690663       6.38690217      -0.00000000       16      -0.00000008       0.00000008       0.00000000
I        6.38691489       6.38689391       3.19345220       17      -0.00000166       0.00000166      -0.00000000
I        9.58035942       6.38689391      -0.00000000       18       0.00000408       0.00000166       0.00000000
I        6.38691489       9.58035378      -0.00000000       19      -0.00000166      -0.00000408       0.00000000
