10
Lattice="12.571073846233816 -0.4011453101088648 2.304262180282623 0.5895103205826479 6.005145696371584 -2.1728324840493483 -1.0236702882935613 2.1487914787279156 5.939035720240395" Properties=species:S:1:pos:R:3:spacegroup_kinds:I:1:forces:R:3 spacegroup="P 1" unit_cell=conventional occupancy="_JSON {\"0\": {\"Cs\": 1.0}, \"1\": {\"Pb\": 1.0}, \"2\": {\"I\": 1.0}, \"3\": {\"I\": 1.0}, \"4\": {\"I\": 1.0}, \"5\": {\"Cs\": 1.0}, \"6\": {\"Pb\": 1.0}, \"7\": {\"I\": 1.0}, \"8\": {\"I\": 1.0}, \"9\": {\"I\": 1.0}}" energy=-27.968826729109846 free_energy=-27.968826729109846 stress="-2.390853125394027e-06 -9.682539015626917e-06 -1.061239971379319e-05 -9.682539015626917e-06 1.72987559652e-06 -6.217097397355679e-06 -1.061239971379319e-05 -6.217097397355679e-06 -2.383276636790383e-06" pbc="T T T"
Cs       2.86696972       3.72267201       2.73050054        0       0.00007202       0.00038171       0.00014147
Pb      12.57132496      -0.40326270       2.30087892        1       0.00007265      -0.00017749      -0.00016026
I       12.07959454       0.80201806       5.19941864        2      -0.00047620       0.00012208       0.00007569
I        3.15774071       0.02287724       0.51560218        3       0.00044623       0.00009820       0.00046626
I       12.88895116       2.60559358       1.08469515        4       0.00034427      -0.00046045      -0.00042144
Cs       9.15249244       3.52210493       3.88261977        5       0.00016909       0.00037339       0.00017251
Pb       6.28574058      -0.20266544       1.14869984        6       0.00031069      -0.00018295      -0.00007972
I        5.79406479       1.00258836       4.04730291        7      -0.00049560       0.00009297       0.00003731
I        9.44346932      -0.17776475       1.66787595        8      -0.00077090       0.00015336       0.00020105
I        6.60341966       2.80614696      -0.06741876        9       0.00032774      -0.00040080      -0.00043287
