10
Lattice="8.478708730034946 0.0 0.0 2.574608887635195 9.506849013563922 0.0 6.3767799330444 3.0158847090774894 5.192953348708175" Properties=species:S:1:pos:R:3 pbc="T T T"
Cs       4.35739980       3.13064615       1.29827525
Cs      13.07269759       9.39208653       3.89467741
K        8.71504867       6.26136616       2.59647620
In       0.00000024       0.00000060       0.00000027
I        8.68572439       2.79596133       2.19703155
I        8.74437283       9.72677058       2.99592091
I       11.78021528       3.18032109       2.82896503
I        5.64987972       9.34241120       2.36398663
I        6.17702454       6.54043097      -0.41547908
I       11.25307308       5.98230529       5.60843407
