10
Lattice="9.896654286425003 2.1107265963873107 1.7204884148968178 5.5595187758757705 10.244016836567345 1.7484020339546564 9.339095752677476 5.345313710106678 8.848035884049967" Properties=species:S:1:pos:R:3:spacegroup_kinds:I:1:forces:R:3 spacegroup="P 1" unit_cell=conventional occupancy="_JSON {\"0\": {\"Cs\": 1.0}, \"1\": {\"Cs\": 1.0}, \"2\": {\"K\": 1.0}, \"3\": {\"In\": 1.0}, \"4\": {\"I\": 1.0}, \"5\": {\"I\": 1.0}, \"6\": {\"I\": 1.0}, \"7\": {\"I\": 1.0}, \"8\": {\"I\": 1.0}, \"9\": {\"I\": 1.0}}" energy=-24.185579355774017 free_energy=-24.185579355774017 stress="-1.6125094815366913e-06 8.174686205870111e-07 7.313371590643823e-07 8.174686205870111e-07 -8.078167186775116e-07 2.8627172282167176e-06 7.313371590643823e-07 2.8627172282167176e-06 -3.7317487923155424e-06" pbc="T T T"
Cs       7.28873017       5.72107824       3.22342328        0       0.00018854       0.00001045      -0.00002611
Cs      16.45847919      12.46640385       6.88129405        1      -0.00015406      -0.00017777       0.00004865
K       12.74853794       8.61578141       6.85464767        2       0.00001438       0.00007322       0.00018560
In       9.39298831       2.38485021       0.16005576        3       0.00018158      -0.00020350       0.00001281
I       10.70568193       4.46247400       2.05521491        4       0.00020568      -0.00000732      -0.00014363
I       13.99512554      13.72588124      11.41546497        5      -0.00021986       0.00021518       0.00006065
I       14.88743060       5.61717214       7.21481519        6      -0.00012161       0.00003912       0.00039422
I       10.21731668      11.15959516       5.96364839        7       0.00015023      -0.00042848      -0.00004783
I       19.26998881      13.78142360      13.49719426        8      -0.00017649       0.00020808       0.00012871
I        6.51108059       3.82632105      -0.11910490        9      -0.00006838       0.00027102      -0.00061307
