20
Lattice="10.649933259095874 0.0 0.0 -0.7803122612029743 11.259926031162522 0.0 1.05526789149123 1.5492350600840816 6.679180663059301" Properties=species:S:1:pos:R:3:oxi_states:R:1 pbc="T T T"
Cs       2.99523505       3.58940318       3.33959033       1.00000000
Pb      -0.00000000      -0.00000000       0.00000000       2.00000000
I        0.16316704       1.13908374       3.33959059      -1.00000000
I        2.66248331       0.00000000      -0.00000000      -1.00000000
I       -0.19507807       2.81498151       0.00000000      -1.00000000
Cs       2.60507892       9.21936619       3.33959033       1.00000000
Pb      -0.39015613       5.62996302       0.00000000       2.00000000
I       -0.22698909       6.76904676       3.33959059      -1.00000000
I        2.27232718       5.62996302      -0.00000000      -1.00000000
I       -0.58523420       8.44494452       0.00000000      -1.00000000
Cs       8.32020168       3.58940318       3.33959033       1.00000000
Pb       5.32496663      -0.00000000       0.00000000       2.00000000
I        5.48813367       1.13908374       3.33959059      -1.00000000
I        7.98744994       0.00000000      -0.00000000      -1.00000000
I        5.12988856       2.81498151       0.00000000      -1.00000000
Cs       7.93004555       9.21936619       3.33959033       1.00000000
Pb       4.93481050       5.62996302       0.00000000       2.00000000
I        5.09797754       6.76904676       3.33959059      -1.00000000
I        7.59729381       5.62996302      -0.00000000      -1.00000000
I        4.73973243       8.44494452       0.00000000      -1.00000000
