20
Lattice="12.747757127186464 0.30010883268657207 -1.076734810847846 -0.6096826985616258 12.726057639331156 -1.4731106844131259 0.5162015124399533 0.7573324009121677 6.32778071419216" Properties=species:S:1:pos:R:3:spacegroup_kinds:I:1:forces:R:3 spacegroup="P 1" unit_cell=conventional occupancy="_JSON {\"0\": {\"Cs\": 1.0}, \"1\": {\"Pb\": 1.0}, \"2\": {\"I\": 1.0}, \"3\": {\"I\": 1.0}, \"4\": {\"I\": 1.0}, \"5\": {\"Cs\": 1.0}, \"6\": {\"Pb\": 1.0}, \"7\": {\"I\": 1.0}, \"8\": {\"I\": 1.0}, \"9\": {\"I\": 1.0}, \"10\": {\"Cs\": 1.0}, \"11\": {\"Pb\": 1.0}, \"12\": {\"I\": 1.0}, \"13\": {\"I\": 1.0}, \"14\": {\"I\": 1.0}, \"15\": {\"Cs\": 1.0}, \"16\": {\"Pb\": 1.0}, \"17\": {\"I\": 1.0}, \"18\": {\"I\": 1.0}, \"19\": {\"I\": 1.0}}" energy=-55.937674895687614 free_energy=-55.937674895687614 stress="-5.051667440303757e-06 5.457339417769453e-07 -1.2385632448724443e-06 5.457339417769453e-07 3.5712362508840836e-06 -1.7461015802043074e-06 -1.2385632448724443e-06 -1.7461015802043074e-06 3.2980505192933516e-06" pbc="T T T"
Cs       3.39646268       3.39126023       2.54697487        0       0.00016323       0.00008181       0.00004507
Pb      -0.08915722       0.07941910      -0.00223995        1      -0.00050140      -0.00007886       0.00005725
I       12.90185903       0.89418758       2.06990353        2       0.00006037       0.00000230      -0.00003077
I        3.06783652       0.30049497      -0.28535246        3       0.00012500      -0.00002992      -0.00018219
I       -0.36947275       3.30739498      -0.36657990        4      -0.00012501      -0.00043460       0.00019248
Cs       3.09159966       9.75428261       1.81042728        5       0.00022096       0.00009845       0.00003382
Pb      -0.39402965       6.44248043      -0.73879875        6      -0.00039519      -0.00007806       0.00004859
I       12.59701555       7.25721604       1.33334430        7       0.00006917      -0.00000182      -0.00002415
I        2.76308071       6.66353506      -1.02192819        8      -0.00006934      -0.00005614      -0.00016408
I       12.07343509       9.97033960      -2.17980921        9      -0.00015287       0.00049912       0.00007355
Cs       9.77032550       3.54131382       2.00861133       10       0.00021252       0.00007613       0.00003929
Pb       6.28450625       0.22955161      -0.54059309       11       0.00051134      -0.00030860      -0.00000190
I        6.52799919       0.74413083       2.60827052       12      -0.00002264       0.00001955      -0.00001841
I        9.44178895       0.45055500      -0.82373716       13      -0.00017000      -0.00004704      -0.00015227
I        6.00441745       3.45722919      -0.90488176       14      -0.00025100       0.00054520       0.00007530
Cs       9.46550313       9.90434089       1.27205232       15       0.00015862       0.00009326       0.00004328
Pb       5.97965260       6.59242450      -1.27707665       16       0.00045783       0.00022289      -0.00012981
I        6.22315791       7.10717428       1.87168796       17      -0.00000864      -0.00002092       0.00005604
I        9.13690738       6.81359057      -1.56028653       18      -0.00008334      -0.00008331      -0.00016160
I        5.69958007       9.82049061      -1.64150819       19      -0.00019963      -0.00049943       0.00020053
