24
Lattice="5.06230371 0.0 3.0997670173816356e-16 -2.5311518549999996 4.384083614532212 3.0997670173816356e-16 0.0 0.0 13.99658113" Properties=species:S:1:pos:R:3:forces:R:3 energy=-101.21069115855153 stress="-0.043914234096186104 -1.8585086304967342e-17 -1.0517428498234891e-16 -1.8585086304967342e-17 -0.04391423409618605 -6.681333490080745e-17 -1.0517428498234891e-16 -6.681333490080745e-17 -0.042596065586520904" free_energy=-101.21069115855153 pbc="T T T"
Li       0.00000000       0.00000000       6.99829056      -0.00000000      -0.00000000      -0.00000000
Li       2.53115186       1.46136120      11.66381761       0.00000000       0.00000000       0.00000000
Li       0.00000000       2.92272241       2.33276352       0.00000000       0.00000000       0.00000000
Bi       0.00000000       0.00000000       0.00000000      -0.00000000       0.00000000      -0.00000000
Bi       2.53115186       1.46136120       4.66552704       0.00000000      -0.00000000      -0.00000000
Bi       0.00000000       2.92272241       9.33105409      -0.00000000       0.00000000      -0.00000000
F       -1.61807299       2.83307602       3.49061395       0.15478744       0.33749668      -0.26622956
F        4.14922485       1.55100759      10.50596718      -0.15478744      -0.33749668       0.26622956
F        0.88667254       1.56625328       3.49061395      -0.36967442      -0.03469848      -0.26622956
F        1.64447931       2.81783033      10.50596718       0.36967442       0.03469848       0.26622956
F        0.73140045       4.36883792       3.49061395       0.21488698      -0.30279820      -0.26622956
F        1.79975140       0.01524569      10.50596718      -0.21488698       0.30279820       0.26622956
F        0.91307886       4.29443723       8.15614099       0.15478744       0.33749668      -0.26622956
F        1.61807299       3.01236879       1.17491310      -0.15478744      -0.33749668       0.26622956
F       -1.64447931       3.02761449       8.15614099      -0.36967442      -0.03469848      -0.26622956
F       -0.88667254       4.27919154       1.17491310       0.36967442       0.03469848       0.26622956
F        0.73140045       1.44611551       8.15614099       0.21488698      -0.30279820      -0.26622956
F       -0.73140045       1.47660690       1.17491310      -0.21488698       0.30279820       0.26622956
F        0.91307886       1.37171482      12.82166803       0.15478744       0.33749668      -0.26622956
F        1.61807299       0.08964638       5.84044014      -0.15478744      -0.33749668       0.26622956
F        3.41782440       0.10489208      12.82166803      -0.36967442      -0.03469848      -0.26622956
F        4.17563117       1.35646913       5.84044014       0.36967442       0.03469848       0.26622956
F        3.26255231       2.90747672      12.82166803       0.21488698      -0.30279820      -0.26622956
F        1.79975140       2.93796810       5.84044014      -0.21488698       0.30279820       0.26622956
24
Lattice="5.0640164126800835 6.611310316593696e-19 3.141803375733937e-16 -2.5320082063400413 4.385566858562294 3.1028415349896817e-16 1.1341225921409554e-17 7.204661536800797e-18 14.001174378276048" Properties=species:S:1:pos:R:3:forces:R:3 energy=-101.2686144896949 stress="-0.038794997615480886 4.391673407996678e-17 1.6776988118831496e-16 4.391673407996678e-17 -0.038794997615481254 -1.6572624401252097e-16 1.6776988118831496e-16 -1.6572624401252097e-16 -0.03737449112872806" free_energy=-101.2686144896949 pbc="T T T"
Li      -0.00000000      -0.00000000       7.00058719      -0.00000000       0.00000000      -0.00000000
Li       2.53200821       1.46185562      11.66764532      -0.00000000      -0.00000000      -0.00000000
Li       0.00000000       2.92371124       2.33352906      -0.00000000       0.00000000       0.00000000
Bi      -0.00000000       0.00000000      -0.00000000       0.00000000       0.00000000       0.00000000
Bi       2.53200821       1.46185562       4.66705813       0.00000000       0.00000000      -0.00000000
Bi       0.00000000       2.92371124       9.33411625      -0.00000000      -0.00000000       0.00000000
F       -1.61640843       2.83885754       3.48795493       0.08355887       0.24369054      -0.17887248
F        4.14841664       1.54670932      10.51321945      -0.08355887      -0.24369054       0.17887248
F        0.88168968       1.56628733       3.48795493      -0.25282163      -0.04948116      -0.17887248
F        1.65031853       2.81927953      10.51321945       0.25282163       0.04948116       0.17887248
F        0.73471875       4.36598885       3.48795493       0.16926276      -0.19420937      -0.17887248
F        1.79728945       0.01957800      10.51321945      -0.16926276       0.19420937       0.17887248
F        0.91559978       4.30071316       8.15501306       0.08355887       0.24369054      -0.17887248
F        1.61640843       3.00856494       1.17910319      -0.08355887      -0.24369054       0.17887248
F       -1.65031853       3.02814295       8.15501306      -0.25282163      -0.04948116      -0.17887248
F       -0.88168968       4.28113515       1.17910319       0.25282163       0.04948116       0.17887248
F        0.73471875       1.44227761       8.15501306       0.16926276      -0.19420937      -0.17887248
F       -0.73471875       1.48143362       1.17910319      -0.16926276       0.19420937       0.17887248
F        0.91559978       1.37700192      12.82207118       0.08355887       0.24369054      -0.17887248
F        1.61640843       0.08485370       5.84616132      -0.08355887      -0.24369054       0.17887248
F        3.41369788       0.10443171      12.82207118      -0.25282163      -0.04948116      -0.17887248
F        4.18232674       1.35742391       5.84616132       0.25282163       0.04948116       0.17887248
F        3.26672696       2.90413323      12.82207118       0.16926276      -0.19420937      -0.17887248
F        1.79728945       2.94328924       5.84616132      -0.16926276       0.19420937       0.17887248
24
Lattice="5.069706920894678 -5.685647373666661e-18 2.912468160819223e-16 -2.5348534604473385 4.390494983236577 3.428280769760135e-16 -5.314463130888987e-17 7.28878132281906e-17 14.016335563758465" Properties=species:S:1:pos:R:3:forces:R:3 energy=-101.34336703633582 stress="-0.02584633415840716 1.340258435543521e-16 -3.1246702492826924e-16 1.340258435543521e-16 -0.025846334158406592 -9.950307042961346e-17 -3.1246702492826924e-16 -9.950307042961346e-17 -0.02425563352827702" free_energy=-101.34336703633582 pbc="T T T"
Li      -0.00000000       0.00000000       7.00816778       0.00000000       0.00000000      -0.00000000
Li       2.53485346       1.46349833      11.68027964       0.00000000       0.00000000      -0.00000000
Li       0.00000000       2.92699666       2.33605593      -0.00000000       0.00000000       0.00000000
Bi       0.00000000       0.00000000       0.00000000      -0.00000000      -0.00000000      -0.00000000
Bi       2.53485346       1.46349833       4.67211185      -0.00000000      -0.00000000       0.00000000
Bi      -0.00000000       2.92699666       9.34422371       0.00000000       0.00000000       0.00000000
F       -1.61362966       2.85525858       3.48200449      -0.08794740       0.01180460       0.03526584
F        4.14848312       1.53523640      10.53433107       0.08794740      -0.01180460      -0.03526584
F        0.86894182       1.56542142       3.48200449       0.03375061      -0.08206698       0.03526584
F        1.66591164       2.82507357      10.53433107      -0.03375061       0.08206698      -0.03526584
F        0.74468784       4.36030996       3.48200449       0.05419679       0.07026238       0.03526584
F        1.79016562       0.03018502      10.53433107      -0.05419679      -0.07026238      -0.03526584
F        0.92122381       4.31875691       8.15411635      -0.08794740       0.01180460       0.03526584
F        1.61362966       2.99873473       1.19010736       0.08794740      -0.01180460      -0.03526584
F       -1.66591164       3.02891975       8.15411635       0.03375061      -0.08206698       0.03526584
F       -0.86894182       4.28857189       1.19010736      -0.03375061       0.08206698      -0.03526584
F        0.74468784       1.43331331       8.15411635       0.05419679       0.07026238       0.03526584
F       -0.74468784       1.49368335       1.19010736      -0.05419679      -0.07026238      -0.03526584
F        0.92122381       1.39176026      12.82622820      -0.08794740       0.01180460       0.03526584
F        1.61362966       0.07173807       5.86221922       0.08794740      -0.01180460      -0.03526584
F        3.40379528       0.10192309      12.82622820       0.03375061      -0.08206698       0.03526584
F        4.20076510       1.36157524       5.86221922      -0.03375061       0.08206698      -0.03526584
F        3.27954130       2.89681164      12.82622820       0.05419679       0.07026238       0.03526584
F        1.79016562       2.95718167       5.86221922      -0.05419679      -0.07026238      -0.03526584
24
Lattice="5.071683255698946 -1.230646936017393e-17 3.0313839605994233e-16 -2.535841627849472 4.392206539383455 3.433886781481703e-16 -2.0848981369620086e-17 9.317163579583743e-17 14.021525444839385" Properties=species:S:1:pos:R:3:forces:R:3 energy=-101.35228097553602 stress="-0.02389695412431989 1.1534394199679662e-16 9.171524685189965e-18 1.1534394199679662e-16 -0.023896954124320278 -1.3223130862167071e-16 9.171524685189965e-18 -1.3223130862167071e-16 -0.02236559093709815" free_energy=-101.35228097553602 pbc="T T T"
Li      -0.00000000       0.00000000       7.01076272      -0.00000000      -0.00000000      -0.00000000
Li       2.53584163       1.46406885      11.68460454      -0.00000000       0.00000000      -0.00000000
Li       0.00000000       2.92813769       2.33692091       0.00000000       0.00000000       0.00000000
Bi       0.00000000       0.00000000      -0.00000000      -0.00000000      -0.00000000      -0.00000000
Bi       2.53584163       1.46406885       4.67384181      -0.00000000      -0.00000000       0.00000000
Bi       0.00000000       2.92813769       9.34768363       0.00000000       0.00000000       0.00000000
F       -1.61490744       2.85860428       3.48233072      -0.10460413      -0.01830160       0.05976246
F        4.15074907       1.53360226      10.53919472       0.10460413       0.01830160      -0.05976246
F        0.86767142       1.56435353       3.48233072       0.06815172      -0.08143903       0.05976246
F        1.66817020       2.82785300      10.53919472      -0.06815172       0.08143903      -0.05976246
F        0.74723601       4.36145527       3.48233072       0.03645241       0.09974064       0.05976246
F        1.78860561       0.03075127      10.53919472      -0.03645241      -0.09974064      -0.05976246
F        0.92093419       4.32267312       8.15617253      -0.10460413      -0.01830160       0.05976246
F        1.61490744       2.99767111       1.19151110       0.10460413       0.01830160      -0.05976246
F       -1.66817020       3.02842238       8.15617253       0.06815172      -0.08143903       0.05976246
F       -0.86767142       4.29192185       1.19151110      -0.06815172       0.08143903      -0.05976246
F        0.74723601       1.43331757       8.15617253       0.03645241       0.09974064       0.05976246
F       -0.74723601       1.49482012       1.19151110      -0.03645241      -0.09974064      -0.05976246
F        0.92093419       1.39453543      12.83001435      -0.10460413      -0.01830160       0.05976246
F        1.61490744       0.06953342       5.86535291       0.10460413       0.01830160      -0.05976246
F        3.40351305       0.10028469      12.83001435       0.06815172      -0.08143903       0.05976246
F        4.20401183       1.36378416       5.86535291      -0.06815172       0.08143903      -0.05976246
F        3.28307764       2.89738642      12.83001435       0.03645241       0.09974064       0.05976246
F        1.78860561       2.95888897       5.86535291      -0.03645241      -0.09974064      -0.05976246
24
Lattice="5.083602230712028 -5.487924967486608e-17 3.385855434939411e-16 -2.54180111535601 4.402528674531837 3.7030207499681117e-16 7.35318488653153e-17 2.327891905404168e-16 14.052728706639796" Properties=species:S:1:pos:R:3:forces:R:3 energy=-101.3957882701788 stress="-0.016144939871127497 3.5335390101934373e-16 1.172834896364978e-15 3.5335390101934373e-16 -0.016144939871130994 -5.214404419374348e-16 1.172834896364978e-15 -5.214404419374348e-16 -0.015161257186979757" free_energy=-101.3957882701788 pbc="T T T"
Li      -0.00000000       0.00000000       7.02636435      -0.00000000      -0.00000000      -0.00000000
Li       2.54180112       1.46750956      11.71060726      -0.00000000       0.00000000      -0.00000000
Li       0.00000000       2.93501912       2.34212145      -0.00000000       0.00000000      -0.00000000
Bi      -0.00000000      -0.00000000      -0.00000000       0.00000000       0.00000000       0.00000000
Bi       2.54180112       1.46750956       4.68424290       0.00000000       0.00000000       0.00000000
Bi       0.00000000       2.93501912       9.36848580      -0.00000000      -0.00000000       0.00000000
F       -1.62614738       2.87479432       3.48819359      -0.13872634      -0.12260577       0.13058324
F        4.16794850       1.52773435      10.56453512       0.13872634       0.12260577      -0.13058324
F        0.86522989       1.55684657       3.48819359       0.17554288      -0.05883765       0.13058324
F        1.67657122       2.84568210      10.56453512      -0.17554288       0.05883765      -0.13058324
F        0.76091749       4.37341646       3.48819359      -0.03681654       0.18144342       0.13058324
F        1.78088363       0.02911222      10.56453512       0.03681654      -0.18144342      -0.13058324
F        0.91565373       4.34230388       8.17243649      -0.13872634      -0.12260577       0.13058324
F        1.62614738       2.99524391       1.19604931       0.13872634       0.12260577      -0.13058324
F       -1.67657122       3.02435613       8.17243649       0.17554288      -0.05883765       0.13058324
F       -0.86522989       4.31319166       1.19604931      -0.17554288       0.05883765      -0.13058324
F        0.76091749       1.43839734       8.17243649      -0.03681654       0.18144342       0.13058324
F       -0.76091749       1.49662178       1.19604931       0.03681654      -0.18144342      -0.13058324
F        0.91565373       1.40728476      12.85667939      -0.13872634      -0.12260577       0.13058324
F        1.62614738       0.06022480       5.88029222       0.13872634       0.12260577      -0.13058324
F        3.40703101       0.08933701      12.85667939       0.17554288      -0.05883765       0.13058324
F        4.21837234       1.37817254       5.88029222      -0.17554288       0.05883765      -0.13058324
F        3.30271860       2.90590690      12.85667939      -0.03681654       0.18144342       0.13058324
F        1.78088363       2.96413133       5.88029222       0.03681654      -0.18144342      -0.13058324
24
Lattice="5.099635905616622 -1.3766134838776277e-16 3.401631841625057e-16 -2.5498179528083025 4.41641424431521 4.536608182523601e-16 7.280462807926813e-17 4.9761704284255765e-16 14.094658617527767" Properties=species:S:1:pos:R:3:forces:R:3 energy=-101.44456319827063 stress="-0.009794687428717285 3.3295354602382596e-16 2.916921699421257e-15 3.3295354602382596e-16 -0.009794687428724053 -8.291230863002727e-16 2.916921699421257e-15 -8.291230863002727e-16 -0.009676444621722707" free_energy=-101.44456319827063 pbc="T T T"
Li      -0.00000000       0.00000000       7.04732931      -0.00000000      -0.00000000      -0.00000000
Li       2.54981795       1.47213808      11.74554885      -0.00000000       0.00000000      -0.00000000
Li       0.00000000       2.94427616       2.34910977      -0.00000000       0.00000000      -0.00000000
Bi      -0.00000000      -0.00000000      -0.00000000       0.00000000       0.00000000       0.00000000
Bi       2.54981795       1.47213808       4.69821954       0.00000000       0.00000000      -0.00000000
Bi       0.00000000       2.94427616       9.39643908      -0.00000000      -0.00000000       0.00000000
F       -1.64458546       2.89228825       3.49997282      -0.12448962      -0.18849247       0.15410329
F        4.19440341       1.52412599      10.59468580       0.12448962       0.18849247      -0.15410329
F        0.86731558       1.54601733       3.49997282       0.22548408      -0.01356494       0.15410329
F        1.68250237       2.87039691      10.59468580      -0.22548408       0.01356494      -0.15410329
F        0.77726988       4.39452290       3.49997282      -0.10099445       0.20205741       0.15410329
F        1.77254808       0.02189134      10.59468580       0.10099445      -0.20205741      -0.15410329
F        0.90523250       4.36442633       8.19819236      -0.12448962      -0.18849247       0.15410329
F        1.64458546       2.99626407       1.19824672       0.12448962       0.18849247      -0.15410329
F       -1.68250237       3.01815542       8.19819236       0.22548408      -0.01356494       0.15410329
F       -0.86731558       4.34253499       1.19824672      -0.22548408       0.01356494      -0.15410329
F        0.77726988       1.45024674       8.19819236      -0.10099445       0.20205741       0.15410329
F       -0.77726988       1.49402942       1.19824672       0.10099445      -0.20205741      -0.15410329
F        0.90523250       1.42015017      12.89641190      -0.12448962      -0.18849247       0.15410329
F        1.64458546       0.05198791       5.89646626       0.12448962       0.18849247      -0.15410329
F        3.41713353       0.07387925      12.89641190       0.22548408      -0.01356494       0.15410329
F        4.23232033       1.39825883       5.89646626      -0.22548408       0.01356494      -0.15410329
F        3.32708783       2.92238482      12.89641190      -0.10099445       0.20205741       0.15410329
F        1.77254808       2.96616751       5.89646626       0.10099445      -0.20205741      -0.15410329
24
Lattice="5.121340764326448 -2.663717859642843e-16 1.9615073548869887e-16 -2.560670382163209 4.435211203343439 6.745335345701277e-16 -3.3288901106056625e-16 9.673518990493606e-16 14.151465677562522" Properties=species:S:1:pos:R:3:forces:R:3 energy=-101.50245989618614 stress="-0.005687535531726776 2.0965224580403704e-16 3.7343187080904625e-15 2.0965224580403704e-16 -0.0056875355317367446 -3.4193218077488744e-16 3.7343187080904625e-15 -3.4193218077488744e-16 -0.006761622995517093" free_energy=-101.50245989618614 pbc="T T T"
Li      -0.00000000       0.00000000       7.07573284      -0.00000000      -0.00000000      -0.00000000
Li       2.56067038       1.47840373      11.79288806      -0.00000000       0.00000000       0.00000000
Li      -0.00000000       2.95680747       2.35857761      -0.00000000       0.00000000      -0.00000000
Bi      -0.00000000      -0.00000000      -0.00000000       0.00000000       0.00000000       0.00000000
Bi       2.56067038       1.47840373       4.71715523       0.00000000       0.00000000      -0.00000000
Bi       0.00000000       2.95680747       9.43431045      -0.00000000      -0.00000000       0.00000000
F       -1.67269828       2.91074937       3.52012617      -0.05289119      -0.20003106       0.11742336
F        4.23336866       1.52446183      10.63133950       0.05289119       0.20003106      -0.11742336
F        0.87623662       1.53123732       3.52012617       0.19967757       0.05421042       0.11742336
F        1.68443376       2.90397389      10.63133950      -0.19967757      -0.05421042      -0.11742336
F        0.79646166       4.42843572       3.52012617      -0.14678638       0.14582064       0.11742336
F        1.76420873       0.00677548      10.63133950       0.14678638      -0.14582064      -0.11742336
F        0.88797210       4.38915310       8.23728140      -0.05289119      -0.20003106       0.11742336
F        1.67269828       3.00286557       1.19702905       0.05289119       0.20003106      -0.11742336
F       -1.68443376       3.00964105       8.23728140       0.19967757       0.05421042       0.11742336
F       -0.87623662       4.38237762       1.19702905      -0.19967757      -0.05421042      -0.11742336
F        0.79646166       1.47162825       8.23728140      -0.14678638       0.14582064       0.11742336
F       -0.79646166       1.48517922       1.19702905       0.14678638      -0.14582064      -0.11742336
F        0.88797210       1.43234563      12.95443663      -0.05289119      -0.20003106       0.11742336
F        1.67269828       0.04605810       5.91418428       0.05289119       0.20003106      -0.11742336
F        3.43690701       0.05283358      12.95443663       0.19967757       0.05421042       0.11742336
F        4.24510414       1.42557015       5.91418428      -0.19967757      -0.05421042      -0.11742336
F        3.35713204       2.95003199      12.95443663      -0.14678638       0.14582064       0.11742336
F        1.76420873       2.96358295       5.91418428       0.14678638      -0.14582064      -0.11742336
24
Lattice="5.136012048305187 -3.6592487348611695e-16 -6.307808907516621e-17 -2.5680060241525737 4.44791690797514 9.06688069019714e-16 -1.0557148340666826e-15 1.2906850419357759e-15 14.190048521198138" Properties=species:S:1:pos:R:3:forces:R:3 energy=-101.53633055304209 stress="-0.006753597540314396 8.082684984826485e-17 3.669961622339868e-15 8.082684984826485e-17 -0.006753597540325985 -3.356998657447766e-16 3.669961622339868e-15 -3.356998657447766e-16 -0.008575931859634092" free_energy=-101.53633055304209 pbc="T T T"
Li      -0.00000000       0.00000000       7.09502426      -0.00000000      -0.00000000      -0.00000000
Li       2.56800602       1.48263897      11.82504043      -0.00000000       0.00000000       0.00000000
Li      -0.00000000       2.96527794       2.36500809      -0.00000000       0.00000000       0.00000000
Bi      -0.00000000      -0.00000000       0.00000000       0.00000000       0.00000000       0.00000000
Bi       2.56800602       1.48263897       4.73001617       0.00000000      -0.00000000      -0.00000000
Bi      -0.00000000       2.96527794       9.46003235      -0.00000000      -0.00000000      -0.00000000
F       -1.69353309       2.91804517       3.53717467       0.03584723      -0.13850496       0.03552960
F        4.26153911       1.52987174      10.65287385      -0.03584723       0.13850496      -0.03552960
F        0.88767132       1.52225165       3.53717467       0.10202520       0.10029709       0.03552960
F        1.68033470       2.92566526      10.65287385      -0.10202520      -0.10029709      -0.03552960
F        0.80586177       4.45553700       3.53717467      -0.13787243       0.03820787       0.03552960
F        1.76214426      -0.00762009      10.65287385       0.13787243      -0.03820787      -0.03552960
F        0.87447294       4.40068414       8.26719084       0.03584723      -0.13850496       0.03552960
F        1.69353309       3.01251071       1.19284150      -0.03584723       0.13850496      -0.03552960
F       -1.68033470       3.00489062       8.26719084       0.10202520       0.10029709       0.03552960
F       -0.88767132       4.40830423       1.19284150      -0.10202520      -0.10029709      -0.03552960
F        0.80586177       1.49025906       8.26719084      -0.13787243       0.03820787       0.03552960
F       -0.80586177       1.47501888       1.19284150       0.13787243      -0.03820787      -0.03552960
F        0.87447294       1.43540620      12.99720702       0.03584723      -0.13850496       0.03552960
F        1.69353309       0.04723277       5.92285768      -0.03584723       0.13850496      -0.03552960
F        3.45567734       0.03961268      12.99720702       0.10202520       0.10029709       0.03552960
F        4.24834073       1.44302629       5.92285768      -0.10202520      -0.10029709      -0.03552960
F        3.37386779       2.97289803      12.99720702      -0.13787243       0.03820787       0.03552960
F        1.76214426       2.95765785       5.92285768       0.13787243      -0.03820787      -0.03552960
24
Lattice="5.141160310600029 -4.0719771269737877e-16 -3.356710225861801e-16 -2.570580155299993 4.45237543390781 1.0931634362602262e-15 -1.8123073956455376e-15 1.4494143552958787e-15 14.203896247943451" Properties=species:S:1:pos:R:3:forces:R:3 energy=-101.54706697703133 stress="-0.009124330248293358 3.617851823696358e-16 2.4809004548197836e-15 3.617851823696358e-16 -0.009124330248302857 -5.57810125104038e-16 2.4809004548197836e-15 -5.57810125104038e-16 -0.01104258231159953" free_energy=-101.54706697703133 pbc="T T T"
Li      -0.00000000       0.00000000       7.10194812      -0.00000000      -0.00000000      -0.00000000
Li       2.57058016       1.48412514      11.83658021      -0.00000000       0.00000000       0.00000000
Li      -0.00000000       2.96825029       2.36731604       0.00000000       0.00000000       0.00000000
Bi      -0.00000000      -0.00000000       0.00000000       0.00000000       0.00000000      -0.00000000
Bi       2.57058016       1.48412514       4.73463208      -0.00000000      -0.00000000      -0.00000000
Bi      -0.00000000       2.96825029       9.46926417      -0.00000000      -0.00000000      -0.00000000
F       -1.70044732       2.91704309       3.54455636       0.08621375      -0.07916635      -0.02156215
F        4.27102748       1.53533234      10.65933989      -0.08621375       0.07916635       0.02156215
F        0.89457039       1.52122331       3.54455636       0.02545320       0.11424647      -0.02156215
F        1.67600976       2.93115213      10.65933989      -0.02545320      -0.11424647       0.02156215
F        0.80587693       4.46648447       3.54455636      -0.11166695      -0.03508012      -0.02156215
F        1.76470323      -0.01410903      10.65933989       0.11166695       0.03508012       0.02156215
F        0.87013283       4.40116824       8.27918844       0.08621375      -0.07916635      -0.02156215
F        1.70044732       3.01945748       1.19007572      -0.08621375       0.07916635       0.02156215
F       -1.67600976       3.00534845       8.27918844       0.02545320       0.11424647      -0.02156215
F       -0.89457039       4.41527727       1.19007572      -0.02545320      -0.11424647       0.02156215
F        0.80587693       1.49823418       8.27918844      -0.11166695      -0.03508012      -0.02156215
F       -0.80587693       1.47001611       1.19007572       0.11166695       0.03508012       0.02156215
F        0.87013283       1.43291795      13.01382052       0.08621375      -0.07916635      -0.02156215
F        1.70044732       0.05120720       5.92470781      -0.08621375       0.07916635       0.02156215
F        3.46515055       0.03709816      13.01382052       0.02545320       0.11424647      -0.02156215
F        4.24658992       1.44702698       5.92470781      -0.02545320      -0.11424647       0.02156215
F        3.37645709       2.98235932      13.01382052      -0.11166695      -0.03508012      -0.02156215
F        1.76470323       2.95414126       5.92470781       0.11166695       0.03508012       0.02156215
24
Lattice="5.144082559478609 -4.526689027143153e-16 -6.193537259798714e-16 -2.572041279739282 4.454906175672839 1.289028827539262e-15 -2.5988308481351686e-15 1.6211226232229099e-15 14.212117108970725" Properties=species:S:1:pos:R:3:forces:R:3 energy=-101.55477465178652 stress="-0.010684152727905356 3.588429566720108e-16 7.905484067401484e-16 3.588429566720108e-16 -0.010684152727912743 -3.056857929352327e-16 7.905484067401484e-16 -3.056857929352327e-16 -0.012439622982848852" free_energy=-101.55477465178652 pbc="T T T"
Li      -0.00000000      -0.00000000       7.10605855      -0.00000000      -0.00000000      -0.00000000
Li       2.57204128       1.48496873      11.84343092      -0.00000000       0.00000000       0.00000000
Li      -0.00000000       2.96993745       2.36868618       0.00000000       0.00000000      -0.00000000
Bi      -0.00000000       0.00000000       0.00000000      -0.00000000      -0.00000000      -0.00000000
Bi       2.57204128       1.48496873       4.73737237      -0.00000000      -0.00000000       0.00000000
Bi      -0.00000000       2.96993745       9.47474474       0.00000000       0.00000000      -0.00000000
F       -1.70221827       2.91469135       3.54832823       0.11053233      -0.04223911      -0.05112621
F        4.27425955       1.54021483      10.66378887      -0.11053233       0.04223911       0.05112621
F        0.89895366       1.52339624       3.54832823      -0.01868603       0.11684336      -0.05112621
F        1.67308762       2.93150994      10.66378887       0.01868603      -0.11684336       0.05112621
F        0.80326461       4.47172477       3.54832823      -0.09184631      -0.07460425      -0.05112621
F        1.76877667      -0.01681859      10.66378887       0.09184631       0.07460425       0.05112621
F        0.86982301       4.39966007       8.28570060       0.11053233      -0.04223911      -0.05112621
F        1.70221827       3.02518355       1.18904414      -0.11053233       0.04223911       0.05112621
F       -1.67308762       3.00836496       8.28570060      -0.01868603       0.11684336      -0.05112621
F       -0.89895366       4.41647866       1.18904414       0.01868603      -0.11684336       0.05112621
F        0.80326461       1.50178732       8.28570060      -0.09184631      -0.07460425      -0.05112621
F       -0.80326461       1.46815013       1.18904414       0.09184631       0.07460425       0.05112621
F        0.86982301       1.42972262      13.02307297       0.11053233      -0.04223911      -0.05112621
F        1.70221827       0.05524610       5.92641651      -0.11053233       0.04223911       0.05112621
F        3.47099494       0.03842751      13.02307297      -0.01868603       0.11684336      -0.05112621
F        4.24512889       1.44654121       5.92641651       0.01868603      -0.11684336       0.05112621
F        3.37530589       2.98675604      13.02307297      -0.09184631      -0.07460425      -0.05112621
F        1.76877667       2.95311886       5.92641651       0.09184631       0.07460425       0.05112621
24
Lattice="5.153468213199582 -6.103898042036704e-16 -1.4830044844167938e-15 -2.5767341065997655 4.463034390226319 1.8879279197488423e-15 -4.993199583527776e-15 2.152035011793747e-15 14.238869550030946" Properties=species:S:1:pos:R:3:forces:R:3 energy=-101.57820827587972 stress="-0.01367295650893481 9.129379002269152e-16 -4.809828527699864e-15 9.129379002269152e-16 -0.013672956508933364 -5.359465605777734e-16 -4.809828527699864e-15 -5.359465605777734e-16 -0.0146705376935907" free_energy=-101.57820827587972 pbc="T T T"
Li      -0.00000000      -0.00000000       7.11943478      -0.00000000      -0.00000000      -0.00000000
Li       2.57673411       1.48767813      11.86572463      -0.00000000       0.00000000       0.00000000
Li      -0.00000000       2.97535626       2.37314493       0.00000000       0.00000000      -0.00000000
Bi      -0.00000000       0.00000000       0.00000000      -0.00000000      -0.00000000      -0.00000000
Bi       2.57673411       1.48767813       4.74628985      -0.00000000       0.00000000       0.00000000
Bi      -0.00000000       2.97535626       9.49257970       0.00000000       0.00000000      -0.00000000
F       -1.70377882       2.90782587       3.55782165       0.15406641       0.03460916      -0.10313749
F        4.28051292       1.55520852      10.68104790      -0.15406641      -0.03460916       0.10313749
F        0.91037244       1.53360572       3.55782165      -0.10700561       0.11612084      -0.10313749
F        1.66636167       2.92942867      10.68104790       0.10700561      -0.11612084       0.10313749
F        0.79340638       4.48463719       3.55782165      -0.04706080      -0.15073000      -0.10313749
F        1.78332773      -0.02160280      10.68104790       0.04706080       0.15073000       0.10313749
F        0.87295529       4.39550400       8.30411150       0.15406641       0.03460916      -0.10313749
F        1.70377882       3.04288665       1.18846820      -0.15406641      -0.03460916       0.10313749
F       -1.66636167       3.02128385       8.30411150      -0.10700561       0.11612084      -0.10313749
F       -0.91037244       4.41710680       1.18846820       0.10700561      -0.11612084       0.10313749
F        0.79340638       1.50928093       8.30411150      -0.04706080      -0.15073000      -0.10313749
F       -0.79340638       1.46607533       1.18846820       0.04706080       0.15073000       0.10313749
F        0.87295529       1.42014774      13.05040135       0.15406641       0.03460916      -0.10313749
F        1.70377882       0.06753039       5.93475805      -0.15406641      -0.03460916       0.10313749
F        3.48710655       0.04592759      13.05040135      -0.10700561       0.11612084      -0.10313749
F        4.24309577       1.44175054       5.93475805       0.10700561      -0.11612084       0.10313749
F        3.37014048       2.99695906      13.05040135      -0.04706080      -0.15073000      -0.10313749
F        1.78332773       2.95375346       5.93475805       0.04706080       0.15073000       0.10313749
24
Lattice="5.173759061517528 -1.0024109800812638e-15 -2.941371666659054e-15 -2.5868795307587336 4.480606780333991 3.008585272024843e-15 -9.038205762788846e-15 3.3965602045042377e-15 14.296733794321359" Properties=species:S:1:pos:R:3:forces:R:3 energy=-101.62338853439857 stress="-0.01645512973960495 2.398185262306137e-15 -1.4098112618001792e-14 2.398185262306137e-15 -0.01645512973958962 -1.2917929175436511e-15 -1.4098112618001792e-14 -1.2917929175436511e-15 -0.01570824926389584" free_energy=-101.62338853439857 pbc="T T T"
Li      -0.00000000      -0.00000000       7.14836690      -0.00000000      -0.00000000      -0.00000000
Li       2.58687953       1.49353559      11.91394483      -0.00000000       0.00000000       0.00000000
Li      -0.00000000       2.98707119       2.38278897       0.00000000      -0.00000000       0.00000000
Bi      -0.00000000       0.00000000       0.00000000      -0.00000000      -0.00000000      -0.00000000
Bi       2.58687953       1.49353559       4.76557793      -0.00000000       0.00000000       0.00000000
Bi      -0.00000000       2.98707119       9.53115586       0.00000000       0.00000000      -0.00000000
F       -1.70307134       2.89653463       3.57459355       0.19608916       0.12238126      -0.14566024
F        4.28995087       1.58407215      10.72214025      -0.19608916      -0.12238126       0.14566024
F        0.92994263       1.55743642       3.57459355      -0.20402986       0.10862756      -0.14566024
F        1.65693690       2.92317036      10.72214025       0.20402986      -0.10862756       0.14566024
F        0.77312871       4.50724251       3.57459355       0.00794070      -0.23100882      -0.14566024
F        1.81375082      -0.02663573      10.72214025      -0.00794070       0.23100882       0.14566024
F        0.88380820       4.39007022       8.34017148       0.19608916       0.12238126      -0.14566024
F        1.70307134       3.07760774       1.19098438      -0.19608916      -0.12238126       0.14566024
F       -1.65693690       3.05097202       8.34017148      -0.20402986       0.10862756      -0.14566024
F       -0.92994263       4.41670595       1.19098438       0.20402986      -0.10862756       0.14566024
F        0.77312871       1.52017132       8.34017148       0.00794070      -0.23100882      -0.14566024
F       -0.77312871       1.46689987       1.19098438      -0.00794070       0.23100882       0.14566024
F        0.88380820       1.40299904      13.10574941       0.19608916       0.12238126      -0.14566024
F        1.70307134       0.09053656       5.95656231      -0.19608916      -0.12238126       0.14566024
F        3.51682216       0.06390083      13.10574941      -0.20402986       0.10862756      -0.14566024
F        4.24381644       1.42963476       5.95656231       0.20402986      -0.10862756       0.14566024
F        3.36000824       3.01370691      13.10574941       0.00794070      -0.23100882      -0.14566024
F        1.81375082       2.96043546       5.95656231      -0.00794070       0.23100882       0.14566024
24
Lattice="5.214762854522295 -1.937039778664806e-15 -5.0470821496109444e-15 -2.6073814272611067 4.516117106727624 4.9251836431980565e-15 -1.4883515624084807e-14 6.143770133175941e-15 14.413371970404691" Properties=species:S:1:pos:R:3:forces:R:3 energy=-101.70702683751617 stress="-0.017322077781156447 5.3064345792002375e-15 -2.82259181230439e-14 5.3064345792002375e-15 -0.017322077781119823 -1.082430123107051e-15 -2.82259181230439e-14 -1.082430123107051e-15 -0.012993325351210411" free_energy=-101.70702683751617 pbc="T T T"
Li      -0.00000000      -0.00000000       7.20668599       0.00000000      -0.00000000       0.00000000
Li       2.60738143       1.50537237      12.01114331       0.00000000       0.00000000       0.00000000
Li      -0.00000000       3.01074474       2.40222866       0.00000000      -0.00000000       0.00000000
Bi      -0.00000000      -0.00000000       0.00000000      -0.00000000      -0.00000000      -0.00000000
Bi       2.60738143       1.50537237       4.80445732      -0.00000000       0.00000000       0.00000000
Bi      -0.00000000       3.01074474       9.60891465       0.00000000       0.00000000      -0.00000000
F       -1.69704506       2.87853065       3.60422288       0.21381514       0.18888380      -0.14055487
F        4.30442649       1.63758646      10.80914909      -0.21381514      -0.18888380       0.14055487
F        0.96302329       1.60716765       3.60422288      -0.27048574       0.09072744      -0.14055487
F        1.64435813       2.90894946      10.80914909       0.27048574      -0.09072744       0.14055487
F        0.73402177       4.54653592       3.60422288       0.05667060      -0.27961124      -0.14055487
F        1.87335966      -0.03041881      10.80914909      -0.05667060       0.27961124       0.14055487
F        0.91033636       4.38390301       8.40868021       0.21381514       0.18888380      -0.14055487
F        1.69704506       3.14295883       1.20023444      -0.21381514      -0.18888380       0.14055487
F       -1.64435813       3.11254002       8.40868021      -0.27048574       0.09072744      -0.14055487
F       -0.96302329       4.41432183       1.20023444       0.27048574      -0.09072744       0.14055487
F        0.73402177       1.53579118       8.40868021       0.05667060      -0.27961124      -0.14055487
F       -0.73402177       1.47495356       1.20023444      -0.05667060       0.27961124       0.14055487
F        0.91033636       1.37315828      13.21313753       0.21381514       0.18888380      -0.14055487
F        1.69704506       0.13221409       6.00469176      -0.21381514      -0.18888380       0.14055487
F        3.57040472       0.10179528      13.21313753      -0.27048574       0.09072744      -0.14055487
F        4.25173956       1.40357709       6.00469176       0.27048574      -0.09072744       0.14055487
F        3.34140320       3.04116355      13.21313753       0.05667060      -0.27961124      -0.14055487
F        1.87335966       2.98032592       6.00469176      -0.05667060       0.27961124       0.14055487
24
Lattice="5.255978990174175 -3.0894851438092974e-15 -6.097995117812106e-15 -2.627989495087037 4.551811327247964 6.326947964271753e-15 -1.781038407374225e-14 8.930770561403319e-15 14.530010146488024" Properties=species:S:1:pos:R:3:forces:R:3 energy=-101.78221856385198 stress="-0.014886847451008827 6.843973894402436e-15 -3.369443747346229e-14 6.843973894402436e-15 -0.014886847450963423 7.648954959826134e-16 -3.369443747346229e-14 7.648954959826134e-16 -0.006899415851667083" free_energy=-101.78221856385198 pbc="T T T"
Li      -0.00000000      -0.00000000       7.26500507       0.00000000       0.00000000       0.00000000
Li       2.62798950       1.51727044      12.10834179       0.00000000       0.00000000       0.00000000
Li      -0.00000000       3.03454088       2.42166836      -0.00000000      -0.00000000       0.00000000
Bi      -0.00000000      -0.00000000       0.00000000      -0.00000000      -0.00000000       0.00000000
Bi       2.62798950       1.51727044       4.84333672      -0.00000000       0.00000000       0.00000000
Bi      -0.00000000       3.03454088       9.68667343       0.00000000       0.00000000      -0.00000000
F       -1.68781009       2.86374054       3.63158719       0.18025086       0.17494680      -0.07268382
F        4.31579958       1.68807079      10.89842296      -0.18025086      -0.17494680       0.07268382
F        0.99182248       1.65825465       3.63158719      -0.24163381       0.06862842      -0.07268382
F        1.63616701       2.89355668      10.89842296       0.24163381      -0.06862842       0.07268382
F        0.69598760       4.58162747       3.63158719       0.06138295      -0.24357523      -0.07268382
F        1.93200189      -0.02981614      10.89842296      -0.06138295       0.24357523       0.07268382
F        0.94017941       4.38101098       8.47492390       0.18025086       0.17494680      -0.07268382
F        1.68781009       3.20534123       1.21174953      -0.18025086      -0.17494680       0.07268382
F       -1.63616701       3.17552509       8.47492390      -0.24163381       0.06862842      -0.07268382
F       -0.99182248       4.41082712       1.21174953       0.24163381      -0.06862842       0.07268382
F        0.69598760       1.54708658       8.47492390       0.06138295      -0.24357523      -0.07268382
F       -0.69598760       1.48745430       1.21174953      -0.06138295       0.24357523       0.07268382
F        0.94017941       1.34647010      13.31826062       0.18025086       0.17494680      -0.07268382
F        1.68781009       0.17080035       6.05508624      -0.18025086      -0.17494680       0.07268382
F        3.61981198       0.14098420      13.31826062      -0.24163381       0.06862842      -0.07268382
F        4.26415651       1.37628624       6.05508624       0.24163381      -0.06862842       0.07268382
F        3.32397710       3.06435703      13.31826062       0.06138295      -0.24357523      -0.07268382
F        1.93200189       3.00472474       6.05508624      -0.06138295       0.24357523       0.07268382
24
Lattice="5.29762624830602 -4.480289126977082e-15 -6.014528606156518e-15 -2.64881312415295 4.587878910788095 7.066446042577872e-15 -1.759924090990873e-14 1.141344615560258e-14 14.646648322571357" Properties=species:S:1:pos:R:3:forces:R:3 energy=-101.83345064025102 stress="-0.010574621016678628 7.710764667235633e-15 -3.1621207453324484e-14 7.710764667235633e-15 -0.010574621016635288 1.0461283639429049e-15 -3.1621207453324484e-14 1.0461283639429049e-15 0.0009863726036290013" free_energy=-101.83345064025102 pbc="T T T"
Li      -0.00000000      -0.00000000       7.32332416       0.00000000       0.00000000       0.00000000
Li       2.64881312       1.52929297      12.20554027       0.00000000       0.00000000       0.00000000
Li      -0.00000000       3.05858594       2.44110805      -0.00000000      -0.00000000       0.00000000
Bi      -0.00000000      -0.00000000       0.00000000      -0.00000000      -0.00000000       0.00000000
Bi       2.64881312       1.52929297       4.88221611      -0.00000000       0.00000000       0.00000000
Bi      -0.00000000       3.05858594       9.76443222       0.00000000      -0.00000000      -0.00000000
F       -1.67776193       2.85181366       3.65882632       0.11912440       0.11967299       0.02355956
F        4.32657505       1.73606525      10.98782200      -0.11912440      -0.11967299      -0.02355956
F        1.01795101       1.70898763       3.65882632      -0.16320205       0.04332827       0.02355956
F        1.63086211       2.87889128      10.98782200       0.16320205      -0.04332827      -0.02355956
F        0.65981091       4.61495653       3.65882632       0.04407764      -0.16300125       0.02355956
F        1.98900221      -0.02707762      10.98782200      -0.04407764       0.16300125      -0.02355956
F        0.97105120       4.38110663       8.54104243       0.11912440       0.11967299       0.02355956
F        1.67776193       3.26535822       1.22338978      -0.11912440      -0.11967299      -0.02355956
F       -1.63086211       3.23828060       8.54104243      -0.16320205       0.04332827       0.02355956
F       -1.01795101       4.40818425       1.22338978       0.16320205      -0.04332827      -0.02355956
F        0.65981091       1.55637059       8.54104243       0.04407764      -0.16300125       0.02355956
F       -0.65981091       1.50221535       1.22338978      -0.04407764       0.16300125      -0.02355956
F        0.97105120       1.32252069      13.42325854       0.11912440       0.11967299       0.02355956
F        1.67776193       0.20677228       6.10560589      -0.11912440      -0.11967299      -0.02355956
F        3.66676414       0.17969466      13.42325854      -0.16320205       0.04332827       0.02355956
F        4.27967523       1.34959831       6.10560589       0.16320205      -0.04332827      -0.02355956
F        3.30862404       3.08566356      13.42325854       0.04407764      -0.16300125       0.02355956
F        1.98900221       3.03150832       6.10560589      -0.04407764       0.16300125      -0.02355956
24
Lattice="5.330166188173144 -5.906476984220509e-15 -4.5545066522613926e-15 -2.665083094086504 4.616059325350627 6.872378847527654e-15 -1.357527810194738e-14 1.311409264057954e-14 14.735722959296114" Properties=species:S:1:pos:R:3:forces:R:3 energy=-101.8523167304898 stress="-0.006144398909752365 5.773073910997173e-15 -2.0194744486417274e-14 5.773073910997173e-15 -0.006144398909723379 9.193468970231064e-16 -2.0194744486417274e-14 9.193468970231064e-16 0.007439136387868689" free_energy=-101.8523167304898 pbc="T T T"
Li      -0.00000000      -0.00000000       7.36786148       0.00000000       0.00000000       0.00000000
Li       2.66508309       1.53868644      12.27976913       0.00000000       0.00000000       0.00000000
Li      -0.00000000       3.07737288       2.45595383      -0.00000000      -0.00000000       0.00000000
Bi      -0.00000000      -0.00000000       0.00000000       0.00000000       0.00000000       0.00000000
Bi       2.66508309       1.53868644       4.91190765       0.00000000      -0.00000000      -0.00000000
Bi      -0.00000000       3.07737288       9.82381531       0.00000000      -0.00000000      -0.00000000
F       -1.67032252       2.84602798       3.68103437       0.05623368       0.05522159       0.10487105
F        4.33540561       1.77003134      11.05468859      -0.05623368      -0.05522159      -0.10487105
F        1.03551182       1.74650360       3.68103437      -0.07594014       0.02108899       0.10487105
F        1.62957127       2.86955573      11.05468859       0.07594014      -0.02108899      -0.10487105
F        0.63481070       4.63958707       3.68103437       0.01970646      -0.07631059       0.10487105
F        2.03027239      -0.02352774      11.05468859      -0.01970646       0.07631059      -0.10487105
F        0.99476057       4.38471442       8.59294202       0.05623368       0.05522159       0.10487105
F        1.67032252       3.30871778       1.23087329      -0.05623368      -0.05522159      -0.10487105
F       -1.62957127       3.28519004       8.59294202      -0.07594014       0.02108899       0.10487105
F       -1.03551182       4.40824217       1.23087329       0.07594014      -0.02108899      -0.10487105
F        0.63481070       1.56221419       8.59294202       0.01970646      -0.07631059       0.10487105
F       -0.63481070       1.51515870       1.23087329      -0.01970646       0.07631059      -0.10487105
F        0.99476057       1.30734154      13.50484967       0.05623368       0.05522159       0.10487105
F        1.67032252       0.23134490       6.14278094      -0.05623368      -0.05522159      -0.10487105
F        3.70059492       0.20781716      13.50484967      -0.07594014       0.02108899       0.10487105
F        4.29465437       1.33086929       6.14278094       0.07594014      -0.02108899      -0.10487105
F        3.29989379       3.10090063      13.50484967       0.01970646      -0.07631059       0.10487105
F        2.03027239       3.05384514       6.14278094      -0.01970646       0.07631059      -0.10487105
24
Lattice="5.337996409090265 -6.502102209569305e-15 -3.1306229010269828e-15 -2.668998204545063 4.622840495582092 6.221887620913405e-15 -9.638797605113648e-15 1.3306230702883398e-14 14.754901861499233" Properties=species:S:1:pos:R:3:forces:R:3 energy=-101.8594214038402 stress="-0.00456321992907124 3.788866731919287e-15 -1.1006710041621121e-14 3.788866731919287e-15 -0.0045632199290545124 2.1966344090600717e-16 -1.1006710041621121e-14 2.1966344090600717e-16 0.008787184174573168" free_energy=-101.8594214038402 pbc="T T T"
Li      -0.00000000      -0.00000000       7.37745093       0.00000000       0.00000000       0.00000000
Li       2.66899820       1.54094683      12.29575155       0.00000000       0.00000000       0.00000000
Li      -0.00000000       3.08189366       2.45915031      -0.00000000      -0.00000000       0.00000000
Bi      -0.00000000      -0.00000000       0.00000000       0.00000000       0.00000000       0.00000000
Bi       2.66899820       1.54094683       4.91830062       0.00000000      -0.00000000      -0.00000000
Bi      -0.00000000       3.08189366       9.83660124      -0.00000000      -0.00000000      -0.00000000
F       -1.66978368       2.84823143       3.68794174       0.03783053       0.03103490       0.11743290
F        4.33878188       1.77460906      11.06696012      -0.03783053      -0.03103490      -0.11743290
F        1.03724927       1.75264970       3.68794174      -0.04579228       0.01724476       0.11743290
F        1.63174894       2.87019080      11.06696012       0.04579228      -0.01724476      -0.11743290
F        0.63253441       4.64479986       3.68794174       0.00796174      -0.04827965       0.11743290
F        2.03646379      -0.02195937      11.06696012      -0.00796174       0.04827965      -0.11743290
F        0.99921453       4.38917826       8.60624236       0.03783053       0.03103490       0.11743290
F        1.66978368       3.31555589       1.23035888      -0.03783053      -0.03103490      -0.11743290
F       -1.63174894       3.29359653       8.60624236      -0.04579228       0.01724476       0.11743290
F       -1.03724927       4.41113763       1.23035888       0.04579228      -0.01724476      -0.11743290
F        0.63253441       1.56290620       8.60624236       0.00796174      -0.04827965       0.11743290
F       -0.63253441       1.51898746       1.23035888      -0.00796174       0.04827965      -0.11743290
F        0.99921453       1.30728460      13.52454298       0.03783053       0.03103490       0.11743290
F        1.66978368       0.23366223       6.14865950      -0.03783053      -0.03103490      -0.11743290
F        3.70624747       0.21170286      13.52454298      -0.04579228       0.01724476       0.11743290
F        4.30074714       1.32924397       6.14865950       0.04579228      -0.01724476      -0.11743290
F        3.30153262       3.10385303      13.52454298       0.00796174      -0.04827965       0.11743290
F        2.03646379       3.05993430       6.14865950      -0.00796174       0.04827965      -0.11743290
24
Lattice="5.3578753873104645 -8.652202123089758e-15 2.8302423981248303e-15 -2.678937693655158 4.640056195722034 3.3148499525420804e-15 6.848572865324271e-15 1.3525120732778887e-14 14.7967506788138" Properties=species:S:1:pos:R:3:forces:R:3 energy=-101.88242000685983 stress="0.00013738808833565347 -4.47193655248327e-15 2.6412526407524156e-14 -4.47193655248327e-15 0.0001373880882986131 -3.558570881000915e-15 2.6412526407524156e-14 -3.558570881000915e-15 0.011054603922713005" free_energy=-101.88242000685983 pbc="T T T"
Li      -0.00000000      -0.00000000       7.39837534       0.00000000       0.00000000       0.00000000
Li       2.67893769       1.54668540      12.33062557       0.00000000      -0.00000000       0.00000000
Li      -0.00000000       3.09337080       2.46612511       0.00000000      -0.00000000       0.00000000
Bi      -0.00000000      -0.00000000       0.00000000       0.00000000       0.00000000      -0.00000000
Bi       2.67893769       1.54668540       4.93225023       0.00000000      -0.00000000      -0.00000000
Bi      -0.00000000       3.09337080       9.86450045      -0.00000000      -0.00000000       0.00000000
F       -1.66924459       2.86122690       3.71062851      -0.01373396      -0.04402103       0.12020143
F        4.34818229       1.77882929      11.08612217       0.01373396       0.04402103      -0.12020143
F        1.03566481       1.76383452       3.71062851       0.04499031       0.01011656       0.12020143
F        1.64327289       2.87622167      11.08612217      -0.04499031      -0.01011656      -0.12020143
F        0.63357979       4.65505097       3.71062851      -0.03125635       0.03390447       0.12020143
F        2.04535791      -0.01499477      11.08612217       0.03125635      -0.03390447      -0.12020143
F        1.00969310       4.40791230       8.64287874      -0.01373396      -0.04402103       0.12020143
F        1.66924459       3.32551469       1.22162172       0.01373396       0.04402103      -0.12020143
F       -1.64327289       3.31051992       8.64287874       0.04499031       0.01011656       0.12020143
F       -1.03566481       4.42290707       1.22162172      -0.04499031      -0.01011656      -0.12020143
F        0.63357979       1.56168017       8.64287874      -0.03125635       0.03390447       0.12020143
F       -0.63357979       1.53169063       1.22162172       0.03125635      -0.03390447      -0.12020143
F        1.00969310       1.31454150      13.57512896      -0.01373396      -0.04402103       0.12020143
F        1.66924459       0.23214390       6.15387194       0.01373396       0.04402103      -0.12020143
F        3.71460250       0.21714912      13.57512896       0.04499031       0.01011656       0.12020143
F        4.32221058       1.32953627       6.15387194      -0.04499031      -0.01011656      -0.12020143
F        3.31251748       3.10836557      13.57512896      -0.03125635       0.03390447       0.12020143
F        2.04535791       3.07837603       6.15387194       0.03125635      -0.03390447      -0.12020143
24
Lattice="5.363343772610812 -9.590919474225731e-15 5.21209679283109e-15 -2.6816718863053306 4.644791956309806 2.2499817662840096e-15 1.3434928922953945e-14 1.3919455997879375e-14 14.802538928146639" Properties=species:S:1:pos:R:3:forces:R:3 energy=-101.89384286695349 stress="0.0011183363715924048 -8.304502425345413e-15 4.124849137793794e-14 -8.304502425345413e-15 0.0011183363715317363 -5.543603743094494e-15 4.124849137793794e-14 -5.543603743094494e-15 0.010152100142040616" free_energy=-101.89384286695349 pbc="T T T"
Li      -0.00000000      -0.00000000       7.40126946      -0.00000000       0.00000000       0.00000000
Li       2.68167189       1.54826399      12.33544911       0.00000000      -0.00000000       0.00000000
Li      -0.00000000       3.09652797       2.46708982       0.00000000       0.00000000       0.00000000
Bi      -0.00000000      -0.00000000       0.00000000       0.00000000       0.00000000       0.00000000
Bi       2.68167189       1.54826399       4.93417964       0.00000000      -0.00000000      -0.00000000
Bi      -0.00000000       3.09652797       9.86835929      -0.00000000      -0.00000000       0.00000000
F       -1.66695712       2.86712104       3.72151078      -0.02597258      -0.06248294       0.08837707
F        4.34862901       1.77767091      11.08102815       0.02597258       0.06248294      -0.08837707
F        1.03215079       1.76760422       3.72151078       0.06709810       0.00874856       0.08837707
F        1.64952110       2.87718774      11.08102815      -0.06709810      -0.00874856      -0.08837707
F        0.63480633       4.65485865       3.72151078      -0.04112553       0.05373438       0.08837707
F        2.04686555      -0.01006669      11.08102815       0.04112553      -0.05373438      -0.08837707
F        1.01471476       4.41538503       8.65569042      -0.02597258      -0.06248294       0.08837707
F        1.66695712       3.32593490       1.21266886       0.02597258       0.06248294      -0.08837707
F       -1.64952110       3.31586821       8.65569042       0.06709810       0.00874856       0.08837707
F       -1.03215079       4.42545172       1.21266886      -0.06709810      -0.00874856      -0.08837707
F        0.63480633       1.55833068       8.65569042      -0.04112553       0.05373438       0.08837707
F       -0.63480633       1.53819729       1.21266886       0.04112553      -0.05373438      -0.08837707
F        1.01471476       1.31885706      13.58987007      -0.02597258      -0.06248294       0.08837707
F        1.66695712       0.22940693       6.14684851       0.02597258       0.06248294      -0.08837707
F        3.71382267       0.21934023      13.58987007       0.06709810       0.00874856       0.08837707
F        4.33119299       1.32892375       6.14684851      -0.06709810      -0.00874856      -0.08837707
F        3.31647822       3.10659466      13.58987007      -0.04112553       0.05373438       0.08837707
F        2.04686555       3.08646128       6.14684851       0.04112553      -0.05373438      -0.08837707
24
Lattice="5.367049125686673 -1.0064253875740943e-14 5.172971879912686e-15 -2.68352456284326 4.6480008862034925 2.7182610484050052e-15 1.3312083572037791e-14 1.5345311623048402e-14 14.802815216442372" Properties=species:S:1:pos:R:3:forces:R:3 energy=-101.90406599304816 stress="0.00011837551707098164 -9.01332234367699e-15 4.310830242011172e-14 -9.01332234367699e-15 0.0001183755170053386 -5.3754091543413655e-15 4.310830242011172e-14 -5.3754091543413655e-15 0.007552057779782517" free_energy=-101.90406599304816 pbc="T T T"
Li      -0.00000000      -0.00000000       7.40140761      -0.00000000       0.00000000       0.00000000
Li       2.68352456       1.54933363      12.33567935      -0.00000000      -0.00000000      -0.00000000
Li      -0.00000000       3.09866726       2.46713587       0.00000000      -0.00000000      -0.00000000
Bi      -0.00000000      -0.00000000       0.00000000       0.00000000      -0.00000000      -0.00000000
Bi       2.68352456       1.54933363       4.93427174      -0.00000000      -0.00000000      -0.00000000
Bi      -0.00000000       3.09866726       9.86854348      -0.00000000       0.00000000       0.00000000
F       -1.66015658       2.86661918       3.73218695      -0.02124213      -0.04959659       0.03189922
F        4.34368114       1.78138170      11.07062827       0.02124213       0.04959659      -0.03189922
F        1.03103782       1.77695352       3.73218695       0.05357298       0.00640207       0.03189922
F        1.65248675       2.87104736      11.07062827      -0.05357298      -0.00640207      -0.03189922
F        0.62911876       4.65242907       3.73218695      -0.03233084       0.04319452       0.03189922
F        2.05440580      -0.00442818      11.07062827       0.03233084      -0.04319452      -0.03189922
F        1.02336798       4.41595281       8.66645869      -0.02124213      -0.04959659       0.03189922
F        1.66015658       3.33071533       1.20208479       0.02124213       0.04959659      -0.03189922
F       -1.65248675       3.32628715       8.66645869       0.05357298       0.00640207       0.03189922
F       -1.03103782       4.42038099       1.20208479      -0.05357298      -0.00640207      -0.03189922
F        0.62911876       1.55376181       8.66645869      -0.03233084       0.04319452       0.03189922
F       -0.62911876       1.54490545       1.20208479       0.03233084      -0.04319452      -0.03189922
F        1.02336798       1.31728556      13.60073043      -0.02124213      -0.04959659       0.03189922
F        1.66015658       0.23204807       6.13635653       0.02124213       0.04959659      -0.03189922
F        3.71456238       0.22761989      13.60073043       0.05357298       0.00640207       0.03189922
F        4.33601131       1.32171374       6.13635653      -0.05357298      -0.00640207      -0.03189922
F        3.31264333       3.10309544      13.60073043      -0.03233084       0.04319452       0.03189922
F        2.05440580       3.09423908       6.13635653       0.03233084      -0.04319452      -0.03189922
24
Lattice="5.370286066100986 -9.849210682001976e-15 2.5558605230156764e-15 -2.685143033050415 4.650804158832829 4.555075381110032e-15 6.0502888664107895e-15 1.702976675712415e-14 14.80740161665188" Properties=species:S:1:pos:R:3:forces:R:3 energy=-101.90813433369121 stress="-0.0016310139913198846 -5.892448282324151e-15 2.9164645275649466e-14 -5.892448282324151e-15 -0.0016310139913670875 -3.7795675849507416e-15 2.9164645275649466e-14 -3.7795675849507416e-15 0.005665861026658047" free_energy=-101.90813433369121 pbc="T T T"
Li      -0.00000000      -0.00000000       7.40370081      -0.00000000       0.00000000       0.00000000
Li       2.68514303       1.55026805      12.33950135       0.00000000      -0.00000000      -0.00000000
Li      -0.00000000       3.10053611       2.46790027       0.00000000      -0.00000000      -0.00000000
Bi      -0.00000000      -0.00000000       0.00000000       0.00000000       0.00000000       0.00000000
Bi       2.68514303       1.55026805       4.93580054      -0.00000000       0.00000000       0.00000000
Bi      -0.00000000       3.10053611       9.87160108      -0.00000000       0.00000000      -0.00000000
F       -1.65322036       2.85984902       3.73787346      -0.00891340      -0.02153532      -0.00217930
F        4.33836339       1.79095514      11.06952815       0.00891340       0.02153532       0.00217930
F        1.03505131       1.78914882       3.73787346       0.02310683       0.00304843      -0.00217930
F        1.65009172       2.86165534      11.06952815      -0.02310683      -0.00304843       0.00217930
F        0.61816905       4.65261047       3.73787346      -0.01419343       0.01848689      -0.00217930
F        2.06697399      -0.00180632      11.06952815       0.01419343      -0.01848689       0.00217930
F        1.03192268       4.41011707       8.67367400      -0.00891340      -0.02153532      -0.00217930
F        1.65322036       3.34122319       1.19792707       0.00891340       0.02153532       0.00217930
F       -1.65009172       3.33941688       8.67367400       0.02310683       0.00304843      -0.00217930
F       -1.03505131       4.41192339       1.19792707      -0.02310683      -0.00304843       0.00217930
F        0.61816905       1.55207437       8.67367400      -0.01419343       0.01848689      -0.00217930
F       -0.61816905       1.54846174       1.19792707       0.01419343      -0.01848689       0.00217930
F        1.03192268       1.30958097      13.60947454      -0.00891340      -0.02153532      -0.00217930
F        1.65322036       0.24068709       6.13372761       0.00891340       0.02153532       0.00217930
F        3.72019434       0.23888077      13.60947454       0.02310683       0.00304843      -0.00217930
F        4.33523476       1.31138728       6.13372761      -0.02310683      -0.00304843       0.00217930
F        3.30331208       3.10234242      13.60947454      -0.01419343       0.01848689      -0.00217930
F        2.06697399       3.09872979       6.13372761       0.01419343      -0.01848689       0.00217930
24
Lattice="5.37379832839649 -9.50382332253828e-15 -1.101858987308091e-16 -2.6868991641981657 4.653845867205493 6.291085850665749e-15 -1.3425111618348157e-15 1.83159267233218e-14 14.815796065635832" Properties=species:S:1:pos:R:3:forces:R:3 energy=-101.90928095242703 stress="-0.002610512994385873 -1.735848451970551e-15 1.3677165927481583e-14 -1.735848451970551e-15 -0.0026105129944121994 -1.8589532890448714e-15 1.3677165927481583e-14 -1.8589532890448714e-15 0.005113935881502073" free_energy=-101.90928095242703 pbc="T T T"
Li      -0.00000000      -0.00000000       7.40789803      -0.00000000      -0.00000000       0.00000000
Li       2.68689916       1.55128196      12.34649672       0.00000000      -0.00000000      -0.00000000
Li      -0.00000000       3.10256391       2.46929934       0.00000000      -0.00000000      -0.00000000
Bi      -0.00000000      -0.00000000       0.00000000      -0.00000000      -0.00000000      -0.00000000
Bi       2.68689916       1.55128196       4.93859869      -0.00000000       0.00000000       0.00000000
Bi      -0.00000000       3.10256391       9.87719738       0.00000000       0.00000000      -0.00000000
F       -1.64924289       2.85385313       3.74050727      -0.00201396      -0.00405224      -0.01015382
F        4.33614205       1.79999274      11.07528880       0.00201396       0.00405224       0.01015382
F        1.04001130       1.79863306       3.74050727       0.00451632       0.00028198      -0.01015382
F        1.64688786       2.85521280      11.07528880      -0.00451632      -0.00028198       0.01015382
F        0.60923159       4.65520554       3.74050727      -0.00250237       0.00377026      -0.01015382
F        2.07766757      -0.00135968      11.07528880       0.00250237      -0.00377026       0.01015382
F        1.03765627       4.40513509       8.67910596      -0.00201396      -0.00405224      -0.01015382
F        1.64924289       3.35127469       1.19809142       0.00201396       0.00405224       0.01015382
F       -1.64688786       3.34991502       8.67910596       0.00451632       0.00028198      -0.01015382
F       -1.04001130       4.40649476       1.19809142      -0.00451632      -0.00028198       0.01015382
F        0.60923159       1.55264163       8.67910596      -0.00250237       0.00377026      -0.01015382
F       -0.60923159       1.54992228       1.19809142       0.00250237      -0.00377026       0.01015382
F        1.03765627       1.30257117      13.61770465      -0.00201396      -0.00405224      -0.01015382
F        1.64924289       0.24871078       6.13669011       0.00201396       0.00405224       0.01015382
F        3.72691046       0.24735111      13.61770465       0.00451632       0.00028198      -0.01015382
F        4.33378703       1.30393085       6.13669011      -0.00451632      -0.00028198       0.01015382
F        3.29613075       3.10392359      13.61770465      -0.00250237       0.00377026      -0.01015382
F        2.07766757       3.10120424       6.13669011       0.00250237      -0.00377026       0.01015382
24
Lattice="5.376413151998739 -9.356650034384837e-15 -1.6178918042237877e-15 -2.6882065759992892 4.656110370871455 7.260244231795472e-15 -5.522645083404419e-15 1.9002357558572603e-14 14.821929061900986" Properties=species:S:1:pos:R:3:forces:R:3 energy=-101.90959300905078 stress="-0.002811034885345527 4.539577511031809e-16 5.011956697378117e-15 4.539577511031809e-16 -0.0028110348853599134 -1.1657562912190346e-15 5.011956697378117e-15 -1.1657562912190346e-15 0.005190627209222259" free_energy=-101.90959300905078 pbc="T T T"
Li      -0.00000000      -0.00000000       7.41096453      -0.00000000      -0.00000000       0.00000000
Li       2.68820658       1.55203679      12.35160755       0.00000000      -0.00000000      -0.00000000
Li      -0.00000000       3.10407358       2.47032151       0.00000000      -0.00000000      -0.00000000
Bi      -0.00000000      -0.00000000       0.00000000      -0.00000000       0.00000000       0.00000000
Bi       2.68820658       1.55203679       4.94064302      -0.00000000      -0.00000000      -0.00000000
Bi      -0.00000000       3.10407358       9.88128604      -0.00000000       0.00000000       0.00000000
F       -1.64802600       2.85134003       3.74169816      -0.00064818       0.00079624      -0.00832974
F        4.33623257       1.80477034      11.08023090       0.00064818      -0.00079624       0.00832974
F        1.04288667       1.80320798       3.74169816      -0.00036547      -0.00095946      -0.00832974
F        1.64531990       2.85290240      11.08023090       0.00036547       0.00095946       0.00832974
F        0.60513932       4.65767274       3.74169816       0.00101365       0.00016322      -0.00832974
F        2.08306725      -0.00156237      11.08023090      -0.00101365      -0.00016322       0.00832974
F        1.04018058       4.40337682       8.68234118      -0.00064818       0.00079624      -0.00832974
F        1.64802600       3.35680713       1.19894486       0.00064818      -0.00079624       0.00832974
F       -1.64531990       3.35524477       8.68234118      -0.00036547      -0.00095946      -0.00832974
F       -1.04288667       4.40493919       1.19894486       0.00036547       0.00095946       0.00832974
F        0.60513932       1.55359916       8.68234118       0.00101365       0.00016322      -0.00832974
F       -0.60513932       1.55047442       1.19894486      -0.00101365      -0.00016322       0.00832974
F        1.04018058       1.29930324      13.62298420      -0.00064818       0.00079624      -0.00832974
F        1.64802600       0.25273355       6.13958788       0.00064818      -0.00079624       0.00832974
F        3.73109325       0.25117119      13.62298420      -0.00036547      -0.00095946      -0.00832974
F        4.33352648       1.30086561       6.13958788       0.00036547       0.00095946       0.00832974
F        3.29334590       3.10563595      13.62298420       0.00101365       0.00016322      -0.00832974
F        2.08306725       3.10251121       6.13958788      -0.00101365      -0.00016322       0.00832974
24
Lattice="5.379270123222831 -9.27137396117733e-15 -3.2694475012772332e-15 -2.6896350616113343 4.6585845805294 8.35164555064013e-15 -1.0101378626852389e-14 1.9848262331723738e-14 14.82721427698228" Properties=species:S:1:pos:R:3:forces:R:3 energy=-101.90992464895564 stress="-0.002861161312028861 2.9648494260345967e-15 -4.9260956165012695e-15 2.9648494260345967e-15 -0.002861161312030157 1.8706005460812535e-16 -4.9260956165012695e-15 1.8706005460812535e-16 0.0053481208102137195" free_energy=-101.90992464895564 pbc="T T T"
Li      -0.00000000      -0.00000000       7.41360714      -0.00000000      -0.00000000       0.00000000
Li       2.68963506       1.55286153      12.35601190       0.00000000      -0.00000000      -0.00000000
Li      -0.00000000       3.10572305       2.47120238       0.00000000      -0.00000000      -0.00000000
Bi      -0.00000000      -0.00000000       0.00000000      -0.00000000       0.00000000       0.00000000
Bi       2.68963506       1.55286153       4.94240476       0.00000000       0.00000000      -0.00000000
Bi      -0.00000000       3.10572305       9.88480952       0.00000000      -0.00000000       0.00000000
F       -1.64735037       2.84956156       3.74267037      -0.00011021       0.00339052      -0.00558293
F        4.33698543       1.80902303      11.08454390       0.00011021      -0.00339052       0.00558293
F        1.04551755       1.80715653       3.74267037      -0.00288117      -0.00179071      -0.00558293
F        1.64411751       2.85142805      11.08454390       0.00288117       0.00179071       0.00558293
F        0.60183282       4.66045107       3.74267037       0.00299138      -0.00159981      -0.00558293
F        2.08780224      -0.00186649      11.08454390      -0.00299138       0.00159981       0.00558293
F        1.04228469       4.40242308       8.68507513      -0.00011021       0.00339052      -0.00558293
F        1.64735037       3.36188455       1.19973439       0.00011021      -0.00339052       0.00558293
F       -1.64411751       3.36001806       8.68507513      -0.00288117      -0.00179071      -0.00558293
F       -1.04551755       4.40428957       1.19973439       0.00288117       0.00179071       0.00558293
F        0.60183282       1.55472802       8.68507513       0.00299138      -0.00159981      -0.00558293
F       -0.60183282       1.55099504       1.19973439      -0.00299138       0.00159981       0.00558293
F        1.04228469       1.29670003      13.62747989      -0.00011021       0.00339052      -0.00558293
F        1.64735037       0.25616150       6.14213915       0.00011021      -0.00339052       0.00558293
F        3.73515261       0.25429501      13.62747989      -0.00288117      -0.00179071      -0.00558293
F        4.33375257       1.29856652       6.14213915       0.00288117       0.00179071       0.00558293
F        3.29146788       3.10758955      13.62747989       0.00299138      -0.00159981      -0.00558293
F        2.08780224       3.10385656       6.14213915      -0.00299138       0.00159981       0.00558293
24
Lattice="5.3848704088257735 -9.273978081205325e-15 -6.7740381171769456e-15 -2.6924352044128037 4.663434570129996 1.0691113089214069e-14 -1.981584969632083e-14 2.1715327669330464e-14 14.833980176695587" Properties=species:S:1:pos:R:3:forces:R:3 energy=-101.91074647160048 stress="-0.002870721896098017 8.324587745615071e-15 -2.4901240385177853e-14 8.324587745615071e-15 -0.0028707218960728666 2.2104121945189052e-15 -2.4901240385177853e-14 2.2104121945189052e-15 0.005611390970746836" free_energy=-101.91074647160048 pbc="T T T"
Li      -0.00000000      -0.00000000       7.41699009      -0.00000000      -0.00000000       0.00000000
Li       2.69243520       1.55447819      12.36165015       0.00000000       0.00000000       0.00000000
Li      -0.00000000       3.10895638       2.47233003      -0.00000000      -0.00000000      -0.00000000
Bi      -0.00000000      -0.00000000       0.00000000       0.00000000      -0.00000000       0.00000000
Bi       2.69243520       1.55447819       4.94466006       0.00000000      -0.00000000      -0.00000000
Bi      -0.00000000       3.10895638       9.88932012      -0.00000000      -0.00000000       0.00000000
F       -1.64653340       2.84694499       3.74376511       0.00065197       0.00685339      -0.00102839
F        4.33896860       1.81648958      11.09021507      -0.00065197      -0.00685339       0.00102839
F        1.05017522       1.81402233       3.74376511      -0.00626120      -0.00286207      -0.00102839
F        1.64225999       2.84941224      11.09021507       0.00626120       0.00286207       0.00102839
F        0.59635818       4.66590183       3.74376511       0.00560923      -0.00399132      -0.00102839
F        2.09607703      -0.00246725      11.09021507      -0.00560923       0.00399132       0.00102839
F        1.04590181       4.40142318       8.68842517       0.00065197       0.00685339      -0.00102839
F        1.64653340       3.37096777       1.20089495      -0.00065197      -0.00685339       0.00102839
F       -1.64225999       3.36850052       8.68842517      -0.00626120      -0.00286207      -0.00102839
F       -1.05017522       4.40389043       1.20089495       0.00626120       0.00286207       0.00102839
F        0.59635818       1.55694544       8.68842517       0.00560923      -0.00399132      -0.00102839
F       -0.59635818       1.55201094       1.20089495      -0.00560923       0.00399132       0.00102839
F        1.04590181       1.29246680      13.63308522       0.00065197       0.00685339      -0.00102839
F        1.64653340       0.26201139       6.14555501      -0.00065197      -0.00685339       0.00102839
F        3.74261042       0.25954414      13.63308522      -0.00626120      -0.00286207      -0.00102839
F        4.33469519       1.29493405       6.14555501       0.00626120       0.00286207       0.00102839
F        3.28879338       3.11142363      13.63308522       0.00560923      -0.00399132      -0.00102839
F        2.09607703       3.10648913       6.14555501      -0.00560923       0.00399132       0.00102839
24
Lattice="5.395369395454366 -9.76317643793025e-15 -1.382091605615025e-14 -2.6976846977270967 4.672526959264353 1.5521605807737433e-14 -3.933970719313521e-14 2.586611446678765e-14 14.83847798513359" Properties=species:S:1:pos:R:3:forces:R:3 energy=-101.91272567179101 stress="-0.002814095414292064 1.8786876688635504e-14 -6.536925517298122e-14 1.8786876688635504e-14 -0.0028140954142146886 7.130928493324388e-15 -6.536925517298122e-14 7.130928493324388e-15 0.005957001954287259" free_energy=-101.91272567179101 pbc="T T T"
Li      -0.00000000      -0.00000000       7.41923899       0.00000000       0.00000000       0.00000000
Li       2.69768470       1.55750899      12.36539832       0.00000000       0.00000000       0.00000000
Li      -0.00000000       3.11501797       2.47307966      -0.00000000      -0.00000000       0.00000000
Bi      -0.00000000      -0.00000000       0.00000000       0.00000000      -0.00000000       0.00000000
Bi       2.69768470       1.55750899       4.94615933       0.00000000      -0.00000000      -0.00000000
Bi      -0.00000000       3.11501797       9.89231866      -0.00000000      -0.00000000      -0.00000000
F       -1.64558970       2.84319433       3.74380193       0.00188094       0.01164445       0.00553262
F        4.34327440       1.82933263      11.09467605      -0.00188094      -0.01164445      -0.00553262
F        1.05820103       1.82580731       3.74380193      -0.01102486      -0.00419329       0.00553262
F        1.63948367       2.84671965      11.09467605       0.01102486       0.00419329      -0.00553262
F        0.58738867       4.67605228       3.74380193       0.00914392      -0.00745117       0.00553262
F        2.11029603      -0.00352532      11.09467605      -0.00914392       0.00745117      -0.00553262
F        1.05209499       4.40070332       8.68996126       0.00188094       0.01164445       0.00553262
F        1.64558970       3.38684162       1.20235740      -0.00188094      -0.01164445      -0.00553262
F       -1.63948367       3.38331629       8.68996126      -0.01102486      -0.00419329       0.00553262
F       -1.05820103       4.40422864       1.20235740       0.01102486       0.00419329      -0.00553262
F        0.58738867       1.56103431       8.68996126       0.00914392      -0.00745117       0.00553262
F       -0.58738867       1.55398366       1.20235740      -0.00914392       0.00745117      -0.00553262
F        1.05209499       1.28568534      13.63612059       0.00188094       0.01164445       0.00553262
F        1.64558970       0.27182364       6.14851673      -0.00188094      -0.01164445      -0.00553262
F        3.75588573       0.26829832      13.63612059      -0.01102486      -0.00419329       0.00553262
F        4.33716836       1.28921067       6.14851673       0.01102486       0.00419329      -0.00553262
F        3.28507337       3.11854330      13.63612059       0.00914392      -0.00745117       0.00553262
F        2.11029603       3.11149265       6.14851673      -0.00914392       0.00745117      -0.00553262
24
Lattice="5.415048296365628 -1.1968661000535191e-14 -2.7260396808258522e-14 -2.7075241481827224 4.689569387372068 2.500025701860877e-14 -7.651689742080317e-14 3.4609196401008426e-14 14.828721559190107" Properties=species:S:1:pos:R:3:forces:R:3 energy=-101.91739886090022 stress="-0.002598363789458033 3.9924915555393665e-14 -1.4145434055700637e-13 3.9924915555393665e-14 -0.0025983637892842966 1.8068591943236444e-14 -1.4145434055700637e-13 1.8068591943236444e-14 0.006297172425072495" free_energy=-101.91739886090022 pbc="T T T"
Li      -0.00000000      -0.00000000       7.41436078       0.00000000       0.00000000       0.00000000
Li       2.70752415       1.56318980      12.35726797       0.00000000       0.00000000       0.00000000
Li       0.00000000       3.12637959       2.47145359      -0.00000000       0.00000000       0.00000000
Bi      -0.00000000       0.00000000       0.00000000       0.00000000      -0.00000000       0.00000000
Bi       2.70752415       1.56318980       4.94290719       0.00000000      -0.00000000      -0.00000000
Bi      -0.00000000       3.12637959       9.88581437       0.00000000      -0.00000000      -0.00000000
F       -1.64471306       2.83800915       3.73907199       0.00350278       0.01817638       0.01457205
F        4.35223721       1.85156023      11.08964956      -0.00350278      -0.01817638      -0.01457205
F        1.07209266       1.84620152       3.73907199      -0.01749260      -0.00605469       0.01457205
F        1.63543149       2.84336787      11.08964956       0.01749260       0.00605469      -0.01457205
F        0.57262040       4.69492810       3.73907199       0.01398981      -0.01212169       0.01457205
F        2.13490374      -0.00535871      11.08964956      -0.01398981       0.01212169      -0.01457205
F        1.06281109       4.40119895       8.68197918       0.00350278       0.01817638       0.01457205
F        1.64471306       3.41475003       1.20383519      -0.00350278      -0.01817638      -0.01457205
F       -1.63543149       3.40939132       8.68197918      -0.01749260      -0.00605469       0.01457205
F       -1.07209266       4.40655766       1.20383519       0.01749260       0.00605469      -0.01457205
F        0.57262040       1.56854851       8.68197918       0.01398981      -0.01212169       0.01457205
F       -0.57262040       1.55783108       1.20383519      -0.01398981       0.01212169      -0.01457205
F        1.06281109       1.27481936      13.62488637       0.00350278       0.01817638       0.01457205
F        1.64471306       0.28837044       6.14674238      -0.00350278      -0.01817638      -0.01457205
F        3.77961680       0.28301172      13.62488637      -0.01749260      -0.00605469       0.01457205
F        4.34295564       1.28017807       6.14674238       0.01749260       0.00605469      -0.01457205
F        3.28014455       3.13173831      13.62488637       0.01398981      -0.01212169       0.01457205
F        2.13490374       3.12102088       6.14674238      -0.01398981       0.01212169      -0.01457205
24
Lattice="5.446399420471332 -1.8676088996968376e-14 -4.8220475838576716e-14 -2.7231997102355674 4.7167202572848215 4.02748726516959e-14 -1.3420182263543689e-13 4.973630089279652e-14 14.774486154236275" Properties=species:S:1:pos:R:3:forces:R:3 energy=-101.92681807802262 stress="-0.0020663898662657367 7.528898985973893e-14 -2.5853580863717325e-13 7.528898985973893e-14 -0.0020663898659479658 3.6285502917166965e-14 -2.5853580863717325e-13 3.6285502917166965e-14 0.006267152218811088" free_energy=-101.92681807802262 pbc="T T T"
Li      -0.00000000      -0.00000000       7.38724308       0.00000000       0.00000000       0.00000000
Li       2.72319971       1.57224009      12.31207180       0.00000000       0.00000000       0.00000000
Li       0.00000000       3.14448017       2.46241436      -0.00000000       0.00000000       0.00000000
Bi      -0.00000000       0.00000000       0.00000000       0.00000000      -0.00000000       0.00000000
Bi       2.72319971       1.57224009       4.92482872       0.00000000      -0.00000000      -0.00000000
Bi      -0.00000000       3.14448017       9.84965744       0.00000000      -0.00000000      -0.00000000
F       -1.64517438       2.83293542       3.72062414       0.00395905       0.02543471       0.02561922
F        4.36837409       1.88378483      11.05386201      -0.00395905      -0.02543471      -0.02561922
F        1.09239286       1.87548974       3.72062414      -0.02400663      -0.00928872       0.02561922
F        1.63080685       2.84123052      11.05386201       0.02400663       0.00928872      -0.02561922
F        0.55278153       4.72501535       3.72062414       0.02004758      -0.01614599       0.02561922
F        2.17041818      -0.00829510      11.05386201      -0.02004758       0.01614599      -0.02561922
F        1.07802533       4.40517551       8.64545286       0.00395905       0.02543471       0.02561922
F        1.64517438       3.45602492       1.20420458      -0.00395905      -0.02543471      -0.02561922
F       -1.63080685       3.44772982       8.64545286      -0.02400663      -0.00928872       0.02561922
F       -1.09239286       4.41347061       1.20420458       0.02400663       0.00928872      -0.02561922
F        0.55278153       1.58053518       8.64545286       0.02004758      -0.01614599       0.02561922
F       -0.55278153       1.56394499       1.20420458      -0.02004758       0.01614599      -0.02561922
F        1.07802533       1.26069534      13.57028158       0.00395905       0.02543471       0.02561922
F        1.64517438       0.31154475       6.12903330      -0.00395905      -0.02543471      -0.02561922
F        3.81559257       0.30324965      13.57028158      -0.02400663      -0.00928872       0.02561922
F        4.35400656       1.26899044       6.12903330       0.02400663       0.00928872      -0.02561922
F        3.27598124       3.15277527      13.57028158       0.02004758      -0.01614599       0.02561922
F        2.17041818       3.13618507       6.12903330      -0.02004758       0.01614599      -0.02561922
24
Lattice="5.4758431799770575 -3.082990863965217e-14 -6.651847897491117e-14 -2.7379215899884257 4.742219300999716 5.442270271815396e-14 -1.8358288004007502e-13 6.532694059768826e-14 14.657847978152942" Properties=species:S:1:pos:R:3:forces:R:3 energy=-101.94101275486594 stress="-0.0015699058639621385 1.0599267943125616e-13 -3.5923108599352573e-13 1.0599267943125616e-13 -0.0015699058635226027 5.204899531162454e-14 -3.5923108599352573e-13 5.204899531162454e-14 0.005276099789930008" free_energy=-101.94101275486594 pbc="T T T"
Li      -0.00000000      -0.00000000       7.32892399       0.00000000       0.00000000       0.00000000
Li       2.73792159       1.58073977      12.21487332       0.00000000       0.00000000       0.00000000
Li       0.00000000       3.16147953       2.44297466      -0.00000000       0.00000000       0.00000000
Bi      -0.00000000       0.00000000       0.00000000       0.00000000      -0.00000000       0.00000000
Bi       2.73792159       1.58073977       4.88594933       0.00000000      -0.00000000      -0.00000000
Bi      -0.00000000       3.16147953       9.77189865       0.00000000      -0.00000000      -0.00000000
F       -1.64983397       2.83377097       3.68400852       0.00509681       0.03053951       0.03112080
F        4.38775556       1.90844834      10.97383945      -0.00509681      -0.03053951      -0.03112080
F        1.10872093       1.89653568       3.68400852      -0.02899639      -0.01085579       0.03112080
F        1.62920066       2.84568362      10.97383945       0.02899639       0.01085579      -0.03112080
F        0.54111304       4.75413195       3.68400852       0.02389959      -0.01968372       0.03112080
F        2.19680855      -0.01191265      10.97383945      -0.02389959       0.01968372      -0.03112080
F        1.08808762       4.41451073       8.56995785       0.00509681       0.03053951       0.03112080
F        1.64983397       3.48918810       1.20194080      -0.00509681      -0.03053951      -0.03112080
F       -1.62920066       3.47727545       8.56995785      -0.02899639      -0.01085579       0.03112080
F       -1.10872093       4.42642338       1.20194080       0.02899639       0.01085579      -0.03112080
F        0.54111304       1.59265242       8.56995785       0.02389959      -0.01968372       0.03112080
F       -0.54111304       1.56882712       1.20194080      -0.02389959       0.01968372      -0.03112080
F        1.08808762       1.25303120      13.45590718       0.00509681       0.03053951       0.03112080
F        1.64983397       0.32770857       6.08789013      -0.00509681      -0.03053951      -0.03112080
F        3.84664252       0.31579592      13.45590718      -0.02899639      -0.01085579       0.03112080
F        4.36712225       1.26494385       6.08789013       0.02899639       0.01085579      -0.03112080
F        3.27903463       3.17339218      13.45590718       0.02389959      -0.01968372       0.03112080
F        2.19680855       3.14956688       6.08789013      -0.02389959       0.01968372      -0.03112080
24
Lattice="5.490904483347762 -4.290003157558555e-14 -7.192117567944588e-14 -2.7454522416737785 4.755262772332862 5.976485178833313e-14 -1.9641046215855624e-13 7.329849582508729e-14 14.54120980206961" Properties=species:S:1:pos:R:3:forces:R:3 energy=-101.95390757819195 stress="-0.001330727727776406 1.115189744436732e-13 -3.8648735419835665e-13 1.115189744436732e-13 -0.0013307277273039242 5.377520129719644e-14 -3.8648735419835665e-13 5.377520129719644e-14 0.0038700532469596806" free_energy=-101.95390757819195 pbc="T T T"
Li      -0.00000000      -0.00000000       7.27060490       0.00000000       0.00000000      -0.00000000
Li       2.74545224       1.58508759      12.11767484       0.00000000       0.00000000       0.00000000
Li       0.00000000       3.17017518       2.42353497      -0.00000000       0.00000000       0.00000000
Bi      -0.00000000       0.00000000       0.00000000       0.00000000      -0.00000000       0.00000000
Bi       2.74545224       1.58508759       4.84706993       0.00000000      -0.00000000      -0.00000000
Bi      -0.00000000       3.17017518       9.69413987       0.00000000      -0.00000000      -0.00000000
F       -1.65640544       2.84018173       3.64894038       0.00698650       0.03097497       0.02768738
F        4.40185769       1.91508104      10.89226943      -0.00698650      -0.03097497      -0.02768738
F        1.11398543       1.90068271       3.64894038      -0.03031837      -0.00943700       0.02768738
F        1.63146681       2.85458006      10.89226943       0.03031837       0.00943700      -0.02768738
F        0.54242001       4.76966110       3.64894038       0.02333186      -0.02153798       0.02768738
F        2.20303223      -0.01439833      10.89226943      -0.02333186       0.02153798      -0.02768738
F        1.08904680       4.42526932       8.49601031       0.00698650       0.03097497       0.02768738
F        1.65640544       3.50016863       1.19812956      -0.00698650      -0.03097497      -0.02768738
F       -1.63146681       3.48577031       8.49601031      -0.03031837      -0.00943700       0.02768738
F       -1.11398543       4.43966765       1.19812956       0.03031837       0.00943700      -0.02768738
F        0.54242001       1.59948592       8.49601031       0.02333186      -0.02153798       0.02768738
F       -0.54242001       1.57068926       1.19812956      -0.02333186       0.02153798      -0.02768738
F        1.08904680       1.25509414      13.34308024       0.00698650       0.03097497       0.02768738
F        1.65640544       0.32999345       6.04519949      -0.00698650      -0.03097497      -0.02768738
F        3.85943768       0.31559512      13.34308024      -0.03031837      -0.00943700       0.02768738
F        4.37691905       1.26949247       6.04519949       0.03031837       0.00943700      -0.02768738
F        3.28787225       3.18457351      13.34308024       0.02333186      -0.02153798       0.02768738
F        2.20303223       3.15577685       6.04519949      -0.02333186       0.02153798      -0.02768738
24
Lattice="5.498958418228586 -5.584618793516528e-14 -6.712965860867688e-14 -2.749479209114194 4.762237684540084 5.85158933331115e-14 -1.7978034265433161e-13 7.635307450634778e-14 14.424571625986276" Properties=species:S:1:pos:R:3:forces:R:3 energy=-101.96499393449102 stress="-0.0010511162317254803 9.73331747137482e-14 -3.52970662217841e-13 9.73331747137482e-14 -0.001051116231293694 4.613108022238118e-14 -3.52970662217841e-13 4.613108022238118e-14 0.0021665003317870722" free_energy=-101.96499393449102 pbc="T T T"
Li      -0.00000000      -0.00000000       7.21228581       0.00000000       0.00000000       0.00000000
Li       2.74947921       1.58741256      12.02047635       0.00000000       0.00000000       0.00000000
Li       0.00000000       3.17482512       2.40409527      -0.00000000       0.00000000       0.00000000
Bi      -0.00000000       0.00000000       0.00000000       0.00000000      -0.00000000       0.00000000
Bi       2.74947921       1.58741256       4.80819054       0.00000000      -0.00000000      -0.00000000
Bi      -0.00000000       3.17482512       9.61638108       0.00000000      -0.00000000      -0.00000000
F       -1.66424956       2.85057097       3.61511011       0.00685842       0.02512523       0.02039297
F        4.41372877       1.91166672      10.80946151      -0.00685842      -0.02512523      -0.02039297
F        1.11293711       1.89566980       3.61511011      -0.02518830      -0.00662305       0.02039297
F        1.63654210       2.86656788      10.80946151       0.02518830       0.00662305      -0.02039297
F        0.55131244       4.77823460       3.61511011       0.01832988      -0.01850218       0.02039297
F        2.19816676      -0.01599691      10.80946151      -0.01832988       0.01850218      -0.02039297
F        1.08522965       4.43798353       8.42330066       0.00685842       0.02512523       0.02039297
F        1.66424956       3.49907928       1.19308043      -0.00685842      -0.02512523      -0.02039297
F       -1.63654210       3.48308237       8.42330066      -0.02518830      -0.00662305       0.02039297
F       -1.11293711       4.45398044       1.19308043       0.02518830       0.00662305      -0.02039297
F        0.55131244       1.60340947       8.42330066       0.01832988      -0.01850218       0.02039297
F       -0.55131244       1.57141565       1.19308043      -0.01832988       0.01850218      -0.02039297
F        1.08522965       1.26315841      13.23149120       0.00685842       0.02512523       0.02039297
F        1.66424956       0.32425415       6.00127097      -0.00685842      -0.02512523      -0.02039297
F        3.86241632       0.30825724      13.23149120      -0.02518830      -0.00662305       0.02039297
F        4.38602130       1.27915532       6.00127097       0.02518830       0.00662305      -0.02039297
F        3.30079165       3.19082203      13.23149120       0.01832988      -0.01850218       0.02039297
F        2.19816676       3.15882821       6.00127097      -0.01832988       0.01850218      -0.02039297
24
Lattice="5.503067082800373 -7.118901724319285e-14 -4.845015940688257e-14 -2.7515335414000943 4.765795892434874 4.868146537018746e-14 -1.2257758532152284e-13 7.39140531980496e-14 14.307933449902944" Properties=species:S:1:pos:R:3:forces:R:3 energy=-101.97150287228351 stress="-0.00047628704922939567 5.749378639165659e-14 -2.3505959358813223e-13 5.749378639165659e-14 -0.0004762870489455196 2.6253757272373842e-14 -2.3505959358813223e-13 2.6253757272373842e-14 0.00010035049964074828" free_energy=-101.97150287228351 pbc="T T T"
Li      -0.00000000      -0.00000000       7.15396672       0.00000000       0.00000000      -0.00000000
Li       2.75153354       1.58859863      11.92327787       0.00000000       0.00000000       0.00000000
Li       0.00000000       3.17719726       2.38465557      -0.00000000       0.00000000       0.00000000
Bi      -0.00000000       0.00000000       0.00000000       0.00000000      -0.00000000       0.00000000
Bi       2.75153354       1.58859863       4.76931115       0.00000000      -0.00000000      -0.00000000
Bi      -0.00000000       3.17719726       9.53862230       0.00000000      -0.00000000      -0.00000000
F       -1.67361787       2.86558282       3.58322327       0.00264303       0.00862459       0.00901534
F        4.42515142       1.90021307      10.72471018      -0.00264303      -0.00862459      -0.00901534
F        1.10667496       1.88360889       3.58322327      -0.00879063      -0.00202336       0.00901534
F        1.64485858       2.88218701      10.72471018       0.00879063       0.00202336      -0.00901534
F        0.56694292       4.78240008       3.58322327       0.00614760      -0.00660123       0.00901534
F        2.18459062      -0.01660418      10.72471018      -0.00614760       0.00660123      -0.00901534
F        1.07791567       4.45418145       8.35253442       0.00264303       0.00862459       0.00901534
F        1.67361787       3.48881170       1.18608788      -0.00264303      -0.00862459      -0.00901534
F       -1.64485858       3.47220752       8.35253442      -0.00879063      -0.00202336       0.00901534
F       -1.10667496       4.47078564       1.18608788       0.00879063       0.00202336      -0.00901534
F        0.56694292       1.60520282       8.35253442       0.00614760      -0.00660123       0.00901534
F       -0.56694292       1.57199445       1.18608788      -0.00614760       0.00660123      -0.00901534
F        1.07791567       1.27698419      13.12184557       0.00264303       0.00862459       0.00901534
F        1.67361787       0.31161444       5.95539903      -0.00264303      -0.00862459      -0.00901534
F        3.85820850       0.29501025      13.12184557      -0.00879063      -0.00202336       0.00901534
F        4.39639212       1.29358838       5.95539903       0.00879063       0.00202336      -0.00901534
F        3.31847646       3.19380145      13.12184557       0.00614760      -0.00660123       0.00901534
F        2.18459062       3.16059308       5.95539903      -0.00614760       0.00660123      -0.00901534
24
Lattice="5.5035816496184005 -7.521441956360282e-14 -3.36833845704336e-14 -2.7517908248091105 4.766241520371216 3.992833202613492e-14 -7.92066270975471e-14 6.924277865960872e-14 14.302927729283082" Properties=species:S:1:pos:R:3:forces:R:3 energy=-101.97201444225058 stress="5.418740198885578e-06 3.145135829918524e-14 -1.465716377220641e-13 3.145135829918524e-14 5.418740367965543e-06 1.3411316044547904e-14 -1.465716377220641e-13 1.3411316044547904e-14 -1.4843102645603463e-05" free_energy=-101.97201444225058 pbc="T T T"
Li      -0.00000000      -0.00000000       7.15146386       0.00000000       0.00000000      -0.00000000
Li       2.75179082       1.58874717      11.91910644       0.00000000       0.00000000       0.00000000
Li       0.00000000       3.17749435       2.38382129      -0.00000000       0.00000000       0.00000000
Bi      -0.00000000       0.00000000       0.00000000       0.00000000      -0.00000000      -0.00000000
Bi       2.75179082       1.58874717       4.76764258       0.00000000      -0.00000000      -0.00000000
Bi      -0.00000000       3.17749435       9.53528515       0.00000000      -0.00000000      -0.00000000
F       -1.67513060       2.86966274       3.58397384      -0.00074625       0.00012579       0.00274615
F        4.42692142       1.89657878      10.71895389       0.00074625      -0.00012579      -0.00274615
F        1.10415529       1.88070450       3.58397384       0.00026419      -0.00070917       0.00274615
F        1.64763553       2.88553702      10.71895389      -0.00026419       0.00070917      -0.00274615
F        0.57097531       4.78211580       3.58397384       0.00048206       0.00058338       0.00274615
F        2.18081552      -0.01587428      10.71895389      -0.00048206      -0.00058338      -0.00274615
F        1.07666023       4.45840991       8.35161642      -0.00074625       0.00012579       0.00274615
F        1.67513060       3.48532595       1.18366874       0.00074625      -0.00012579      -0.00274615
F       -1.64763553       3.46945167       8.35161642       0.00026419      -0.00070917       0.00274615
F       -1.10415529       4.47428420       1.18366874      -0.00026419       0.00070917      -0.00274615
F        0.57097531       1.60462146       8.35161642       0.00048206       0.00058338       0.00274615
F       -0.57097531       1.57287289       1.18366874      -0.00048206      -0.00058338      -0.00274615
F        1.07666023       1.28091557      13.11925899      -0.00074625       0.00012579       0.00274615
F        1.67513060       0.30783161       5.95131131       0.00074625      -0.00012579      -0.00274615
F        3.85594612       0.29195732      13.11925899       0.00026419      -0.00070917       0.00274615
F        4.39942636       1.29678985       5.95131131      -0.00026419       0.00070917      -0.00274615
F        3.32276613       3.19336863      13.11925899       0.00048206       0.00058338       0.00274615
F        2.18081552       3.16162006       5.95131131      -0.00048206      -0.00058338      -0.00274615
24
Lattice="5.502716849036755 -7.632877038857665e-14 -2.5324281958176708e-14 -2.751358424518289 4.765492581098295 3.494711956669752e-14 -5.483798450747207e-14 6.658018543311958e-14 14.308687940915245" Properties=species:S:1:pos:R:3:forces:R:3 energy=-101.97204000646605 stress="2.97645878491122e-05 1.8061498421820236e-14 -9.781579173395367e-14 1.8061498421820236e-14 2.9764587955590395e-05 6.751417622824905e-15 -9.781579173395367e-14 6.751417622824905e-15 1.4084309587791649e-05" free_energy=-101.97204000646605 pbc="T T T"
Li      -0.00000000      -0.00000000       7.15434397       0.00000000       0.00000000      -0.00000000
Li       2.75135842       1.58849753      11.92390662       0.00000000       0.00000000       0.00000000
Li       0.00000000       3.17699505       2.38478132      -0.00000000       0.00000000       0.00000000
Bi      -0.00000000       0.00000000       0.00000000       0.00000000      -0.00000000      -0.00000000
Bi       2.75135842       1.58849753       4.76956265       0.00000000      -0.00000000      -0.00000000
Bi      -0.00000000       3.17699505       9.53912529       0.00000000      -0.00000000      -0.00000000
F       -1.67512920       2.87002895       3.58620375      -0.00021476      -0.00030080       0.00042796
F        4.42648762       1.89546363      10.72248420       0.00021476       0.00030080      -0.00042796
F        1.10340505       1.87977367       3.58620375       0.00036788      -0.00003559       0.00042796
F        1.64795338       2.88571891      10.72248420      -0.00036788       0.00003559      -0.00042796
F        0.57172415       4.78118255       3.58620375      -0.00015312       0.00033639       0.00042796
F        2.17963427      -0.01568997      10.72248420       0.00015312      -0.00033639      -0.00042796
F        1.07622922       4.45852647       8.35576639      -0.00021476      -0.00030080       0.00042796
F        1.67512920       3.48396116       1.18335890       0.00021476       0.00030080      -0.00042796
F       -1.64795338       3.46827119       8.35576639       0.00036788      -0.00003559       0.00042796
F       -1.10340505       4.47421644       1.18335890      -0.00036788       0.00003559      -0.00042796
F        0.57172415       1.60418750       8.35576639      -0.00015312       0.00033639       0.00042796
F       -0.57172415       1.57280756       1.18335890       0.00015312      -0.00033639      -0.00042796
F        1.07622922       1.28153142      13.12532904      -0.00021476      -0.00030080       0.00042796
F        1.67512920       0.30696611       5.95292155       0.00021476       0.00030080      -0.00042796
F        3.85476347       0.29127614      13.12532904       0.00036788      -0.00003559       0.00042796
F        4.39931180       1.29722139       5.95292155      -0.00036788       0.00003559      -0.00042796
F        3.32308258       3.19268502      13.12532904      -0.00015312       0.00033639       0.00042796
F        2.17963427       3.16130509       5.95292155       0.00015312      -0.00033639      -0.00042796
