80
Lattice="18.465671553223977 -0.015032812778588384 0.01503685399297698 9.252544268346288 14.867844755917895 0.40825709645198627 9.231544413707601 5.3389202325224066 15.011431036120126" Properties=species:S:1:pos:R:3:spacegroup_kinds:I:1:forces:R:3 spacegroup="P 1" unit_cell=conventional occupancy="_JSON {\"0\": {\"Cs\": 1.0}, \"1\": {\"Cs\": 1.0}, \"2\": {\"K\": 1.0}, \"3\": {\"In\": 1.0}, \"4\": {\"I\": 1.0}, \"5\": {\"I\": 1.0}, \"6\": {\"I\": 1.0}, \"7\": {\"I\": 1.0}, \"8\": {\"I\": 1.0}, \"9\": {\"I\": 1.0}, \"10\": {\"Cs\": 1.0}, \"11\": {\"Cs\": 1.0}, \"12\": {\"K\": 1.0}, \"13\": {\"In\": 1.0}, \"14\": {\"I\": 1.0}, \"15\": {\"I\": 1.0}, \"16\": {\"I\": 1.0}, \"17\": {\"I\": 1.0}, \"18\": {\"I\": 1.0}, \"19\": {\"I\": 1.0}, \"20\": {\"Cs\": 1.0}, \"21\": {\"Cs\": 1.0}, \"22\": {\"K\": 1.0}, \"23\": {\"In\": 1.0}, \"24\": {\"I\": 1.0}, \"25\": {\"I\": 1.0}, \"26\": {\"I\": 1.0}, \"27\": {\"I\": 1.0}, \"28\": {\"I\": 1.0}, \"29\": {\"I\": 1.0}, \"30\": {\"Cs\": 1.0}, \"31\": {\"Cs\": 1.0}, \"32\": {\"K\": 1.0}, \"33\": {\"In\": 1.0}, \"34\": {\"I\": 1.0}, \"35\": {\"I\": 1.0}, \"36\": {\"I\": 1.0}, \"37\": {\"I\": 1.0}, \"38\": {\"I\": 1.0}, \"39\": {\"I\": 1.0}, \"40\": {\"Cs\": 1.0}, \"41\": {\"Cs\": 1.0}, \"42\": {\"K\": 1.0}, \"43\": {\"In\": 1.0}, \"44\": {\"I\": 1.0}, \"45\": {\"I\": 1.0}, \"46\": {\"I\": 1.0}, \"47\": {\"I\": 1.0}, \"48\": {\"I\": 1.0}, \"49\": {\"I\": 1.0}, \"50\": {\"Cs\": 1.0}, \"51\": {\"Cs\": 1.0}, \"52\": {\"K\": 1.0}, \"53\": {\"In\": 1.0}, \"54\": {\"I\": 1.0}, \"55\": {\"I\": 1.0}, \"56\": {\"I\": 1.0}, \"57\": {\"I\": 1.0}, \"58\": {\"I\": 1.0}, \"59\": {\"I\": 1.0}, \"60\": {\"Cs\": 1.0}, \"61\": {\"Cs\": 1.0}, \"62\": {\"K\": 1.0}, \"63\": {\"In\": 1.0}, \"64\": {\"I\": 1.0}, \"65\": {\"I\": 1.0}, \"66\": {\"I\": 1.0}, \"67\": {\"I\": 1.0}, \"68\": {\"I\": 1.0}, \"69\": {\"I\": 1.0}, \"70\": {\"Cs\": 1.0}, \"71\": {\"Cs\": 1.0}, \"72\": {\"K\": 1.0}, \"73\": {\"In\": 1.0}, \"74\": {\"I\": 1.0}, \"75\": {\"I\": 1.0}, \"76\": {\"I\": 1.0}, \"77\": {\"I\": 1.0}, \"78\": {\"I\": 1.0}, \"79\": {\"I\": 1.0}}" energy=-205.19137964966936 free_energy=-205.19137964966936 stress="-9.536081510512277e-07 -3.894575266383693e-06 2.585843026945245e-07 -3.894575266383693e-06 -2.747603362809445e-06 2.2017532453313954e-07 2.585843026945245e-07 2.2017532453313954e-07 2.4956052550817145e-06" pbc="T T T"
Cs       4.62763057       2.70333303       1.86995409        0       0.00013094       0.00036515      -0.00006130
Cs      13.84624139       7.39105802       5.84757857        1       0.00030482       0.00022107      -0.00020065
K        9.23793098       5.04854800       3.85823574        2      -0.00021908      -0.00034995       0.00020491
In      18.46589195      -0.01478923       0.01510382        3       0.00000274      -0.00025815      -0.00005800
I        8.52999488       2.37035928       1.65736416        4       0.00008443       0.00007175      -0.00020782
I        9.94450280       7.72491092       6.06135832        5       0.00017616       0.00019266      -0.00042893
I       11.48413461       5.99435655       1.29356072        6       0.00007559       0.00006061       0.00063589
I        6.99056244       4.10165911       6.42254716        7       0.00017598      -0.00007912       0.00019324
I        6.29344791       6.39921859       2.43913187        8       0.00015473      -0.00046799       0.00001980
I       12.18205738       3.69775976       5.27813933        9      -0.00009800      -0.00014625       0.00013617
Cs       9.24339271       5.37283980       9.37574028       10       0.00022012       0.00029916      -0.00011298
Cs      18.46203978      10.06045320      13.35323890       11       0.00015644       0.00032102      -0.00014799
K       13.85368380       7.71803228      11.36396170       12      -0.00019680      -0.00040215       0.00019562
In      23.08167990       2.65460858       7.52084406       13      -0.00013562       0.00005550      -0.00008140
I       13.14568938       5.03981745       9.16313680       14       0.00015352       0.00011840      -0.00042488
I       14.56027775      10.39438055      13.56694514       15       0.00008357       0.00031853      -0.00017581
I       16.09986402       8.66383578       8.79954565       16       0.00019702       0.00018962       0.00012500
I       11.60633627       6.77115693      13.92806750       17       0.00001971      -0.00024960       0.00058788
I       10.90934467       9.06863423       9.94487633       18      -0.00011856      -0.00029326      -0.00002821
I       16.79777296       6.36739827      12.78393277       19       0.00005944      -0.00041920       0.00018216
Cs       9.25388602      10.13714192       2.07407958       20       0.00017248       0.00045215      -0.00003849
Cs      18.47243805      14.82498001       6.05172761       21       0.00039326       0.00025022      -0.00021611
K       13.86431908      12.48245233       4.06241831       22      -0.00042531      -0.00031148       0.00015303
In      23.09213600       7.41908018       0.21919494       23      -0.00004684       0.00003806       0.00003104
I       13.15625999       9.80431451       1.86151989       24       0.00011990       0.00002387      -0.00022772
I       14.57083718      15.15879453       6.26547844       25       0.00001648       0.00028355      -0.00033158
I       16.11042532      13.42826551       1.49786116       26       0.00013342       0.00011756       0.00029126
I       11.61685042      11.53562942       6.62666968       27       0.00016724      -0.00014151       0.00016115
I       10.91955773      13.83321044       2.64354800       28       0.00037454      -0.00055153      -0.00050360
I       16.80839972      11.13169956       5.48226692       29      -0.00023563      -0.00014916       0.00015288
Cs      13.86963775      12.80666414       9.57986534       30       0.00027716       0.00036807      -0.00003942
Cs      23.08819860      17.49436782      13.55731308       31       0.00026042       0.00032376      -0.00007177
K       18.47999462      15.15195604      11.56812439       32      -0.00025010      -0.00037273       0.00014065
In      27.70796201      10.08855321       7.72494910       33      -0.00021323       0.00009272      -0.00003501
I       17.77212760      12.47371249       9.36729195       34      -0.00004976       0.00015449      -0.00046793
I       19.18651008      17.82830803      13.77101621       35       0.00019332       0.00040519       0.00007519
I       20.72622739      16.09779902       9.00355247       36       0.00004991       0.00001722       0.00033616
I       16.23262421      14.20505014      14.13229901       37       0.00000864      -0.00014453       0.00035374
I       15.53565025      16.50249940      10.14899972       38      -0.00019401      -0.00024393      -0.00004775
I       21.42390640      13.80132645      12.98817919       39       0.00025632      -0.00040410       0.00001201
Cs      13.86043028       2.69582408       1.87751140       40       0.00030509       0.00034229      -0.00004299
Cs      23.07908283       7.38342895       5.85491852       41       0.00014119       0.00043068       0.00006265
K       18.47076483       5.04099459       3.86560401       42      -0.00016916      -0.00036131       0.00048226
In       9.23301622      -0.00723473       0.00761856       43      -0.00007364      -0.00018439      -0.00007452
I       17.76287782       2.36270600       1.66498205       44      -0.00003311       0.00042203      -0.00043579
I       19.17731985       7.71750758       6.06885988       45       0.00006578       0.00005753      -0.00039511
I       20.71702233       5.98694588       1.30141210       46      -0.00000116      -0.00014450       0.00006665
I       16.22353608       4.09403789       6.43011502       47      -0.00010299       0.00010009       0.00017672
I       15.52662236       6.39150916       2.44643571       48      -0.00055641      -0.00008883       0.00037952
I       21.41492256       3.69037468       5.28580309       49      -0.00013820      -0.00039802      -0.00009461
Cs      18.47618721       5.36527243       9.38316402       50       0.00023535       0.00040053       0.00001897
Cs      27.69486440      10.05298650      13.36072326       51       0.00018729       0.00035112       0.00004837
K       23.08649791       7.71046885      11.37134205       52      -0.00015707      -0.00033804       0.00041435
In      13.84880530       2.66228521       7.51332903       53       0.00000639      -0.00045225      -0.00007136
I       22.37855311       5.03225942       9.17052912       54       0.00013881       0.00028579      -0.00014889
I       23.79315128      10.38695233      13.57468644       55       0.00001637       0.00001849      -0.00071068
I       25.33284756       8.65637077       8.80697418       56      -0.00013432      -0.00013890       0.00036320
I       20.83926072       6.76356647      13.93588623       57       0.00003983       0.00009016       0.00004907
I       20.14209320       9.06112820       9.95234655       58      -0.00010623      -0.00034185       0.00006603
I       26.03085094       6.35963811      12.79137362       59      -0.00054526      -0.00002729       0.00003556
Cs      18.48671815      10.12972084       2.08167392       60       0.00029177       0.00034856      -0.00009008
Cs      27.70536796      14.81724818       6.05893513       61       0.00012551       0.00052212       0.00028129
K       23.09702828      12.47493435       4.06978224       62      -0.00015036      -0.00035578       0.00038946
In      13.85928989       7.42671683       0.21175835       63      -0.00004752      -0.00014189      -0.00022856
I       22.38903391       9.79665102       1.86902441       64       0.00014995       0.00029933      -0.00030366
I       23.80372262      15.15140444       6.27302734       65      -0.00000955       0.00018532      -0.00035679
I       25.34339725      13.42083608       1.50556151       66      -0.00015867      -0.00013402       0.00003534
I       20.84985191      11.52799631       6.63415271       67      -0.00028920      -0.00009440       0.00029796
I       20.15286159      13.82537306       2.65064561       68      -0.00059047       0.00001133       0.00018674
I       26.04115050      11.12426820       5.48995563       69      -0.00011353      -0.00036413      -0.00014486
Cs      23.10242509      12.79915168       9.58727349       70       0.00026060       0.00045244       0.00004714
Cs      32.32106716      17.48683821      13.56486858       71       0.00033034       0.00039965       0.00005446
K       27.71288762      15.14437076      11.57549316       72      -0.00032597      -0.00029508       0.00040971
In      18.47501297      10.09617313       7.71741041       73       0.00015328      -0.00024353       0.00003359
I       27.00492133      12.46619187       9.37467096       74       0.00000985       0.00024341      -0.00017195
I       28.41947952      17.82091436      13.77880758       75      -0.00006193      -0.00005196      -0.00066981
I       29.95913672      16.09035081       9.01119161       76      -0.00014082      -0.00022568       0.00018546
I       25.46560023      14.19742911      14.14002373       77      -0.00011831       0.00010671       0.00000501
I       24.76844502      16.49499272      10.15654925       78      -0.00026791      -0.00020225      -0.00001733
I       30.65703374      13.79371041      12.99564593       79      -0.00040096      -0.00023915      -0.00021293
