40
Lattice="18.59419138239233 -0.004534739177869326 -0.019415879027916978 -9.29444360490847 16.01724025329361 -1.7309053629232618 0.004183333397176981 0.9541022119242036 8.777069432449727" Properties=species:S:1:pos:R:3:spacegroup_kinds:I:1:forces:R:3 spacegroup="P 1" unit_cell=conventional occupancy="_JSON {\"0\": {\"Cs\": 1.0}, \"1\": {\"Cs\": 1.0}, \"2\": {\"K\": 1.0}, \"3\": {\"In\": 1.0}, \"4\": {\"I\": 1.0}, \"5\": {\"I\": 1.0}, \"6\": {\"I\": 1.0}, \"7\": {\"I\": 1.0}, \"8\": {\"I\": 1.0}, \"9\": {\"I\": 1.0}, \"10\": {\"Cs\": 1.0}, \"11\": {\"Cs\": 1.0}, \"12\": {\"K\": 1.0}, \"13\": {\"In\": 1.0}, \"14\": {\"I\": 1.0}, \"15\": {\"I\": 1.0}, \"16\": {\"I\": 1.0}, \"17\": {\"I\": 1.0}, \"18\": {\"I\": 1.0}, \"19\": {\"I\": 1.0}, \"20\": {\"Cs\": 1.0}, \"21\": {\"Cs\": 1.0}, \"22\": {\"K\": 1.0}, \"23\": {\"In\": 1.0}, \"24\": {\"I\": 1.0}, \"25\": {\"I\": 1.0}, \"26\": {\"I\": 1.0}, \"27\": {\"I\": 1.0}, \"28\": {\"I\": 1.0}, \"29\": {\"I\": 1.0}, \"30\": {\"Cs\": 1.0}, \"31\": {\"Cs\": 1.0}, \"32\": {\"K\": 1.0}, \"33\": {\"In\": 1.0}, \"34\": {\"I\": 1.0}, \"35\": {\"I\": 1.0}, \"36\": {\"I\": 1.0}, \"37\": {\"I\": 1.0}, \"38\": {\"I\": 1.0}, \"39\": {\"I\": 1.0}}" energy=-103.17526000298112 free_energy=-103.17526000298112 stress="-2.7090932077617537e-06 -1.2656126294394337e-06 -6.256344016387532e-06 -1.2656126294394337e-06 2.18415920260677e-06 -3.420850713909144e-07 -6.256344016387532e-06 -3.420850713909144e-07 7.837886819828884e-07" pbc="T T T"
Cs       0.79384857       6.28927056       8.17976458        0      -0.00034065       0.00036036      -0.00006860
Cs       5.44169632       3.62463817       8.49802066        1      -0.00004590      -0.00018240      -0.00017445
K       -8.50381940      16.49483868       2.65673785        2       0.00004620      -0.00043830       0.00007065
In      -8.50600838      16.01693431      -1.73176419        3       0.00012469       0.00001710      -0.00044961
I        2.00000723       2.29472797       1.52552806        4       0.00002386       0.00023416      -0.00001633
I        4.23123818       6.66524334       6.37451112        5      -0.00020739      -0.00020642      -0.00005330
I       -6.06467425      16.79011427       5.28652987        6      -0.00024898       0.00023647      -0.00000807
I        7.64861531       0.17831255       1.74835958        7       0.00010057       0.00007510      -0.00005250
I       -2.62970223       6.10515897       1.11652993        8       0.00026229      -0.00000195       0.00000917
I       -0.43681415       2.85718356       6.79328723        9       0.00032254      -0.00001761       0.00052554
Cs      -3.85337574      14.29788821       7.31431252       10      -0.00031687       0.00038390      -0.00006911
Cs       0.79447267      11.63325645       7.63256763       11      -0.00002842      -0.00016365      -0.00016979
K       -3.85659810       8.48621992       3.52220287       12       0.00005080      -0.00046879      -0.00000733
In      -3.85879063       8.00833992      -0.86638559       13       0.00016174      -0.00013232      -0.00002873
I       -2.64721280      10.30334974       0.66007892       14       0.00000692       0.00021290      -0.00004053
I       -0.41598190      14.67386506       5.50906114       15      -0.00022329      -0.00022514      -0.00007148
I       -1.41745800       8.78149271       6.15199182       16      -0.00019589       0.00023769      -0.00006346
I        3.00139720       8.18693334       0.88290076       17       0.00006558       0.00007697      -0.00001562
I       -7.27693052      14.11379259       0.25105414       18       0.00032340      -0.00010196       0.00013207
I       -5.08402954      10.86579033       5.92785740       19       0.00026176       0.00008186       0.00040335
Cs      10.09094287       6.28700217       8.17005153       20      -0.00032755       0.00037743      -0.00003601
Cs      14.73878906       3.62236750       8.48831810       21      -0.00001782      -0.00015724      -0.00020287
K        0.79327618      16.49257359       2.64705752       22       0.00004661      -0.00049893      -0.00010123
In       0.79108463      16.01471969      -1.74163426       23       0.00014598      -0.00027653       0.00046967
I       11.29710676       2.29246439       1.51582824       24      -0.00001183       0.00018695      -0.00007072
I       13.52833352       6.66297541       6.36480126       25      -0.00020453      -0.00019922      -0.00004128
I        3.23240648      16.78784350       5.27684401       26      -0.00010704       0.00023936      -0.00013912
I       16.94572587       0.17604855       1.73862973       27      -0.00004136       0.00007226       0.00007850
I        6.66739486       6.10288665       1.10683205       28       0.00024984       0.00003170      -0.00004439
I        8.86029363       2.85488920       6.78362731       29       0.00020846       0.00018028       0.00026840
Cs       5.44372291      14.29562414       7.30459918       30      -0.00034502       0.00035870      -0.00004061
Cs      10.09156977      11.63099011       7.62286482       31      -0.00004160      -0.00018081      -0.00020244
K        5.44049839       8.48395276       3.51250146       32       0.00004286      -0.00047981      -0.00004696
In       5.43830969       8.00608340      -0.87613092       33       0.00011577      -0.00018682       0.00018227
I        6.64988324      10.30108292       0.65037289       34       0.00000407       0.00020568      -0.00005258
I        8.88110993      14.67159389       5.49934499       35      -0.00018759      -0.00017797      -0.00001701
I        7.87963200       8.77922405       6.14229049       36      -0.00014204       0.00024123      -0.00010221
I       12.29849856       8.18466726       0.87318624       37       0.00001174       0.00007347       0.00002314
I        2.02017743      14.11149791       0.24139479       38       0.00020860       0.00009710      -0.00012655
I        4.21306750      10.86351810       5.91815938       39       0.00024951       0.00011519       0.00035014
