10
Lattice="9.08484031089129 1.9874711476394806 0.0800992691663947 -6.26526897764279 6.86929015898704 0.15349591619886865 -0.029320385606385363 -0.22321706913653142 8.826294129205015" Properties=species:S:1:pos:R:3:spacegroup_kinds:I:1:forces:R:3 spacegroup="P 1" unit_cell=conventional occupancy="_JSON {\"0\": {\"Cs\": 1.0}, \"1\": {\"Cs\": 1.0}, \"2\": {\"K\": 1.0}, \"3\": {\"In\": 1.0}, \"4\": {\"I\": 1.0}, \"5\": {\"I\": 1.0}, \"6\": {\"I\": 1.0}, \"7\": {\"I\": 1.0}, \"8\": {\"I\": 1.0}, \"9\": {\"I\": 1.0}}" energy=-25.793816322023527 free_energy=-25.793816322023527 stress="4.929677375548938e-07 1.1808060725144103e-06 -7.790182205999729e-07 1.1808060725144103e-06 -3.6680829148887202e-06 -1.5969375552886363e-06 -7.790182205999729e-07 -1.5969375552886363e-06 3.0953412837581764e-06" pbc="T T T"
Cs       4.19813689       3.45035485       8.92037871        0      -0.00036259       0.00012149      -0.00005521
Cs      -0.89042414       5.30097070       0.14401574        1       0.00012071      -0.00022484       0.00017049
K        0.24362702      -0.05308300       4.41513605        2       0.00023037       0.00025810       0.00054192
In       0.25854544       0.05873538       0.00237526        3       0.00075479      -0.00008631       0.00020808
I        6.95418066       1.48832349       1.82754210        4      -0.00020095       0.00009540       0.00010737
I       -3.64687122       7.26247868       7.23702993        5       0.00027797       0.00007563      -0.00016169
I        1.00008834       2.33428598       1.82908435        6      -0.00012322      -0.00016316       0.00038135
I        2.30740162       6.41684536       7.23536817        7       0.00012795       0.00010334      -0.00002484
I       -4.37572400       5.07660910       1.88177164        8      -0.00021996       0.00001585      -0.00068232
I       -1.40104587       1.68732195       7.10326336        9      -0.00060507      -0.00019549      -0.00048515
