80
Lattice="18.10551622361111 0.0 0.0 4.762850792924766 16.04773331957089 0.0 11.301089174576184 13.298584539072438 9.348850785716131" Properties=species:S:1:pos:R:3 pbc="T T T"
Cs       4.27106374       3.66825394       1.16862958
Cs      12.81366416      11.00490404       3.50579519
K        8.54236391       7.33657891       2.33721228
In       0.00000021       0.00000065       0.00000027
I        8.16067701       5.31965906       1.75253289
I        8.92405078       9.35349825       2.92189170
I       11.56647569       4.24126119       1.99586037
I        5.51825032      10.43189629       2.67856372
I        5.66483121       6.88700841       0.17662221
I       11.41989718       7.78615251       4.49780433
Cs       9.92160833      10.31754621       5.84305497
Cs      18.46420874      17.65419631       8.18022059
K       14.19290850      13.98587118       7.01163767
In       5.65054480       6.64929292       4.67442567
I       13.81122160      11.96895133       6.42695828
I       14.57459537      16.00279052       7.59631710
I       17.21702027      10.89055346       6.67028577
I       11.16879490      17.08118856       7.35298911
I       11.31537579      13.53630068       4.85104760
I       17.07044177      14.43544478       9.17222972
Cs       6.65248913      11.69212060       1.16862958
Cs      15.19508955      19.02877070       3.50579519
K       10.92378931      15.36044557       2.33721228
In       2.38142561       8.02386731       0.00000027
I       10.54210241      13.34352572       1.75253289
I       11.30547618      17.37736491       2.92189170
I       13.94790108      12.26512785       1.99586037
I        7.89967571      18.45576295       2.67856372
I        8.04625660      14.91087507       0.17662221
I       13.80132258      15.81001917       4.49780433
Cs      12.30303372      18.34141287       5.84305497
Cs      20.84563414      25.67806297       8.18022059
K       16.57433390      22.00973784       7.01163767
In       8.03197019      14.67315958       4.67442567
I       16.19264700      19.99281799       6.42695828
I       16.95602076      24.02665718       7.59631710
I       19.59844567      18.91442012       6.67028577
I       13.55022030      25.10505522       7.35298911
I       13.69680119      21.56016734       4.85104760
I       19.45186716      22.45931144       9.17222972
Cs      13.32382185       3.66825394       1.16862958
Cs      21.86642227      11.00490404       3.50579519
K       17.59512202       7.33657891       2.33721228
In       9.05275832       0.00000065       0.00000027
I       17.21343512       5.31965906       1.75253289
I       17.97680889       9.35349825       2.92189170
I       20.61923380       4.24126119       1.99586037
I       14.57100843      10.43189629       2.67856372
I       14.71758932       6.88700841       0.17662221
I       20.47265529       7.78615251       4.49780433
Cs      18.97436644      10.31754621       5.84305497
Cs      27.51696686      17.65419631       8.18022059
K       23.24566661      13.98587118       7.01163767
In      14.70330291       6.64929292       4.67442567
I       22.86397971      11.96895133       6.42695828
I       23.62735348      16.00279052       7.59631710
I       26.26977838      10.89055346       6.67028577
I       20.22155301      17.08118856       7.35298911
I       20.36813391      13.53630068       4.85104760
I       26.12319988      14.43544478       9.17222972
Cs      15.70524725      11.69212060       1.16862958
Cs      24.24784766      19.02877070       3.50579519
K       19.97654742      15.36044557       2.33721228
In      11.43418372       8.02386731       0.00000027
I       19.59486052      13.34352572       1.75253289
I       20.35823429      17.37736491       2.92189170
I       23.00065919      12.26512785       1.99586037
I       16.95243382      18.45576295       2.67856372
I       17.09901471      14.91087507       0.17662221
I       22.85408069      15.81001917       4.49780433
Cs      21.35579183      18.34141287       5.84305497
Cs      29.89839225      25.67806297       8.18022059
K       25.62709201      22.00973784       7.01163767
In      17.08472831      14.67315958       4.67442567
I       25.24540511      19.99281799       6.42695828
I       26.00877887      24.02665718       7.59631710
I       28.65120378      18.91442012       6.67028577
I       22.60297841      25.10505522       7.35298911
I       22.74955930      21.56016734       4.85104760
I       28.50462528      22.45931144       9.17222972
