80
Lattice="23.17870620356806 6.893738290247213 4.313728029074848 13.145265288623367 20.678045402077142 1.7718331268557586 23.607092136681597 20.040764191270082 15.456341340337556" Properties=species:S:1:pos:R:3:spacegroup_kinds:I:1:forces:R:3 spacegroup="P 1" unit_cell=conventional occupancy="_JSON {\"0\": {\"Cs\": 1.0}, \"1\": {\"Cs\": 1.0}, \"2\": {\"K\": 1.0}, \"3\": {\"In\": 1.0}, \"4\": {\"I\": 1.0}, \"5\": {\"I\": 1.0}, \"6\": {\"I\": 1.0}, \"7\": {\"I\": 1.0}, \"8\": {\"I\": 1.0}, \"9\": {\"I\": 1.0}, \"10\": {\"Cs\": 1.0}, \"11\": {\"Cs\": 1.0}, \"12\": {\"K\": 1.0}, \"13\": {\"In\": 1.0}, \"14\": {\"I\": 1.0}, \"15\": {\"I\": 1.0}, \"16\": {\"I\": 1.0}, \"17\": {\"I\": 1.0}, \"18\": {\"I\": 1.0}, \"19\": {\"I\": 1.0}, \"20\": {\"Cs\": 1.0}, \"21\": {\"Cs\": 1.0}, \"22\": {\"K\": 1.0}, \"23\": {\"In\": 1.0}, \"24\": {\"I\": 1.0}, \"25\": {\"I\": 1.0}, \"26\": {\"I\": 1.0}, \"27\": {\"I\": 1.0}, \"28\": {\"I\": 1.0}, \"29\": {\"I\": 1.0}, \"30\": {\"Cs\": 1.0}, \"31\": {\"Cs\": 1.0}, \"32\": {\"K\": 1.0}, \"33\": {\"In\": 1.0}, \"34\": {\"I\": 1.0}, \"35\": {\"I\": 1.0}, \"36\": {\"I\": 1.0}, \"37\": {\"I\": 1.0}, \"38\": {\"I\": 1.0}, \"39\": {\"I\": 1.0}, \"40\": {\"Cs\": 1.0}, \"41\": {\"Cs\": 1.0}, \"42\": {\"K\": 1.0}, \"43\": {\"In\": 1.0}, \"44\": {\"I\": 1.0}, \"45\": {\"I\": 1.0}, \"46\": {\"I\": 1.0}, \"47\": {\"I\": 1.0}, \"48\": {\"I\": 1.0}, \"49\": {\"I\": 1.0}, \"50\": {\"Cs\": 1.0}, \"51\": {\"Cs\": 1.0}, \"52\": {\"K\": 1.0}, \"53\": {\"In\": 1.0}, \"54\": {\"I\": 1.0}, \"55\": {\"I\": 1.0}, \"56\": {\"I\": 1.0}, \"57\": {\"I\": 1.0}, \"58\": {\"I\": 1.0}, \"59\": {\"I\": 1.0}, \"60\": {\"Cs\": 1.0}, \"61\": {\"Cs\": 1.0}, \"62\": {\"K\": 1.0}, \"63\": {\"In\": 1.0}, \"64\": {\"I\": 1.0}, \"65\": {\"I\": 1.0}, \"66\": {\"I\": 1.0}, \"67\": {\"I\": 1.0}, \"68\": {\"I\": 1.0}, \"69\": {\"I\": 1.0}, \"70\": {\"Cs\": 1.0}, \"71\": {\"Cs\": 1.0}, \"72\": {\"K\": 1.0}, \"73\": {\"In\": 1.0}, \"74\": {\"I\": 1.0}, \"75\": {\"I\": 1.0}, \"76\": {\"I\": 1.0}, \"77\": {\"I\": 1.0}, \"78\": {\"I\": 1.0}, \"79\": {\"I\": 1.0}}" energy=-206.2062502170844 free_energy=-206.2062502170844 stress="-2.045185010307247e-06 -1.0439082510672265e-06 1.8103013116149278e-06 -1.0439082510672265e-06 4.471011610807482e-06 -1.556598763399845e-07 1.8103013116149278e-06 -1.556598763399845e-07 -8.023799310869654e-07" pbc="T T T"
Cs       9.09163072       7.40456492       4.25142136        0       0.00011869      -0.00007626      -0.00001948
Cs      20.87353848      16.40167546       6.51946886        1       0.00017414       0.00015063      -0.00003206
K       14.98267123      11.90318710       5.38524857        2       0.00000110      -0.00005453       0.00022555
In      23.17877395       6.89379191       4.31376412        3       0.00020664      -0.00007750       0.00010264
I       12.36796216       9.52061650       4.83556218        4       0.00004998      -0.00008919      -0.00008154
I       17.59769752      14.28550202       5.93558377        5      -0.00025471       0.00014905      -0.00020729
I       17.85309114      10.85151866       3.52242085        6      -0.00012220      -0.00002927      -0.00004471
I       12.11248931      12.95483767       7.24868140        7       0.00008037      -0.00013564       0.00000757
I        9.50135490      10.15624515       1.45607308        8      -0.00004527       0.00000542       0.00009544
I       20.46438520      13.65003471       9.31477567        9      -0.00019084       0.00010511      -0.00001862
Cs      20.89517203      17.42494241      11.97959072       10       0.00012712      -0.00006659      -0.00002194
Cs      32.67709289      26.42206400      14.24764322       11       0.00015945       0.00013607      -0.00003796
K       26.78621720      21.92357015      13.11341824       12       0.00000398      -0.00006084       0.00022745
In      34.98231919      16.91416697      12.04194045       13       0.00019203      -0.00002489       0.00007890
I       24.17152096      19.54100896      12.56374104       14       0.00003388      -0.00011378      -0.00010248
I       29.40122501      24.30587024      13.66374204       15      -0.00022248       0.00018109      -0.00017848
I       29.65663719      20.87190046      11.25059470       16      -0.00011232      -0.00001741      -0.00005879
I       23.91602729      22.97521008      14.97684889       17       0.00008851      -0.00009159       0.00001126
I       21.30491350      20.17663280       9.18424901       18      -0.00008213       0.00000969       0.00009729
I       32.26792652      23.67041410      17.04294726       19      -0.00019026       0.00010405      -0.00003749
Cs      15.66425900      17.74358302       5.13733679       20       0.00012589      -0.00006635      -0.00002321
Cs      27.44617962      26.74070471       7.40538905       21       0.00015919       0.00013652      -0.00003731
K       21.55530445      22.24221108       6.27116502       22       0.00000308      -0.00006044       0.00022559
In      29.75140615      17.23280756       5.19968555       23       0.00018663      -0.00002123       0.00008256
I       18.94060530      19.85964783       5.72148539       24       0.00003685      -0.00010959      -0.00009901
I       24.17031334      24.62451162       6.82149056       25      -0.00022519       0.00017873      -0.00018745
I       24.42572529      21.19054264       4.40834069       26      -0.00011587      -0.00002241      -0.00005742
I       18.68511483      23.29385163       8.13459542       27       0.00008788      -0.00009358       0.00001040
I       16.07400374      20.49527498       2.34199736       28      -0.00009329       0.00001001       0.00009414
I       27.03701359      23.98905492      10.20069399       29      -0.00019221       0.00010350      -0.00004087
Cs      27.46781047      27.76397021      12.86550914       30       0.00011625      -0.00007714      -0.00002103
Cs      39.24971762      36.76108051      15.13355621       31       0.00017357       0.00015072      -0.00003165
K       33.35884982      32.26259194      13.99933578       32       0.00000234      -0.00005387       0.00022565
In      41.55495289      27.25319654      12.92785110       33       0.00020297      -0.00007436       0.00010402
I       30.74413867      29.88001949      13.44964837       34       0.00005372      -0.00008503      -0.00007922
I       35.97387873      34.64490810      14.54967459       35      -0.00025819       0.00014510      -0.00021978
I       36.22927068      31.21092429      12.13650791       36      -0.00012544      -0.00003269      -0.00004291
I       30.48866913      33.31424354      15.86276916       37       0.00007837      -0.00013984       0.00000717
I       27.87753410      30.51565029      10.07016041       38      -0.00004678       0.00000504       0.00009658
I       38.84056371      34.00943963      17.92886312       39      -0.00019095       0.00010381      -0.00002128
Cs      20.68098614      10.85143560       6.40828642       40       0.00011376      -0.00007868      -0.00002136
Cs      32.46289176      19.84854465       8.67633283       41       0.00017427       0.00015099      -0.00003161
K       26.57202615      15.35005746       7.54211398       42      -0.00000283      -0.00005631       0.00022318
In      11.58942144       3.44692303       2.15689854       43       0.00020102      -0.00007582       0.00010957
I       23.95730986      12.96748088       6.99242383       44       0.00005943      -0.00007838      -0.00007794
I       29.18705244      17.73237225       8.09245018       45      -0.00025776       0.00014629      -0.00021505
I       29.44244464      14.29838824       5.67928474       46      -0.00012434      -0.00003085      -0.00004374
I       23.70184454      16.40170893       9.40554671       47       0.00007872      -0.00014215       0.00000516
I       21.09070824      13.60311418       3.61293776       48      -0.00004677       0.00000643       0.00009396
I       32.05373801      17.09690434      11.47163969       49      -0.00019092       0.00010208      -0.00002076
Cs      32.48452663      20.87181244      14.13645549       50       0.00012351      -0.00006748      -0.00002376
Cs      44.26644598      29.86893314      16.40450700       51       0.00015982       0.00013638      -0.00003695
K       38.37557102      25.37043988      15.27028272       52       0.00000239      -0.00006173       0.00022677
In      23.39296683      13.46729806       9.88507425       53       0.00018339      -0.00002135       0.00008889
I       35.76086986      22.98787458      14.72060309       54       0.00004120      -0.00010617      -0.00009928
I       40.99058053      27.75274115      15.82060864       55      -0.00022636       0.00017699      -0.00018572
I       41.24599072      24.31877010      13.40745844       56      -0.00011517      -0.00002056      -0.00005702
I       35.50538127      26.42208005      17.13371370       57       0.00008839      -0.00009408       0.00000969
I       32.89426976      23.62350307      11.34111542       58      -0.00009224       0.00001061       0.00009312
I       43.85727861      27.11728296      19.19981103       59      -0.00018756       0.00010258      -0.00003884
Cs      27.25361221      21.19045261       7.29420077       60       0.00012580      -0.00006668      -0.00002190
Cs      39.03553229      30.18757361       9.56225286       61       0.00016037       0.00013615      -0.00003768
K       33.14465738      25.68908014       8.42802859       62       0.00000240      -0.00006131       0.00022654
In      18.16205300      13.78593872       3.04282116       63       0.00018995      -0.00002585       0.00008375
I       30.52995897      23.30651730       7.87835011       64       0.00003705      -0.00011085      -0.00010079
I       35.75966494      28.07138049       8.97835186       65      -0.00022360       0.00018056      -0.00017769
I       36.01507714      24.63741052       6.56520473       66      -0.00011291      -0.00001825      -0.00005865
I       30.27446722      26.74072007      10.29145903       67       0.00008924      -0.00009162       0.00001073
I       27.66335390      23.94214225       4.49886026       68      -0.00008457       0.00001176       0.00009344
I       38.62636705      27.43592428      12.35755782       69      -0.00019263       0.00010337      -0.00003862
Cs      39.05716388      31.21083988      15.02237320       70       0.00011587      -0.00007762      -0.00001979
Cs      50.83907030      40.20794934      17.29042010       71       0.00017453       0.00015042      -0.00003219
K       44.94820344      35.70946132      16.15620005       72      -0.00000012      -0.00005528       0.00022532
In      29.96559978      23.80632795      10.77098665       73       0.00020704      -0.00008029       0.00010526
I       42.33349189      33.32688838      15.60651287       74       0.00005421      -0.00008490      -0.00008173
I       47.56323002      38.09177674      16.70653507       75      -0.00025618       0.00014777      -0.00020628
I       47.81862257      34.65779222      14.29337197       76      -0.00012237      -0.00002851      -0.00004454
I       42.07802180      36.76111231      18.01963308       77       0.00008024      -0.00013798       0.00000657
I       39.46688358      33.96251736      12.22702302       78      -0.00003648       0.00000676       0.00009566
I       50.42991472      37.45630815      20.08572518       79      -0.00018428       0.00010301      -0.00001600
