20
Lattice="12.774387828929298 9.066376676408e-12 1.7098117366782173e-15 9.066376667651318e-12 12.774387828929534 2.1320383825295383e-17 8.54717064196917e-16 1.0484975400847624e-17 6.38719391442505" Properties=species:S:1:pos:R:3:spacegroup_kinds:I:1:forces:R:3 spacegroup="P 1" unit_cell=conventional occupancy="_JSON {\"0\": {\"Cs\": 1.0}, \"1\": {\"Pb\": 1.0}, \"2\": {\"I\": 1.0}, \"3\": {\"I\": 1.0}, \"4\": {\"I\": 1.0}, \"5\": {\"Cs\": 1.0}, \"6\": {\"Pb\": 1.0}, \"7\": {\"I\": 1.0}, \"8\": {\"I\": 1.0}, \"9\": {\"I\": 1.0}, \"10\": {\"Cs\": 1.0}, \"11\": {\"Pb\": 1.0}, \"12\": {\"I\": 1.0}, \"13\": {\"I\": 1.0}, \"14\": {\"I\": 1.0}, \"15\": {\"Cs\": 1.0}, \"16\": {\"Pb\": 1.0}, \"17\": {\"I\": 1.0}, \"18\": {\"I\": 1.0}, \"19\": {\"I\": 1.0}}" energy=-55.922969515953234 free_energy=-55.922969515953234 stress="6.085899596565393e-06 -7.304599409203018e-13 5.218959278738937e-18 -7.304599409203018e-13 6.0858995994886164e-06 2.864551807950499e-18 5.218959278738937e-18 2.864551807950499e-18 6.085903086619768e-06" pbc="T T T"
Cs       3.19363669       3.19355722       3.19359696        0       0.00000259      -0.00000259      -0.00000000
Pb       0.00000017      -0.00000017      -0.00000000        1       0.00000600      -0.00000600      -0.00000000
I       -0.00000625       0.00000625       3.19359696        2      -0.00000038       0.00000038       0.00000000
I        3.19360146       0.00000625       0.00000000        3      -0.00000783       0.00000038      -0.00000000
I       -0.00000625       3.19359245       0.00000000        4      -0.00000038       0.00000783      -0.00000000
Cs       3.19363669       9.58075114       3.19359696        5       0.00000259      -0.00000259      -0.00000000
Pb       0.00000017       6.38719374       0.00000000        6       0.00000600      -0.00000600      -0.00000000
I       -0.00000625       6.38720016       3.19359696        7      -0.00000038       0.00000038       0.00000000
I        3.19360146       6.38720016       0.00000000        8      -0.00000783       0.00000038      -0.00000000
I       -0.00000625       9.58078637       0.00000000        9      -0.00000038       0.00000783      -0.00000000
Cs       9.58083061       3.19355722       3.19359696       10       0.00000259      -0.00000259      -0.00000000
Pb       6.38719409      -0.00000017       0.00000000       11       0.00000600      -0.00000600      -0.00000000
I        6.38718766       0.00000625       3.19359696       12      -0.00000038       0.00000038       0.00000000
I        9.58079538       0.00000625       0.00000000       13      -0.00000783       0.00000038      -0.00000000
I        6.38718766       3.19359245       0.00000000       14      -0.00000038       0.00000783      -0.00000000
Cs       9.58083061       9.58075114       3.19359696       15       0.00000259      -0.00000259      -0.00000000
Pb       6.38719409       6.38719374      -0.00000000       16       0.00000600      -0.00000600      -0.00000000
I        6.38718766       6.38720016       3.19359696       17      -0.00000038       0.00000038       0.00000000
I        9.58079538       6.38720016       0.00000000       18      -0.00000783       0.00000038      -0.00000000
I        6.38718766       9.58078637       0.00000000       19      -0.00000038       0.00000783      -0.00000000
