10
Lattice="8.04097441663187 0.0 0.0 3.4834829865069166 8.619225458059407 0.0 5.057900712094112 2.0442379397633954 8.12037113551452" Properties=species:S:1:pos:R:3 pbc="T T T"
Cs       4.14549888       2.66583878       2.03010156
Cs      12.43685903       7.99762391       6.09026912
K        8.29117895       5.33173130       4.06018532
In       0.00000016       0.00000056       0.00000023
I        7.45808338       2.30316001       4.72770225
I        9.12427455       8.36030215       3.39266838
I       10.06195274       3.53203734       2.12637435
I        6.52040405       7.13142482       5.99399608
I        5.82875640       6.87627337       1.64784528
I       10.75360215       3.78719120       6.47252650
