10
Lattice="9.190826167537628 0.41361974343208474 -0.6136221592142804 4.3282891649669235 8.161886006020737 0.1662017758605245 5.039279837124524 2.4816433233232025 6.760095865791721" Properties=species:S:1:pos:R:3:spacegroup_kinds:I:1:forces:R:3 spacegroup="P 1" unit_cell=conventional occupancy="_JSON {\"0\": {\"Cs\": 1.0}, \"1\": {\"Cs\": 1.0}, \"2\": {\"K\": 1.0}, \"3\": {\"In\": 1.0}, \"4\": {\"I\": 1.0}, \"5\": {\"I\": 1.0}, \"6\": {\"I\": 1.0}, \"7\": {\"I\": 1.0}, \"8\": {\"I\": 1.0}, \"9\": {\"I\": 1.0}}" energy=-25.648944762185522 free_energy=-25.648944762185522 stress="-9.950469787290215e-07 -1.0064061601056033e-06 -9.804206244566336e-07 -1.0064061601056033e-06 1.6779723111736196e-06 -4.258994240764998e-07 -9.804206244566336e-07 -4.258994240764998e-07 -6.012007119280436e-07" pbc="T T T"
Cs       4.65748025       2.77295723       1.76884077        0      -0.00025728      -0.00067157      -0.00055762
Cs      13.90131928       8.28605006       4.54621789        1       0.00003839      -0.00054165      -0.00052429
K        9.27891846       5.52809215       3.15567915        2       0.00025851       0.00024659       0.00042038
In       9.19054429       0.41343477      -0.61392293        3       0.00008397       0.00001832       0.00020826
I        7.23100774       3.22937543       4.89652865        4       0.00009564       0.00030553       0.00019533
I       11.32683691       7.82740380       1.41532145        5      -0.00003935       0.00030477       0.00000342
I        9.95286048       2.68102269       1.16336178        6       0.00007885       0.00030441      -0.00026767
I        8.60569329       8.37481808       5.14967069        7      -0.00015074       0.00035356      -0.00014918
I        6.20531400       6.36953124       1.62359835        8      -0.00006640      -0.00006893       0.00027951
I       12.35362835       4.68810330       4.68812079        9      -0.00004159      -0.00025103       0.00039184
