40
Lattice="17.18522530656834 0.0 0.0 9.893178338246424 13.413322003225131 0.0 2.9472120614133552 3.0642670249722133 6.7554314643979065" Properties=species:S:1:pos:R:3 pbc="T T T"
Cs       4.12146891       2.44269153       1.68888175
Cs      12.36494474       7.32823542       5.06654901
K        8.24320674       4.88546333       3.37771528
In       0.00000023       0.00000073       0.00000032
I        6.73968632       2.02849984       3.06364069
I        9.74672716       7.74242624       3.69178989
I       11.50901279       3.33868479       2.47549884
I        4.97739871       6.43224146       4.27993123
I        6.89687584       5.04635830       0.66421397
I        9.58953838       4.72457179       6.09121873
Cs       9.06805808       9.14935254       1.68888175
Cs      17.31153390      14.03489642       5.06654901
K       13.18979591      11.59212434       3.37771528
In       4.94658940       6.70666174       0.00000032
I       11.68627549       8.73516084       3.06364069
I       14.69331633      14.44908724       3.69178989
I       16.45560196      10.04534579       2.47549884
I        9.92398788      13.13890247       4.27993123
I       11.84346501      11.75301930       0.66421397
I       14.53612755      11.43123280       6.09121873
Cs      12.71408157       2.44269153       1.68888175
Cs      20.95755739       7.32823542       5.06654901
K       16.83581939       4.88546333       3.37771528
In       8.59261289       0.00000073       0.00000032
I       15.33229897       2.02849984       3.06364069
I       18.33933982       7.74242624       3.69178989
I       20.10162544       3.33868479       2.47549884
I       13.57001137       6.43224146       4.27993123
I       15.48948849       5.04635830       0.66421397
I       18.18215104       4.72457179       6.09121873
Cs      17.66067073       9.14935254       1.68888175
Cs      25.90414656      14.03489642       5.06654901
K       21.78240856      11.59212434       3.37771528
In      13.53920206       6.70666174       0.00000032
I       20.27888814       8.73516084       3.06364069
I       23.28592899      14.44908724       3.69178989
I       25.04821461      10.04534579       2.47549884
I       18.51660054      13.13890247       4.27993123
I       20.43607766      11.75301930       0.66421397
I       23.12874021      11.43123280       6.09121873
