40
Lattice="18.429512851050927 -0.06288496138910754 -0.024158851872466053 9.16618019618707 14.82811301013882 0.384751658754409 4.588900608679581 2.6417677477859174 7.517386574651893" Properties=species:S:1:pos:R:3:spacegroup_kinds:I:1:forces:R:3 spacegroup="P 1" unit_cell=conventional occupancy="_JSON {\"0\": {\"Cs\": 1.0}, \"1\": {\"Cs\": 1.0}, \"2\": {\"K\": 1.0}, \"3\": {\"In\": 1.0}, \"4\": {\"I\": 1.0}, \"5\": {\"I\": 1.0}, \"6\": {\"I\": 1.0}, \"7\": {\"I\": 1.0}, \"8\": {\"I\": 1.0}, \"9\": {\"I\": 1.0}, \"10\": {\"Cs\": 1.0}, \"11\": {\"Cs\": 1.0}, \"12\": {\"K\": 1.0}, \"13\": {\"In\": 1.0}, \"14\": {\"I\": 1.0}, \"15\": {\"I\": 1.0}, \"16\": {\"I\": 1.0}, \"17\": {\"I\": 1.0}, \"18\": {\"I\": 1.0}, \"19\": {\"I\": 1.0}, \"20\": {\"Cs\": 1.0}, \"21\": {\"Cs\": 1.0}, \"22\": {\"K\": 1.0}, \"23\": {\"In\": 1.0}, \"24\": {\"I\": 1.0}, \"25\": {\"I\": 1.0}, \"26\": {\"I\": 1.0}, \"27\": {\"I\": 1.0}, \"28\": {\"I\": 1.0}, \"29\": {\"I\": 1.0}, \"30\": {\"Cs\": 1.0}, \"31\": {\"Cs\": 1.0}, \"32\": {\"K\": 1.0}, \"33\": {\"In\": 1.0}, \"34\": {\"I\": 1.0}, \"35\": {\"I\": 1.0}, \"36\": {\"I\": 1.0}, \"37\": {\"I\": 1.0}, \"38\": {\"I\": 1.0}, \"39\": {\"I\": 1.0}}" energy=-102.59573515086286 free_energy=-102.59573515086286 stress="-4.538268792942264e-06 4.810617080567156e-06 4.426250061807468e-06 4.810617080567156e-06 -2.3721627419198386e-06 -1.3164667257656933e-06 4.426250061807468e-06 -1.3164667257656933e-06 4.663847355642872e-06" pbc="T T T"
Cs       4.59131272       2.68875814       1.87084017        0      -0.00008589      -0.00001652       0.00015920
Cs      13.79558890       7.33613362       5.82589962        1      -0.00002349      -0.00020144       0.00017506
K        9.19400416       5.01222675       3.84944965        2      -0.00053983      -0.00004137      -0.00034985
In      18.42944024      -0.06296836      -0.02384738        3      -0.00013820       0.00081481      -0.00037732
I        8.49475030       2.35343491       1.62053026        4       0.00001522      -0.00009628      -0.00004001
I        9.89224726       7.67097232       6.07752867        5      -0.00004536       0.00009217       0.00007538
I       11.44238684       5.94028675       1.28258520        6       0.00043359      -0.00000162       0.00002932
I       25.37297317       4.02177387       6.39078509        7       0.00023114      -0.00010724       0.00012543
I        6.26933608       6.40985980       2.43149566        8      -0.00005065       0.00040824      -0.00013001
I       12.11736150       3.61331625       5.26604439        9       0.00003054       0.00027758       0.00002539
Cs       9.17439996      10.10282692       2.06320980       10      -0.00007179      -0.00012938       0.00019969
Cs      18.37868152      14.75017500       6.01828021       11      -0.00003975      -0.00007530       0.00012426
K       13.77709541      12.42626973       4.04183912       12      -0.00053650       0.00003866      -0.00039402
In      23.01258055       7.35125726       0.16848421       13      -0.00043372      -0.00062033       0.00008824
I       13.07783853       9.76748496       1.81289433       14      -0.00002148       0.00011452       0.00008881
I       14.47531202      15.08511868       6.26996700       15       0.00010938      -0.00049151      -0.00031809
I       16.02557163      13.35439331       1.47491384       16      -0.00016384      -0.00039131       0.00033514
I       29.95603211      11.43580751       6.58315005       17       0.00052184       0.00009091       0.00000607
I       10.85235535      13.82394594       2.62378262       18       0.00034981       0.00015178       0.00036569
I       16.70047039      11.02735993       5.45842295       19      -0.00013197       0.00038469      -0.00012715
Cs      13.80606507       2.65731960       1.85876527       20      -0.00003015      -0.00005206       0.00012529
Cs      23.01034659       7.30468704       5.81381535       21      -0.00006647      -0.00016649       0.00020861
K       18.40875506       4.98078567       3.83737651       22      -0.00052132      -0.00004957      -0.00036986
In       9.21459957      -0.03149592      -0.01175606       23       0.00053323       0.00054848      -0.00046144
I       17.70950614       2.32199698       1.60846048       24       0.00003940      -0.00020581      -0.00012262
I       19.10700949       7.63951362       6.06543246       25      -0.00008891       0.00025399       0.00019913
I        2.22760851       5.97171679       1.29467943       26       0.00063544       0.00010533      -0.00008192
I       16.15824800       4.05323119       6.40283559       27      -0.00001522      -0.00023707       0.00027518
I       15.48411643       6.37840607       2.41944212       28      -0.00022463       0.00051151      -0.00030447
I       21.33210486       3.58188250       5.25395712       29       0.00014667       0.00021108       0.00011853
Cs      18.38915312      10.07138964       2.05113674       30      -0.00002458      -0.00016526       0.00016126
Cs      27.59343978      14.71872830       6.00619615       31      -0.00008201      -0.00004463       0.00014996
K       22.99184592      12.39482862       4.02976494       32      -0.00051593       0.00002930      -0.00040895
In      13.79772927       7.38272401       0.18057088       33       0.00030112      -0.00084680       0.00003087
I       22.29258933       9.73606074       1.80083379       34       0.00001875      -0.00005344      -0.00003961
I       23.69008040      15.05364190       6.25785771       35       0.00004180      -0.00024241      -0.00012810
I        6.81080713      13.38582935       1.48700004       36      -0.00003791      -0.00032751       0.00025758
I       20.74130194      11.46726271       6.59520620       37       0.00029842      -0.00002518       0.00014325
I       20.06714708      13.79248997       2.61174511       38       0.00013089       0.00027876       0.00013161
I       25.91519882      10.99593090       5.44631604       39       0.00005239       0.00027670       0.00005448
