10
Lattice="12.35315701028858 -3.2174204424338737 0.4748071958161251 1.5519310865500404 6.109850268757113 1.0274837549134257 -0.4857909204824696 -0.9358410204518167 6.299428099416867" Properties=species:S:1:pos:R:3:spacegroup_kinds:I:1:forces:R:3 spacegroup="P 1" unit_cell=conventional occupancy="_JSON {\"0\": {\"Cs\": 1.0}, \"1\": {\"Pb\": 1.0}, \"2\": {\"I\": 1.0}, \"3\": {\"I\": 1.0}, \"4\": {\"I\": 1.0}, \"5\": {\"Cs\": 1.0}, \"6\": {\"Pb\": 1.0}, \"7\": {\"I\": 1.0}, \"8\": {\"I\": 1.0}, \"9\": {\"I\": 1.0}}" energy=-27.961486016570998 free_energy=-27.961486016570998 stress="-4.1017414274064266e-07 2.2490715301236723e-07 3.574243893459376e-07 2.2490715301236723e-07 -6.534555615141555e-07 2.9707548003815616e-07 3.574243893459376e-07 2.9707548003815616e-07 -2.226427971603541e-08" pbc="T T T"
Cs       3.62383741       1.77961689       3.78265438        0       0.00017291      -0.00027898       0.00000871
Pb      -0.00030369       0.00014899       0.00005996        1       0.00009291      -0.00031460      -0.00039613
I       -0.24393057      -0.46641855       3.14942820        2      -0.00016476      -0.00010693       0.00056943
I        3.08811264      -0.80331697       0.11887654        3      -0.00013152       0.00001841      -0.00016119
I       13.12826782      -0.16228822       0.98809163        4       0.00003046       0.00068210      -0.00002083
Cs       9.80041592       0.17090667       4.02005797        5       0.00017291      -0.00027898       0.00000871
Pb       6.17627481      -1.60856123       0.23746356        6       0.00009291      -0.00031459      -0.00039613
I        5.93264794      -2.07512877       3.38683180        7      -0.00016476      -0.00010693       0.00056943
I        9.26469115      -2.41202719       0.35628013        8      -0.00013152       0.00001841      -0.00016119
I        6.95168931       1.44642200       0.75068803        9       0.00003046       0.00068210      -0.00002083
