40
Lattice="17.584885773559943 -1.9674270815552524 4.904627875342606 10.128574773218395 13.736474387009432 3.628817113352087 2.5999519783122453 1.9211029130858714 8.649034533480647" Properties=species:S:1:pos:R:3:spacegroup_kinds:I:1:forces:R:3 spacegroup="P 1" unit_cell=conventional occupancy="_JSON {\"0\": {\"Cs\": 1.0}, \"1\": {\"Cs\": 1.0}, \"2\": {\"K\": 1.0}, \"3\": {\"In\": 1.0}, \"4\": {\"I\": 1.0}, \"5\": {\"I\": 1.0}, \"6\": {\"I\": 1.0}, \"7\": {\"I\": 1.0}, \"8\": {\"I\": 1.0}, \"9\": {\"I\": 1.0}, \"10\": {\"Cs\": 1.0}, \"11\": {\"Cs\": 1.0}, \"12\": {\"K\": 1.0}, \"13\": {\"In\": 1.0}, \"14\": {\"I\": 1.0}, \"15\": {\"I\": 1.0}, \"16\": {\"I\": 1.0}, \"17\": {\"I\": 1.0}, \"18\": {\"I\": 1.0}, \"19\": {\"I\": 1.0}, \"20\": {\"Cs\": 1.0}, \"21\": {\"Cs\": 1.0}, \"22\": {\"K\": 1.0}, \"23\": {\"In\": 1.0}, \"24\": {\"I\": 1.0}, \"25\": {\"I\": 1.0}, \"26\": {\"I\": 1.0}, \"27\": {\"I\": 1.0}, \"28\": {\"I\": 1.0}, \"29\": {\"I\": 1.0}, \"30\": {\"Cs\": 1.0}, \"31\": {\"Cs\": 1.0}, \"32\": {\"K\": 1.0}, \"33\": {\"In\": 1.0}, \"34\": {\"I\": 1.0}, \"35\": {\"I\": 1.0}, \"36\": {\"I\": 1.0}, \"37\": {\"I\": 1.0}, \"38\": {\"I\": 1.0}, \"39\": {\"I\": 1.0}}" energy=-102.59575191609517 free_energy=-102.59575191609517 stress="6.28683886831636e-06 2.7240968210178488e-06 3.848814311484523e-06 2.7240968210178488e-06 -1.3366782545736202e-05 -2.5907674475793227e-06 3.848814311484523e-06 -2.5907674475793227e-06 4.359997868962264e-06" pbc="T T T"
Cs       4.16615332       2.12602014       3.17660055        0       0.00013314      -0.00003019       0.00002646
Cs      12.29017105       5.67970646       9.73935972        1       0.00006620      -0.00001848      -0.00001657
K        8.22870187       3.90300299       6.45784324        2      -0.00020175      -0.00013384      -0.00005059
In       0.00007610      -0.00000174      -0.00015847        3      -0.00001472      -0.00014472       0.00016707
I        4.90841730       2.78902889       6.97468244        4      -0.00010499       0.00007159       0.00000222
I       11.54859412       5.01663970       5.94120655        5      -0.00007889      -0.00011962      -0.00010575
I        9.26333171       1.28857884       4.31127535        6      -0.00006690       0.00025170       0.00005427
I        7.19340106       6.51669845       8.60475759        7      -0.00010179       0.00026888      -0.00016077
I        6.89837666       5.18317683       3.44202890        8       0.00005058       0.00032297      -0.00011784
I        9.55818996       2.62226600       9.47384704        9      -0.00020318       0.00013206      -0.00005327
Cs       9.23054519       8.99416163       4.99099959       10       0.00010845       0.00004298       0.00001905
Cs      17.35442971      12.54792900      11.55372017       11      -0.00002122      -0.00000250      -0.00016315
K       13.29297901      10.77116275       8.27217712       12      -0.00027416       0.00000191       0.00004710
In       5.06433146       6.86827999       1.81430817       13       0.00010552      -0.00026650      -0.00005015
I        9.97274040       9.65721210       8.78911268       14      -0.00020569       0.00005294       0.00009417
I       16.61270014      11.88486365       7.75539338       15       0.00003935      -0.00010589       0.00008161
I       14.32744121       8.15709521       6.12548472       16       0.00016226      -0.00005074      -0.00005819
I       12.25768612      13.38485820      10.41914372       17       0.00003858       0.00023150      -0.00007498
I       11.96264890      12.05164894       5.25645152       18       0.00029090      -0.00002399      -0.00005890
I       14.62237003       9.49034158      11.28808893       19       0.00003193      -0.00013988       0.00021349
Cs      12.95875242       1.14227464       5.62892991       20       0.00008283       0.00001426       0.00003246
Cs      21.08246356       4.69604042      12.19153064       21       0.00021527      -0.00009110       0.00000133
K       17.02107556       2.91926671       8.91001873       22      -0.00019354      -0.00011885       0.00014609
In       8.79249013      -0.98363772       2.45215747       23      -0.00007992      -0.00035754       0.00025459
I       13.70083536       1.80537514       9.42708453       24       0.00005343       0.00005963      -0.00010532
I       20.34089340       4.03290221       8.39336085       25      -0.00007175      -0.00007618       0.00003687
I       18.05569464       0.30499982       6.76342284       26      -0.00005721       0.00019724      -0.00000511
I       15.98573686       5.53300678      11.05694215       27       0.00024539       0.00029267       0.00017384
I       15.69084540       4.19966007       5.89437148       28       0.00020691       0.00016420      -0.00021103
I       18.35057981       1.63840528      11.92607858       29      -0.00009848      -0.00002164      -0.00006951
Cs      18.02302715       8.01048748       7.44334081       30      -0.00003167       0.00007961      -0.00007638
Cs      26.14690529      11.56418968      14.00607578       31       0.00011716      -0.00002973      -0.00010426
K       22.08532172       9.78752665      10.72437616       32      -0.00012861      -0.00001659       0.00017962
In      13.85684735       5.88458884       4.26665066       33      -0.00030575      -0.00021372      -0.00018416
I       18.76509350       8.67360122      11.24132366       34      -0.00010071      -0.00000950       0.00017798
I       25.40526726      10.90114567      10.20784036       35      -0.00014679      -0.00014424       0.00000239
I       23.11993285       7.17322908       8.57782220       36       0.00009023       0.00009284       0.00013510
I       21.04995214      12.40140756      12.87124149       37       0.00023446       0.00003275      -0.00000053
I       20.75504844      11.06777089       7.70868067       38       0.00014761       0.00005919      -0.00017929
I       23.41484039       8.50684243      13.74050702       39       0.00006753      -0.00025348       0.00000006
