80
Lattice="16.84314154142697 3.9856423500267937 1.7771738362188305 -11.640437697160152 12.565565408332295 -2.9880817743211736 -0.0683186235517621 -7.7961132554988515 18.0285442543792" Properties=species:S:1:pos:R:3:spacegroup_kinds:I:1:forces:R:3 spacegroup="P 1" unit_cell=conventional occupancy="_JSON {\"0\": {\"Cs\": 1.0}, \"1\": {\"Cs\": 1.0}, \"2\": {\"K\": 1.0}, \"3\": {\"In\": 1.0}, \"4\": {\"I\": 1.0}, \"5\": {\"I\": 1.0}, \"6\": {\"I\": 1.0}, \"7\": {\"I\": 1.0}, \"8\": {\"I\": 1.0}, \"9\": {\"I\": 1.0}, \"10\": {\"Cs\": 1.0}, \"11\": {\"Cs\": 1.0}, \"12\": {\"K\": 1.0}, \"13\": {\"In\": 1.0}, \"14\": {\"I\": 1.0}, \"15\": {\"I\": 1.0}, \"16\": {\"I\": 1.0}, \"17\": {\"I\": 1.0}, \"18\": {\"I\": 1.0}, \"19\": {\"I\": 1.0}, \"20\": {\"Cs\": 1.0}, \"21\": {\"Cs\": 1.0}, \"22\": {\"K\": 1.0}, \"23\": {\"In\": 1.0}, \"24\": {\"I\": 1.0}, \"25\": {\"I\": 1.0}, \"26\": {\"I\": 1.0}, \"27\": {\"I\": 1.0}, \"28\": {\"I\": 1.0}, \"29\": {\"I\": 1.0}, \"30\": {\"Cs\": 1.0}, \"31\": {\"Cs\": 1.0}, \"32\": {\"K\": 1.0}, \"33\": {\"In\": 1.0}, \"34\": {\"I\": 1.0}, \"35\": {\"I\": 1.0}, \"36\": {\"I\": 1.0}, \"37\": {\"I\": 1.0}, \"38\": {\"I\": 1.0}, \"39\": {\"I\": 1.0}, \"40\": {\"Cs\": 1.0}, \"41\": {\"Cs\": 1.0}, \"42\": {\"K\": 1.0}, \"43\": {\"In\": 1.0}, \"44\": {\"I\": 1.0}, \"45\": {\"I\": 1.0}, \"46\": {\"I\": 1.0}, \"47\": {\"I\": 1.0}, \"48\": {\"I\": 1.0}, \"49\": {\"I\": 1.0}, \"50\": {\"Cs\": 1.0}, \"51\": {\"Cs\": 1.0}, \"52\": {\"K\": 1.0}, \"53\": {\"In\": 1.0}, \"54\": {\"I\": 1.0}, \"55\": {\"I\": 1.0}, \"56\": {\"I\": 1.0}, \"57\": {\"I\": 1.0}, \"58\": {\"I\": 1.0}, \"59\": {\"I\": 1.0}, \"60\": {\"Cs\": 1.0}, \"61\": {\"Cs\": 1.0}, \"62\": {\"K\": 1.0}, \"63\": {\"In\": 1.0}, \"64\": {\"I\": 1.0}, \"65\": {\"I\": 1.0}, \"66\": {\"I\": 1.0}, \"67\": {\"I\": 1.0}, \"68\": {\"I\": 1.0}, \"69\": {\"I\": 1.0}, \"70\": {\"Cs\": 1.0}, \"71\": {\"Cs\": 1.0}, \"72\": {\"K\": 1.0}, \"73\": {\"In\": 1.0}, \"74\": {\"I\": 1.0}, \"75\": {\"I\": 1.0}, \"76\": {\"I\": 1.0}, \"77\": {\"I\": 1.0}, \"78\": {\"I\": 1.0}, \"79\": {\"I\": 1.0}}" energy=-204.38381512702605 free_energy=-204.38381512702605 stress="1.1083861979932402e-05 9.838916030917848e-06 -4.060363551836842e-06 9.838916030917848e-06 -1.1732942697420927e-05 2.183921790947193e-06 -4.060363551836842e-06 2.183921790947193e-06 -1.1666980125499106e-05" pbc="T T T"
Cs       5.98216708      -1.61715386      10.72070496        0       0.00015016       0.00015361       0.00002092
Cs       1.57311670       3.45072718      -1.35806256        1       0.00001173       0.00009448       0.00019118
K       -1.73352871      -4.21709239       4.53984733        2      -0.00011192      -0.00014356       0.00004718
In      -9.14628352      11.29376914      -2.51102794        3       0.00000774      -0.00047939       0.00002129
I       -2.99479332      12.16691391      -0.03233531        4       0.00020791       0.00020601      -0.00005578
I       -1.09029218       2.23245081       6.40708533        5       0.00013281      -0.00007964       0.00000859
I       -9.46088960      13.90362809      -1.08960505        6       0.00010607       0.00007263       0.00004488
I        5.37584052       0.49552199       7.46453106        7       0.00002916       0.00025508      -0.00003383
I        7.00122521       6.10108519       1.98920676        8       0.00015366      -0.00000742       0.00020500
I      -11.08631097       8.29834505       4.38545869        9       0.00008376      -0.00020293       0.00017914
Cs       5.94817593      -5.51509917      19.73499802       10      -0.00010335       0.00017257       0.00000894
Cs       1.53907440      -0.44745297       7.65643630       11      -0.00004168       0.00025402      -0.00001272
K       -1.76812570      -8.11585227      13.55452172       12       0.00022187       0.00033967      -0.00038593
In      -9.18040252       7.39569431       6.50323360       13      -0.00020089      -0.00023090       0.00016697
I       -3.02882012       8.26895443       8.98207163       14      -0.00005499       0.00001740      -0.00001329
I       -1.12424993      -1.66560566      15.42139898       15      -0.00031049      -0.00011167       0.00025852
I       -9.49492569      10.00568232       7.92470103       16      -0.00005860      -0.00008936       0.00002120
I        5.34172598      -3.40240224      16.47869682       17      -0.00004345       0.00005140      -0.00003926
I        6.96714037       2.20320486      11.00353679       18       0.00013705      -0.00017431       0.00006551
I      -11.12053587       4.40039189      13.39979204       19       0.00025995      -0.00032268       0.00009101
Cs       0.16212570       4.66594228       9.22675047       20      -0.00000417      -0.00016831      -0.00007994
Cs      -4.24689399       9.73377111      -2.85176751       21       0.00000552      -0.00034236      -0.00003667
K       -7.55376163       2.06574156       3.04581380       22      -0.00016285      -0.00021328       0.00007686
In      -3.32616467       5.01080082      -1.01696195       23       0.00050686       0.00044072      -0.00008729
I        2.82535831       5.88402694       1.46179745       24       0.00019662       0.00015169      -0.00016397
I       -6.91048157       8.51506893       4.91301348       25       0.00014962       0.00014446      -0.00002208
I       -3.64060397       7.62089798       0.40454017       26       0.00009752      -0.00023167      -0.00016356
I       -0.44428997       6.77852934       5.97036018       27      -0.00002751      -0.00009765       0.00003693
I        1.18117251      12.38373582       0.49512060       28       0.00002570       0.00024698       0.00038685
I       -5.26613363       2.01528807       5.87957748       29       0.00003475       0.00019021       0.00000071
Cs       0.12818624       0.76791595      18.24122843       30      -0.00027591      -0.00022505      -0.00022381
Cs      -4.28104807       5.83565686       6.16244683       31      -0.00010406      -0.00012727      -0.00004487
K       -7.58813213      -1.83269498      12.06015467       32       0.00001472       0.00009637      -0.00002777
In      -3.36025967       1.11281253       7.99726502       33       0.00001769       0.00018020      -0.00004324
I        2.79143196       1.98608243      10.47602240       34      -0.00024786       0.00008862       0.00009173
I       -6.94461284       4.61706722      13.92738216       35       0.00012577       0.00006390      -0.00008235
I       -3.67467978       3.72292767       9.41863061       36      -0.00013595      -0.00007255       0.00006045
I       -0.47836008       2.88054001      14.98464058       37      -0.00012176      -0.00005073      -0.00002123
I        1.14706351       8.48583912       9.50969629       38      -0.00024545       0.00015264      -0.00028602
I       -5.30023033      -1.88259836      14.89398620       39       0.00006634       0.00006653      -0.00015937
Cs      14.40378812       0.37568916      11.60928940       40       0.00011104       0.00009255       0.00007892
Cs       9.99466103       5.44352752      -0.46951098       41       0.00001003       0.00012424       0.00019348
K        6.68818194      -2.22399547       5.42820476       42      -0.00023189      -0.00033990       0.00025687
In      -0.72463178      13.28663181      -1.62242750       43      -0.00049209      -0.00053775      -0.00008766
I        5.42679230      14.15979373       0.85627824       44       0.00010616       0.00006691      -0.00001974
I        7.33124125       4.22527288       7.29555512       45       0.00014996      -0.00013505       0.00018077
I       -1.03936245      15.89639545      -0.20107576       46       0.00009596       0.00035216       0.00023622
I       13.79743014       2.48846648       8.35299468       47       0.00004629      -0.00007161      -0.00003461
I       -1.42027190       4.10828633       1.10068511       48      -0.00005366      -0.00006683      -0.00000478
I       -2.66485929      10.29103361       5.27401793       49       0.00031855      -0.00014681       0.00036203
Cs      14.36977610      -3.52227572      20.62358785       50      -0.00008486       0.00020974       0.00002680
Cs       9.96067121       1.54532184       8.54504399       51      -0.00013214       0.00029757      -0.00003115
K        6.65357586      -6.12276122      14.44288316       52       0.00009661       0.00013262      -0.00013789
In      -0.75887479       9.38842369       7.39185000       53      -0.00003503       0.00013962       0.00009396
I        5.39271667      10.26173003       9.87067563       54       0.00014289       0.00017320      -0.00018460
I        7.29734187       0.32723020      16.30996408       55      -0.00021047      -0.00011868       0.00020434
I       -1.07337228      11.99850610       8.81325562       56      -0.00002125      -0.00021812      -0.00004873
I       13.76326458      -1.40960436      17.36719019       57      -0.00004408       0.00010859       0.00012479
I       -1.45445914       0.21035661      10.11494167       58       0.00016739      -0.00019334       0.00014786
I       -2.69897672       6.39319890      14.28846160       59       0.00022939      -0.00029929      -0.00008958
Cs       8.58369141       6.65879089      10.11540028       60      -0.00003832      -0.00022282      -0.00013158
Cs       4.17468265      11.72652664      -1.96323490       61       0.00003792      -0.00024498      -0.00001756
K        0.86773767       4.05840438       3.93442177       62      -0.00006520      -0.00009814       0.00006140
In       5.09546538       7.00373479      -0.12840432       63       0.00024833      -0.00011715       0.00011518
I       11.24696636       7.87687836       2.35034964       64      -0.00000852      -0.00001014      -0.00002919
I        1.51111173      10.50788339       5.80169254       65       0.00007303       0.00014875      -0.00014188
I        4.78095993       9.61373079       1.29301291       66       0.00005137       0.00005317       0.00015524
I        7.97731485       8.77132956       6.85899095       67      -0.00008753      -0.00001271      -0.00000759
I       -7.24034387      10.39089418      -0.39331045       68      -0.00035258       0.00034107      -0.00016618
I        3.15551746       4.00821917       6.76817625       69      -0.00004207       0.00011235      -0.00001402
Cs       8.54970709       2.76070411      19.12975615       70      -0.00017068      -0.00009453      -0.00017602
Cs       4.14051856       7.82854688       7.05102229       71      -0.00002987      -0.00021741       0.00004827
K        0.83348339       0.16012085      12.94870120       72      -0.00004470       0.00011073       0.00005049
In       5.06133435       3.10570202       8.88586965       73       0.00019441       0.00004942      -0.00016206
I       11.21294619       3.97887848      11.36465987       74      -0.00010895       0.00009404      -0.00003852
I        1.47701512       6.60993825      14.81608504       75       0.00022743       0.00011600      -0.00028885
I        4.74693580       5.71581727      10.30728773       76      -0.00012081      -0.00019747      -0.00005149
I        7.94314569       4.87321531      15.87320547       77      -0.00014560       0.00030280       0.00017258
I       -7.27458149       6.49298947       8.62105063       78      -0.00004265       0.00018464      -0.00011742
I        3.12144541       0.11028555      15.78267980       79      -0.00023589       0.00006413      -0.00052897
