80
Lattice="15.685494090267103 0.0 0.0 2.613675853717748 15.23320846944095 0.0 14.456216029404644 -1.0031098419317837 13.151773878569895" Properties=species:S:1:pos:R:3 pbc="T T T"
Cs       4.09433683       1.77873682       1.64398489
Cs      12.28335599       5.33631181       4.93190160
K        8.18884642       3.55752422       3.28794321
In       0.00000016       0.00000049       0.00000021
I        8.52538454       0.18193946       3.67098112
I        7.85230829       6.93310862       2.90490530
I        9.92509596       2.42693780       2.00609878
I        6.45259565       4.68811035       4.56978735
I        4.72626757       5.30049206       1.05024684
I       11.65142575       1.81455851       5.52564086
Cs      11.32244484       1.27718190       8.21987183
Cs      19.51146401       4.83475689      11.50778854
K       15.41695444       3.05596930       9.86383015
In       7.22810817      -0.50155443       6.57588715
I       15.75349255      -0.31961546      10.24686806
I       15.08041630       6.43155369       9.48079224
I       17.15320398       1.92538288       8.58198572
I       13.68070367       4.18655543      11.14567429
I       11.95437558       4.79893713       7.62613378
I       18.87953376       1.31300359      12.10152779
Cs       5.40117475       9.39534105       1.64398489
Cs      13.59019392      12.95291605       4.93190160
K        9.49568435      11.17412845       3.28794321
In       1.30683808       7.61660473       0.00000021
I        9.83222247       7.79854369       3.67098112
I        9.15914622      14.54971285       2.90490530
I       11.23193389      10.04354203       2.00609878
I        7.75943358      12.30471459       4.56978735
I        6.03310550      12.91709629       1.05024684
I       12.95826368       9.43116275       5.52564086
Cs      12.62928277       8.89378613       8.21987183
Cs      20.81830194      12.45136113      11.50778854
K       16.72379237      10.67257353       9.86383015
In       8.53494610       7.11504981       6.57588715
I       17.06033048       7.29698877      10.24686806
I       16.38725423      14.04815793       9.48079224
I       18.46004191       9.54198711       8.58198572
I       14.98754159      11.80315966      11.14567429
I       13.26121351      12.41554137       7.62613378
I       20.18637169       8.92960782      12.10152779
Cs      11.93708387       1.77873682       1.64398489
Cs      20.12610304       5.33631181       4.93190160
K       16.03159347       3.55752422       3.28794321
In       7.84274720       0.00000049       0.00000021
I       16.36813158       0.18193946       3.67098112
I       15.69505533       6.93310862       2.90490530
I       17.76784301       2.42693780       2.00609878
I       14.29534270       4.68811035       4.56978735
I       12.56901461       5.30049206       1.05024684
I       19.49417279       1.81455851       5.52564086
Cs      19.16519189       1.27718190       8.21987183
Cs      27.35421105       4.83475689      11.50778854
K       23.25970148       3.05596930       9.86383015
In      15.07085522      -0.50155443       6.57588715
I       23.59623960      -0.31961546      10.24686806
I       22.92316335       6.43155369       9.48079224
I       24.99595102       1.92538288       8.58198572
I       21.52345071       4.18655543      11.14567429
I       19.79712263       4.79893713       7.62613378
I       26.72228081       1.31300359      12.10152779
Cs      13.24392180       9.39534105       1.64398489
Cs      21.43294097      12.95291605       4.93190160
K       17.33843140      11.17412845       3.28794321
In       9.14958513       7.61660473       0.00000021
I       17.67496951       7.79854369       3.67098112
I       17.00189326      14.54971285       2.90490530
I       19.07468094      10.04354203       2.00609878
I       15.60218063      12.30471459       4.56978735
I       13.87585254      12.91709629       1.05024684
I       20.80101072       9.43116275       5.52564086
Cs      20.47202981       8.89378613       8.21987183
Cs      28.66104898      12.45136113      11.50778854
K       24.56653941      10.67257353       9.86383015
In      16.37769314       7.11504981       6.57588715
I       24.90307753       7.29698877      10.24686806
I       24.23000127      14.04815793       9.48079224
I       26.30278895       9.54198711       8.58198572
I       22.83028864      11.80315966      11.14567429
I       21.10396056      12.41554137       7.62613378
I       28.02911874       8.92960782      12.10152779
