40
Lattice="12.176905054011712 3.077924501589744 2.593034114255567 -2.4237975665402676 12.343536974008886 -2.352263270169547 -3.058555298775403 1.739338001813773 12.294121418168743" Properties=species:S:1:pos:R:3:spacegroup_kinds:I:1:forces:R:3 spacegroup="P 1" unit_cell=conventional occupancy="_JSON {\"0\": {\"Cs\": 1.0}, \"1\": {\"Pb\": 1.0}, \"2\": {\"I\": 1.0}, \"3\": {\"I\": 1.0}, \"4\": {\"I\": 1.0}, \"5\": {\"Cs\": 1.0}, \"6\": {\"Pb\": 1.0}, \"7\": {\"I\": 1.0}, \"8\": {\"I\": 1.0}, \"9\": {\"I\": 1.0}, \"10\": {\"Cs\": 1.0}, \"11\": {\"Pb\": 1.0}, \"12\": {\"I\": 1.0}, \"13\": {\"I\": 1.0}, \"14\": {\"I\": 1.0}, \"15\": {\"Cs\": 1.0}, \"16\": {\"Pb\": 1.0}, \"17\": {\"I\": 1.0}, \"18\": {\"I\": 1.0}, \"19\": {\"I\": 1.0}, \"20\": {\"Cs\": 1.0}, \"21\": {\"Pb\": 1.0}, \"22\": {\"I\": 1.0}, \"23\": {\"I\": 1.0}, \"24\": {\"I\": 1.0}, \"25\": {\"Cs\": 1.0}, \"26\": {\"Pb\": 1.0}, \"27\": {\"I\": 1.0}, \"28\": {\"I\": 1.0}, \"29\": {\"I\": 1.0}, \"30\": {\"Cs\": 1.0}, \"31\": {\"Pb\": 1.0}, \"32\": {\"I\": 1.0}, \"33\": {\"I\": 1.0}, \"34\": {\"I\": 1.0}, \"35\": {\"Cs\": 1.0}, \"36\": {\"Pb\": 1.0}, \"37\": {\"I\": 1.0}, \"38\": {\"I\": 1.0}, \"39\": {\"I\": 1.0}}" energy=-111.87535724552983 free_energy=-111.87535724552983 stress="5.321524920358126e-06 3.302214659055015e-07 6.540083140025255e-07 3.302214659055015e-07 -7.350638066751005e-06 -2.464916967615466e-06 6.540083140025255e-07 -2.464916967615466e-06 2.6828783924776636e-06" pbc="T T T"
Cs       1.39452129       4.04002928       3.10103826        0       0.00002801       0.00000115      -0.00002466
Pb      -0.00158201       0.00378196      -0.00085543        1       0.00003075      -0.00005084      -0.00000576
I       -0.63827852       0.47943380       3.09846442        2      -0.00002603       0.00001071       0.00002155
I        3.06568887       0.90936814       0.63211220        3      -0.00010251       0.00001228       0.00008046
I       -0.47290614       3.14756105      -0.56323830        4       0.00008179       0.00001440      -0.00007662
Cs      -0.13475618       4.90969885       9.24809867        5       0.00002820       0.00000175      -0.00002483
Pb      -1.53085946       0.87345406       6.14620389        6       0.00003063      -0.00005711       0.00000036
I       -2.16755723       1.34910229       9.24552241        7      -0.00002875       0.00001232       0.00003408
I        1.53641419       1.77904038       6.77917370        8      -0.00011031       0.00000804       0.00007854
I       -2.00218534       4.01722092       5.58382618        9       0.00007836       0.00003774      -0.00008297
Cs       0.18262197      10.21179589       1.92490706       10       0.00002630       0.00000504      -0.00002553
Pb      -1.21347639       6.17555169      -1.17697807       11       0.00001257      -0.00005111      -0.00002945
I       -1.85017889       6.65120461       1.92232079       12      -0.00003080       0.00001266       0.00004888
I        1.85378679       7.08113414      -0.54402044       13      -0.00009311       0.00001455       0.00008130
I       -1.68480512       9.31932765      -1.73936883       14       0.00007955       0.00002770      -0.00007970
Cs      -1.34665530      11.08146563       8.07196756       15       0.00002623       0.00000413      -0.00002556
Pb      -2.74275791       7.04522273       4.97007865       16       0.00002186      -0.00005603      -0.00001279
I        8.79744769      10.59879658      10.66241583       17      -0.00002974       0.00001312       0.00004452
I        0.32451600       7.95080895       5.60304330       18      -0.00010850       0.00000849       0.00007695
I        8.96282076      13.26691559       7.00072751       19       0.00008100       0.00002953      -0.00008050
Cs       7.48297454       5.57899199       4.39755564       20       0.00002556       0.00000296      -0.00002550
Pb       6.08687206       1.54274452       1.29566842       21       0.00001941      -0.00004884      -0.00002357
I        5.45017159       2.01839679       4.39497011       22      -0.00002963       0.00001270       0.00004508
I        9.15414120       2.44832985       1.92862977       23      -0.00010269       0.00001210       0.00007952
I        5.61554602       4.68652158       0.73327944       24       0.00008131       0.00001846      -0.00007739
Cs       5.95369677       6.44866108      10.54461593       25       0.00002577       0.00000380      -0.00002528
Pb       4.55759471       2.41241765       7.44272707       26       0.00002070      -0.00005717      -0.00001445
I        3.92089394       2.88806575      10.54203122       27      -0.00002974       0.00001245       0.00004547
I        7.62486417       3.31800034       8.07569052       28      -0.00009894       0.00001062       0.00007931
I        4.08626670       5.55618122       6.88034392       29       0.00007788       0.00004234      -0.00008388
Cs       6.27107466      11.75075879       3.22142412       30       0.00002828       0.00000255      -0.00002494
Pb       4.87497231       7.71451450       0.11952989       31       0.00003237      -0.00005567      -0.00000925
I        4.23827501       8.19016630       3.21884592       32      -0.00002944       0.00001094       0.00003616
I        7.94224192       8.62009910       0.75249680       33      -0.00010298       0.00001145       0.00008107
I        4.40364710      10.85828725      -0.44285070       34       0.00007815       0.00003092      -0.00008064
Cs       4.74179712      12.62042808       9.36848452       35       0.00002824       0.00000190      -0.00002462
Pb       3.34569190       8.58418624       6.26658653       36       0.00003787      -0.00006105       0.00000752
I        2.70899755       9.05983416       9.36590956       37      -0.00002618       0.00000971       0.00002132
I        6.41296943       9.48977250       6.89956007       38      -0.00011079       0.00000723       0.00007760
I        2.87436792      11.72795037       5.70421172       39       0.00007933       0.00003410      -0.00008181
