40
Lattice="10.843792329432544 0.0 0.0 -4.607016815453104 9.58951174923165 0.0 -5.534755462157359 3.1622607660903714 9.954790529527747" Properties=species:S:1:pos:R:3:oxi_states:R:1 pbc="T T T"
Cs       0.17570456       3.18774358       2.48869763       1.00000000
Pb      -0.00000000      -0.00000000       0.00000000       2.00000000
I       -1.38368887       0.79056519       2.48869763      -1.00000000
I        2.71094808       0.00000000      -0.00000000      -1.00000000
I       -1.15175420       2.39737794       0.00000000      -1.00000000
Cs      -2.59167317       4.76887396       7.46609290       1.00000000
Pb      -2.76737773       1.58113038       4.97739526       2.00000000
I       -4.15106660       2.37169557       7.46609290      -1.00000000
I       -0.05642965       1.58113038       4.97739526      -1.00000000
I       -3.91913193       3.97850832       4.97739526      -1.00000000
Cs      -2.12780385       7.98249945       2.48869763       1.00000000
Pb      -2.30350841       4.79475587       0.00000000       2.00000000
I       -3.68719727       5.58532107       2.48869763      -1.00000000
I        0.40743967       4.79475587      -0.00000000      -1.00000000
I       -3.45526261       7.19213381       0.00000000      -1.00000000
Cs      -4.89518158       9.56362984       7.46609290       1.00000000
Pb      -5.07088614       6.37588626       4.97739526       2.00000000
I       -6.45457500       7.16645145       7.46609290      -1.00000000
I       -2.35993806       6.37588626       4.97739526      -1.00000000
I       -6.22264034       8.77326419       4.97739526      -1.00000000
Cs       5.59760072       3.18774358       2.48869763       1.00000000
Pb       5.42189616      -0.00000000       0.00000000       2.00000000
I        4.03820730       0.79056519       2.48869763      -1.00000000
I        8.13284425       0.00000000      -0.00000000      -1.00000000
I        4.27014196       2.39737794       0.00000000      -1.00000000
Cs       2.83022299       4.76887396       7.46609290       1.00000000
Pb       2.65451843       1.58113038       4.97739526       2.00000000
I        1.27082957       2.37169557       7.46609290      -1.00000000
I        5.36546652       1.58113038       4.97739526      -1.00000000
I        1.50276423       3.97850832       4.97739526      -1.00000000
Cs       3.29409232       7.98249945       2.48869763       1.00000000
Pb       3.11838776       4.79475587       0.00000000       2.00000000
I        1.73469889       5.58532107       2.48869763      -1.00000000
I        5.82933584       4.79475587      -0.00000000      -1.00000000
I        1.96663355       7.19213381       0.00000000      -1.00000000
Cs       0.52671459       9.56362984       7.46609290       1.00000000
Pb       0.35101003       6.37588626       4.97739526       2.00000000
I       -1.03267884       7.16645145       7.46609290      -1.00000000
I        3.06195811       6.37588626       4.97739526      -1.00000000
I       -0.80074418       8.77326419       4.97739526      -1.00000000
