40
Lattice="16.695450636649184 0.0 0.0 0.05493757254720915 16.985449141687337 0.0 3.9277804982418707 8.083042155485408 4.88606629828091" Properties=species:S:1:pos:R:3 pbc="T T T"
Cs       3.07570031       4.14392821       1.22153120
Cs       9.22727424      12.43183813       3.66453485
K        6.15148731       8.28788321       2.44303301
In       0.00000011       0.00000023       0.00000009
I        5.38542617       7.57850489       3.15228923
I        6.91754840       8.99726137       1.73377680
I        8.48593639       3.84540111       1.81023227
I        3.81703735      12.73036529       3.07583343
I        3.18515545       7.79110586       0.46075413
I        9.11781920       8.78466201       4.42531286
Cs       3.10316909      12.63665278       1.22153120
Cs       9.25474303      20.92456270       3.66453485
K        6.17895609      16.78060778       2.44303301
In       0.02746890       8.49272480       0.00000009
I        5.41289496      16.07122946       3.15228923
I        6.94501718      17.48998594       1.73377680
I        8.51340518      12.33812568       1.81023227
I        3.84450614      21.22308986       3.07583343
I        3.21262424      16.28383043       0.46075413
I        9.14528798      17.27738658       4.42531286
Cs      11.42342563       4.14392821       1.22153120
Cs      17.57499956      12.43183813       3.66453485
K       14.49921263       8.28788321       2.44303301
In       8.34772543       0.00000023       0.00000009
I       13.73315149       7.57850489       3.15228923
I       15.26527372       8.99726137       1.73377680
I       16.83366171       3.84540111       1.81023227
I       12.16476267      12.73036529       3.07583343
I       11.53288077       7.79110586       0.46075413
I       17.46554452       8.78466201       4.42531286
Cs      11.45089441      12.63665278       1.22153120
Cs      17.60246835      20.92456270       3.66453485
K       14.52668141      16.78060778       2.44303301
In       8.37519421       8.49272480       0.00000009
I       13.76062028      16.07122946       3.15228923
I       15.29274250      17.48998594       1.73377680
I       16.86113050      12.33812568       1.81023227
I       12.19223146      21.22308986       3.07583343
I       11.56034955      16.28383043       0.46075413
I       17.49301330      17.27738658       4.42531286
