40
Lattice="24.312813385894483 3.43947176086931 0.6782971899988324 3.692663718268216 16.146222009486127 4.77354582551612 7.579234737446424 9.507466950210869 8.660625681089343" Properties=species:S:1:pos:R:3:spacegroup_kinds:I:1:forces:R:3 spacegroup="P 1" unit_cell=conventional occupancy="_JSON {\"0\": {\"Cs\": 1.0}, \"1\": {\"Cs\": 1.0}, \"2\": {\"K\": 1.0}, \"3\": {\"In\": 1.0}, \"4\": {\"I\": 1.0}, \"5\": {\"I\": 1.0}, \"6\": {\"I\": 1.0}, \"7\": {\"I\": 1.0}, \"8\": {\"I\": 1.0}, \"9\": {\"I\": 1.0}, \"10\": {\"Cs\": 1.0}, \"11\": {\"Cs\": 1.0}, \"12\": {\"K\": 1.0}, \"13\": {\"In\": 1.0}, \"14\": {\"I\": 1.0}, \"15\": {\"I\": 1.0}, \"16\": {\"I\": 1.0}, \"17\": {\"I\": 1.0}, \"18\": {\"I\": 1.0}, \"19\": {\"I\": 1.0}, \"20\": {\"Cs\": 1.0}, \"21\": {\"Cs\": 1.0}, \"22\": {\"K\": 1.0}, \"23\": {\"In\": 1.0}, \"24\": {\"I\": 1.0}, \"25\": {\"I\": 1.0}, \"26\": {\"I\": 1.0}, \"27\": {\"I\": 1.0}, \"28\": {\"I\": 1.0}, \"29\": {\"I\": 1.0}, \"30\": {\"Cs\": 1.0}, \"31\": {\"Cs\": 1.0}, \"32\": {\"K\": 1.0}, \"33\": {\"In\": 1.0}, \"34\": {\"I\": 1.0}, \"35\": {\"I\": 1.0}, \"36\": {\"I\": 1.0}, \"37\": {\"I\": 1.0}, \"38\": {\"I\": 1.0}, \"39\": {\"I\": 1.0}}" energy=-103.10312069719339 free_energy=-103.10312069719339 stress="-1.9914444172242107e-07 -1.505040396848642e-07 1.8158434584965082e-06 -1.505040396848642e-07 -6.478602304400898e-07 2.0697198408661272e-07 1.8158434584965082e-06 2.0697198408661272e-07 -1.3825260453619926e-07" pbc="T T T"
Cs       3.43386633       3.20911242       2.04891425        0      -0.00019883       0.00020625       0.00004542
Cs      18.15076754      16.09034088       9.33622206        1       0.00001644       0.00027909       0.00003167
K       10.79029648       9.64898646       5.69210172        2      -0.00042060       0.00003814       0.00047019
In      -0.00008757      -0.00010692       0.00015184        3       0.00047176      -0.00019284      -0.00007079
I        7.77169198       7.79680142       6.21696027        4       0.00025646       0.00026733       0.00003335
I       13.80815351      11.50199925       5.17082582        5       0.00027214       0.00018608       0.00000003
I       13.25193900       7.41163655       4.36891393        6      -0.00008037      -0.00030890       0.00080818
I        8.32964678      11.88735891       7.01487257        7      -0.00001210      -0.00008180       0.00024820
I        4.74334204       7.57333864       2.92779144        8       0.00002212      -0.00020487      -0.00019334
I       16.83839205      11.72747204       8.46010010        9       0.00002238      -0.00004741       0.00019174
Cs       5.27742507      11.28286713       4.43728677       10       0.00019205      -0.00007255       0.00002791
Cs      19.99448268      24.16423931      11.72418931       11       0.00016884      -0.00020543      -0.00020756
K       12.63817868      17.72462897       8.08113633       12      -0.00010061      -0.00026087      -0.00021909
In       1.84629874       8.07327963       2.38661570       13      -0.00006372      -0.00001229       0.00006808
I        9.61976163      15.87173506       8.60215435       14       0.00034076       0.00012524       0.00026493
I       15.65658067      19.57644085       7.55655362       15      -0.00009690       0.00000329       0.00010633
I       15.09873701      15.48593840       6.75878464       16      -0.00019471      -0.00016896      -0.00015351
I       10.17618148      19.96212316       9.40394491       17       0.00011532      -0.00014069      -0.00047373
I        6.59004801      15.64572406       5.31324550       18      -0.00031896       0.00008255      -0.00030875
I       18.68478997      19.80049974      10.84540783       19      -0.00010926       0.00017858       0.00001206
Cs      15.59033436       4.92896315       2.38815144       20      -0.00021619       0.00015987       0.00007595
Cs      30.30740079      17.81014142       9.67535408       21      -0.00023802       0.00021635       0.00003787
K       22.94663404      11.36844860       6.03126165       22       0.00001104       0.00027065       0.00025322
In      12.15648885       1.71960944       0.33929102       23      -0.00023237       0.00017539      -0.00002864
I       19.92832274       9.51652068       6.55627700       24      -0.00008160      -0.00011262      -0.00048502
I       25.96468346      13.22168619       5.51011100       25      -0.00000348      -0.00016861      -0.00037695
I       25.40847373       9.13125721       4.70803889       26      -0.00001723       0.00003776       0.00063201
I       20.48622319      13.60701192       7.35399594       27      -0.00007327       0.00022498       0.00024463
I       16.89966056       9.29291949       3.26691381       28       0.00014927      -0.00008098       0.00014044
I       28.99471017      13.44721403       8.79940309       29      -0.00002316      -0.00007626       0.00009570
Cs      17.43399000      13.00275928       4.77645651       30       0.00008404      -0.00031057      -0.00003580
Cs      32.15100420      25.88396600      12.06335891       31      -0.00002728      -0.00021782      -0.00010502
K       24.79449560      19.44412867       8.42034964       32       0.00017038      -0.00006216      -0.00027353
In      14.00258667       9.79300786       2.72587850       33       0.00026364       0.00027997      -0.00039121
I       21.77629547      17.59156106       8.94147905       34      -0.00019434      -0.00030843      -0.00008545
I       27.81302434      21.29605822       7.89574061       35      -0.00015246       0.00001677       0.00013986
I       27.25511715      17.20559673       7.09804064       36       0.00002874       0.00006666      -0.00046988
I       22.33277260      21.68178584       9.74305565       37      -0.00017845      -0.00005671      -0.00026758
I       18.74627201      17.36536366       5.65245082       38       0.00056844       0.00008980      -0.00002117
I       30.84130369      21.52017050      11.18449594       39      -0.00011990       0.00018604       0.00023924
