40
Lattice="18.44774337820856 0.548910171267449 0.5035960067059726 9.732045738890502 15.640138430994472 0.5052029051041734 4.900034194820697 2.809466549397887 7.34139809436724" Properties=species:S:1:pos:R:3:spacegroup_kinds:I:1:forces:R:3 spacegroup="P 1" unit_cell=conventional occupancy="_JSON {\"0\": {\"Cs\": 1.0}, \"1\": {\"Cs\": 1.0}, \"2\": {\"K\": 1.0}, \"3\": {\"In\": 1.0}, \"4\": {\"I\": 1.0}, \"5\": {\"I\": 1.0}, \"6\": {\"I\": 1.0}, \"7\": {\"I\": 1.0}, \"8\": {\"I\": 1.0}, \"9\": {\"I\": 1.0}, \"10\": {\"Cs\": 1.0}, \"11\": {\"Cs\": 1.0}, \"12\": {\"K\": 1.0}, \"13\": {\"In\": 1.0}, \"14\": {\"I\": 1.0}, \"15\": {\"I\": 1.0}, \"16\": {\"I\": 1.0}, \"17\": {\"I\": 1.0}, \"18\": {\"I\": 1.0}, \"19\": {\"I\": 1.0}, \"20\": {\"Cs\": 1.0}, \"21\": {\"Cs\": 1.0}, \"22\": {\"K\": 1.0}, \"23\": {\"In\": 1.0}, \"24\": {\"I\": 1.0}, \"25\": {\"I\": 1.0}, \"26\": {\"I\": 1.0}, \"27\": {\"I\": 1.0}, \"28\": {\"I\": 1.0}, \"29\": {\"I\": 1.0}, \"30\": {\"Cs\": 1.0}, \"31\": {\"Cs\": 1.0}, \"32\": {\"K\": 1.0}, \"33\": {\"In\": 1.0}, \"34\": {\"I\": 1.0}, \"35\": {\"I\": 1.0}, \"36\": {\"I\": 1.0}, \"37\": {\"I\": 1.0}, \"38\": {\"I\": 1.0}, \"39\": {\"I\": 1.0}}" energy=-102.57324046765427 free_energy=-102.57324046765427 stress="-4.6855734136617696e-06 6.1658347800013085e-06 -8.006217519626752e-06 6.1658347800013085e-06 -1.5786122224247e-05 -1.946025237142017e-06 -8.006217519626752e-06 -1.946025237142017e-06 1.6714856720012392e-05" pbc="T T T"
Cs       4.78214209       2.86331976       2.01984478        0      -0.00022332      -0.00025353       0.00005822
Cs      14.20848611       8.04101951       5.82606689        1      -0.00023467      -0.00010666      -0.00002170
K        9.49446895       5.45195772       3.92248622        2       0.00044685      -0.00009286       0.00005034
In      18.44741254       0.54898121       0.50356807        3       0.00016738      -0.00052160       0.00031548
I        6.90630402       3.46552612       5.27203918        4       0.00023655      -0.00020490      -0.00054801
I       12.08365689       7.43897980       2.57459120        5      -0.00025972      -0.00010811      -0.00048026
I       10.11005832       2.66367429       1.83986247        6      -0.00025069       0.00052639       0.00040588
I        8.88048247       8.23984482       6.00573769        7      -0.00031578       0.00032084       0.00025470
I        6.88684417       6.16175531       1.65198433        8       0.00008778      -0.00002107       0.00035685
I       12.10259249       4.74183681       6.19348283        9       0.00019191       0.00016312      -0.00017784
Cs       9.64816497      10.68337892       2.27245348       10      -0.00022438      -0.00017621       0.00001074
Cs      19.07450825      15.86109546       6.07866141       11      -0.00023032      -0.00016774       0.00002208
K       14.36049118      13.27201533       4.17509005       12       0.00044382      -0.00003770       0.00003738
In      23.31344699       8.36892429       0.75617084       13       0.00006226       0.00041209       0.00016243
I       11.77235042      11.28560937       5.52462375       14       0.00007769      -0.00029464      -0.00039240
I       16.94969110      15.25905006       2.82718126       15      -0.00026342      -0.00008676      -0.00048213
I       14.97611266      10.48380997       2.09250397       16      -0.00039254       0.00012550       0.00016835
I       13.74649270      16.05988800       6.25832593       17      -0.00024136       0.00054028       0.00037267
I       11.75289021      13.98180609       1.90460417       18      -0.00011085       0.00014620       0.00020055
I       16.96855797      12.56194634       6.44604251       19       0.00054628      -0.00012436       0.00009072
Cs      14.00601417       3.13777635       2.27164171       20      -0.00022270      -0.00026755       0.00006895
Cs      23.43236294       8.31547189       6.07786656       21      -0.00026225      -0.00008470      -0.00003261
K       18.71835611       5.72641256       4.17428420       22       0.00037599      -0.00008483       0.00005526
In       9.22350447       0.27448339       0.25179928       23       0.00042064      -0.00029051       0.00008733
I       16.13017421       3.73997903       5.52383486       24       0.00020417      -0.00020115      -0.00049942
I       21.30748774       7.71342002       2.82642518       25      -0.00002212      -0.00003381      -0.00071711
I       19.33393741       2.93814404       2.09167262       26      -0.00027230       0.00045954       0.00035822
I       18.10436655       8.51432028       6.25754835       27      -0.00036726       0.00022259       0.00018876
I       16.11069680       6.43622032       1.90377088       28       0.00017688      -0.00007602       0.00041084
I       21.32643973       5.01630618       6.44526411       29       0.00029897       0.00008183      -0.00009907
Cs      18.87203912      10.95783803       2.52424840       30      -0.00022551      -0.00019879       0.00002775
Cs      28.29838183      16.13554641       6.33046218       31      -0.00024964      -0.00014416       0.00001019
K       23.58437803      13.54647062       4.42688837       32       0.00037476      -0.00003228       0.00004029
In      14.08953764       8.09443509       0.50440683       33       0.00032729       0.00059340      -0.00009308
I       20.99622210      11.56006188       5.77641725       34       0.00002667      -0.00029525      -0.00032177
I       26.17352285      15.53349209       3.07901554       35      -0.00002052      -0.00001586      -0.00072852
I       24.19998932      10.75826964       2.34430565       36      -0.00040518       0.00010049       0.00015300
I       22.97038377      16.33438162       6.51015038       37      -0.00032192       0.00035562       0.00024550
I       20.97672531      14.25628014       2.15637799       38       0.00005188       0.00004242       0.00031153
I       26.19241922      12.83640850       6.69783347       39       0.00059871      -0.00016924       0.00012990
