80
Lattice="18.406311395865586 0.03356707177163098 0.007889607771143203 9.250330680905778 14.867633217257547 0.3932619860008657 9.237198420748644 5.320941860607353 15.075833362691482" Properties=species:S:1:pos:R:3:spacegroup_kinds:I:1:forces:R:3 spacegroup="P 1" unit_cell=conventional occupancy="_JSON {\"0\": {\"Cs\": 1.0}, \"1\": {\"Cs\": 1.0}, \"2\": {\"K\": 1.0}, \"3\": {\"In\": 1.0}, \"4\": {\"I\": 1.0}, \"5\": {\"I\": 1.0}, \"6\": {\"I\": 1.0}, \"7\": {\"I\": 1.0}, \"8\": {\"I\": 1.0}, \"9\": {\"I\": 1.0}, \"10\": {\"Cs\": 1.0}, \"11\": {\"Cs\": 1.0}, \"12\": {\"K\": 1.0}, \"13\": {\"In\": 1.0}, \"14\": {\"I\": 1.0}, \"15\": {\"I\": 1.0}, \"16\": {\"I\": 1.0}, \"17\": {\"I\": 1.0}, \"18\": {\"I\": 1.0}, \"19\": {\"I\": 1.0}, \"20\": {\"Cs\": 1.0}, \"21\": {\"Cs\": 1.0}, \"22\": {\"K\": 1.0}, \"23\": {\"In\": 1.0}, \"24\": {\"I\": 1.0}, \"25\": {\"I\": 1.0}, \"26\": {\"I\": 1.0}, \"27\": {\"I\": 1.0}, \"28\": {\"I\": 1.0}, \"29\": {\"I\": 1.0}, \"30\": {\"Cs\": 1.0}, \"31\": {\"Cs\": 1.0}, \"32\": {\"K\": 1.0}, \"33\": {\"In\": 1.0}, \"34\": {\"I\": 1.0}, \"35\": {\"I\": 1.0}, \"36\": {\"I\": 1.0}, \"37\": {\"I\": 1.0}, \"38\": {\"I\": 1.0}, \"39\": {\"I\": 1.0}, \"40\": {\"Cs\": 1.0}, \"41\": {\"Cs\": 1.0}, \"42\": {\"K\": 1.0}, \"43\": {\"In\": 1.0}, \"44\": {\"I\": 1.0}, \"45\": {\"I\": 1.0}, \"46\": {\"I\": 1.0}, \"47\": {\"I\": 1.0}, \"48\": {\"I\": 1.0}, \"49\": {\"I\": 1.0}, \"50\": {\"Cs\": 1.0}, \"51\": {\"Cs\": 1.0}, \"52\": {\"K\": 1.0}, \"53\": {\"In\": 1.0}, \"54\": {\"I\": 1.0}, \"55\": {\"I\": 1.0}, \"56\": {\"I\": 1.0}, \"57\": {\"I\": 1.0}, \"58\": {\"I\": 1.0}, \"59\": {\"I\": 1.0}, \"60\": {\"Cs\": 1.0}, \"61\": {\"Cs\": 1.0}, \"62\": {\"K\": 1.0}, \"63\": {\"In\": 1.0}, \"64\": {\"I\": 1.0}, \"65\": {\"I\": 1.0}, \"66\": {\"I\": 1.0}, \"67\": {\"I\": 1.0}, \"68\": {\"I\": 1.0}, \"69\": {\"I\": 1.0}, \"70\": {\"Cs\": 1.0}, \"71\": {\"Cs\": 1.0}, \"72\": {\"K\": 1.0}, \"73\": {\"In\": 1.0}, \"74\": {\"I\": 1.0}, \"75\": {\"I\": 1.0}, \"76\": {\"I\": 1.0}, \"77\": {\"I\": 1.0}, \"78\": {\"I\": 1.0}, \"79\": {\"I\": 1.0}}" energy=-205.19134453296363 free_energy=-205.19134453296363 stress="-7.785073321484108e-06 1.714369257180528e-06 -1.2364533434274599e-05 1.714369257180528e-06 5.564091628541944e-06 4.660137089568327e-06 -1.2364533434274599e-05 4.660137089568327e-06 3.756152074105685e-07" pbc="T T T"
Cs       4.62100620       2.70885889       1.87494669        0       0.00010637      -0.00001754       0.00074494
Cs      13.82550729       7.40292609       5.86103764        1       0.00029457      -0.00017148       0.00061047
K        9.22293708       5.05547074       3.86936487        2       0.00029011       0.00006888       0.00028556
In      18.40638059       0.03351486       0.00820514        3       0.00010328       0.00014695       0.00022318
I        7.52194030      -0.98326971       2.25035443        4       0.00030104       0.00022556      -0.00031122
I       10.92424997      11.09346480       5.48787975        5       0.00008707       0.00013197       0.00005056
I        9.91962933       2.40737329       1.62723366        6      -0.00018424       0.00028040      -0.00065268
I        8.52717570       7.70240073       6.11373478        7      -0.00001163       0.00032738      -0.00061791
I        6.98603798       6.00115819       1.30096852        8      -0.00057464      -0.00042460      -0.00012199
I       11.46257758       4.11148131       6.43739774        9      -0.00030314      -0.00049538      -0.00014444
Cs       9.23960283       5.36933034       9.41287514       10       0.00012612      -0.00001549       0.00065914
Cs      18.44410921      10.06339823      13.39894828       11       0.00027512      -0.00018090       0.00067041
K       13.84153511       7.71594521      11.40730108       12       0.00029549       0.00005388       0.00019562
In      23.02500661       2.69399803       7.54623107       13      -0.00012382       0.00007390      -0.00063527
I       12.14059095       1.67722445       9.78820699       14      -0.00001529       0.00004101       0.00009265
I       15.54284591      13.75393362      13.02579979       15       0.00018358       0.00019139      -0.00006694
I       14.53821333       5.06779324       9.16510365       16      -0.00009604       0.00061325      -0.00038373
I       13.14577227      10.36286245      13.65164623       17      -0.00002008       0.00030081      -0.00065950
I       11.60459123       8.66165106       8.83885760       18      -0.00031706      -0.00057806       0.00005198
I       16.08115868       6.77195985      13.97531090       19      -0.00026611      -0.00050725      -0.00016726
Cs       9.24616921      10.14267616       2.07157573       20       0.00012138      -0.00002436       0.00075835
Cs      18.45067351      14.83674197       6.05767016       21       0.00028690      -0.00016438       0.00059896
K       13.84810509      12.48928986       4.06599743       22       0.00027811       0.00005612       0.00027824
In      23.03156486       7.46735445       0.20483020       23      -0.00003920      -0.00005567       0.00027031
I       12.14710764       6.45054774       2.44698382       24       0.00029427       0.00022298      -0.00031034
I       15.54942450      18.52728546       5.68449885       25       0.00004446       0.00010645       0.00011133
I       14.54479256       9.84118276       1.82385920       26      -0.00017455       0.00031938      -0.00062815
I       13.15233827      15.13621021       6.31035945       27       0.00000003       0.00035930      -0.00059207
I       11.61119215      13.43498059       1.49759415       28      -0.00052464      -0.00045873      -0.00009579
I       16.08775062      11.54529317       6.63403216       29      -0.00033953      -0.00046571      -0.00016238
Cs      13.86477026      12.80314987       9.60950732       30       0.00011204      -0.00003860       0.00065404
Cs      23.06927399      17.49721221      13.59557835       31       0.00028171      -0.00015904       0.00067445
K       18.46669782      15.14976150      11.60392960       32       0.00030755       0.00005528       0.00020701
In      27.65015317      10.12782926       7.74285208       33       0.00002040      -0.00005225      -0.00055150
I       16.76575257       9.11103876       9.98484098       34       0.00002528       0.00006854       0.00005257
I       20.16801241      21.18775160      13.22243034       35       0.00015387       0.00016883      -0.00003736
I       19.16337434      12.50159583       9.36172358       36      -0.00006883       0.00071586      -0.00031502
I       17.77094323      17.79669677      13.84829153       37      -0.00005286       0.00017935      -0.00074251
I       16.22975577      16.09546803       9.03548793       38      -0.00027740      -0.00060082       0.00007384
I       20.70634062      14.20576898      14.17195026       39      -0.00037636      -0.00044624      -0.00022517
Cs      13.82416020       2.72564099       1.87889041       40       0.00011463      -0.00000563       0.00075331
Cs      23.02866304       7.41971080       5.86498339       41       0.00029376      -0.00018172       0.00060301
K       18.42609336       5.07225617       3.87331194       42       0.00028761       0.00005922       0.00027539
In       9.20325408       0.01673072       0.00425596       43      -0.00011907       0.00015069       0.00025280
I       16.72511521      -0.96647812       2.25427714       44       0.00019317       0.00016764      -0.00018609
I       20.12740010      11.11024600       5.49183043       45       0.00013113       0.00015509       0.00000421
I       19.12278113       2.42414334       1.63116712       46      -0.00017029       0.00034246      -0.00060778
I       17.73033026       7.71918277       6.11767852       47      -0.00000280       0.00034196      -0.00060835
I       16.18919459       6.01794151       1.30491330       48      -0.00058413      -0.00042229      -0.00012479
I       20.66572753       4.12826706       6.44133985       49      -0.00027050      -0.00050965      -0.00012821
Cs      18.44276146       5.38611456       9.41682127       50       0.00010497      -0.00001973       0.00065165
Cs      27.64726248      10.08018153      13.40289282       51       0.00029419      -0.00017882       0.00067286
K       23.04468622       7.73272782      11.41124438       52       0.00031605       0.00005835       0.00020216
In      13.82184287       2.67720420       7.54227744       53      -0.00006397       0.00016356      -0.00056621
I       21.34374182       1.69400537       9.79215692       54       0.00000851       0.00005857       0.00006874
I       24.74600341      13.77071839      13.02974346       55       0.00017445       0.00018252      -0.00006301
I       23.74136922       5.08457498       9.16904726       56      -0.00009277       0.00064616      -0.00036209
I       22.34892921      10.37965152      13.65559515       57      -0.00002984       0.00024853      -0.00069388
I       20.80774061       8.67843733       8.84279968       58      -0.00026130      -0.00060737       0.00007885
I       25.28433962       6.78873200      13.97926748       59      -0.00041163      -0.00042797      -0.00023909
Cs      18.44932734      10.15946001       2.07552107       60       0.00010242      -0.00002675       0.00075462
Cs      27.65382748      14.85352543       6.06161512       61       0.00030246      -0.00016282       0.00059972
K       23.05125634      12.50607262       4.06994055       62       0.00029811       0.00005970       0.00028607
In      13.82840313       7.45056109       0.20087588       63       0.00000877       0.00003163       0.00034387
I       21.35026430       6.46733121       2.45092671       64       0.00029152       0.00022533      -0.00030074
I       24.75257735      18.54406821       5.68844805       65       0.00005521       0.00010880       0.00009072
I       23.74794722       9.85795966       1.82779835       66      -0.00016578       0.00037601      -0.00058763
I       22.35549664      15.15300447       6.31431335       67      -0.00001606       0.00028178      -0.00064775
I       20.81435399      13.45176117       1.50154149       68      -0.00052294      -0.00045813      -0.00009346
I       25.29091607      11.56207246       6.63798216       69      -0.00041222      -0.00042713      -0.00020130
Cs      23.06792558      12.81993225       9.61345100       70       0.00011439      -0.00002846       0.00066224
Cs      32.27242817      17.51399715      13.59952452       71       0.00028809      -0.00017086       0.00066499
K       27.66985403      15.16654688      11.60787675       72       0.00030540       0.00004598       0.00019629
In      18.44702226      10.11104580       7.73890404       73      -0.00017505      -0.00005313      -0.00052854
I       25.96891514       9.12782492       9.98877956       74      -0.00002649       0.00004288       0.00010279
I       29.37117314      21.20453730      13.22636763       75       0.00015246       0.00016684      -0.00002420
I       28.36653090      12.51838076       9.36566977       76      -0.00007595       0.00070401      -0.00032447
I       26.97409319      17.81346407      13.85222258       77      -0.00002400       0.00026691      -0.00067889
I       25.43290969      16.11225281       9.03943209       78      -0.00027513      -0.00060591       0.00007418
I       29.90949406      14.22255277      14.17589331       79      -0.00036069      -0.00044919      -0.00021435
