80
Lattice="17.046365958917526 0.0 0.0 8.523182979530501 14.762585962587758 0.0 8.523182979668308 4.9208619876362265 13.918299904738095" Properties=species:S:1:pos:R:3 pbc="T T T"
Cs       4.26148889       2.46040023       1.73979255
Cs      12.78487682       7.38132296       5.21935690
K        8.52318283       4.92086156       3.47957469
In       0.00000017       0.00000065       0.00000027
I        7.26150456       2.16271585       3.57729470
I        9.78486116       7.67900672       3.38185466
I       10.56104957       3.72831619       1.61721827
I        6.48531499       6.11340630       5.34193098
I        6.24277058       6.23785085       1.61723975
I       10.80359594       3.60387423       5.34191072
Cs       8.52308038       4.92083123       8.69894250
Cs      17.04646831       9.84175396      12.17850685
K       12.78477431       7.38129256      10.43872464
In       4.26159166       2.46043164       6.95915022
I       11.52309605       4.62314685      10.53644466
I       14.04645265      10.13943771      10.34100461
I       14.82264106       6.18874718       8.57636822
I       10.74690648       8.57383730      12.30108093
I       10.50436207       8.69828185       8.57638970
I       15.06518743       6.06430522      12.30106067
Cs       8.52308038       9.84169321       1.73979255
Cs      17.04646831      14.76261594       5.21935690
K       12.78477431      12.30215454       3.47957469
In       4.26159166       7.38129363       0.00000027
I       11.52309605       9.54400884       3.57729470
I       14.04645265      15.06029970       3.38185466
I       14.82264106      11.10960917       1.61721827
I       10.74690648      13.49469928       5.34193098
I       10.50436207      13.61914383       1.61723975
I       15.06518743      10.98516721       5.34191072
Cs      12.78467187      12.30212421       8.69894250
Cs      21.30805980      17.22304694      12.17850685
K       17.04636580      14.76258554      10.43872464
In       8.52318315       9.84172462       6.95915022
I       15.78468754      12.00443983      10.53644466
I       18.30804414      17.52073069      10.34100461
I       19.08423255      13.57004016       8.57636822
I       15.00849797      15.95513028      12.30108093
I       14.76595356      16.07957483       8.57638970
I       19.32677892      13.44559820      12.30106067
Cs      12.78467187       2.46040023       1.73979255
Cs      21.30805980       7.38132296       5.21935690
K       17.04636580       4.92086156       3.47957469
In       8.52318315       0.00000065       0.00000027
I       15.78468754       2.16271585       3.57729470
I       18.30804414       7.67900672       3.38185466
I       19.08423255       3.72831619       1.61721827
I       15.00849797       6.11340630       5.34193098
I       14.76595356       6.23785085       1.61723975
I       19.32677892       3.60387423       5.34191072
Cs      17.04626336       4.92083123       8.69894250
Cs      25.56965129       9.84175396      12.17850685
K       21.30795729       7.38129256      10.43872464
In      12.78477464       2.46043164       6.95915022
I       20.04627903       4.62314685      10.53644466
I       22.56963563      10.13943771      10.34100461
I       23.34582404       6.18874718       8.57636822
I       19.27008946       8.57383730      12.30108093
I       19.02754505       8.69828185       8.57638970
I       23.58837041       6.06430522      12.30106067
Cs      17.04626336       9.84169321       1.73979255
Cs      25.56965129      14.76261594       5.21935690
K       21.30795729      12.30215454       3.47957469
In      12.78477464       7.38129363       0.00000027
I       20.04627903       9.54400884       3.57729470
I       22.56963563      15.06029970       3.38185466
I       23.34582404      11.10960917       1.61721827
I       19.27008946      13.49469928       5.34193098
I       19.02754505      13.61914383       1.61723975
I       23.58837041      10.98516721       5.34191072
Cs      21.30785485      12.30212421       8.69894250
Cs      29.83124278      17.22304694      12.17850685
K       25.56954878      14.76258554      10.43872464
In      17.04636613       9.84172462       6.95915022
I       24.30787052      12.00443983      10.53644466
I       26.83122712      17.52073069      10.34100461
I       27.60741553      13.57004016       8.57636822
I       23.53168095      15.95513028      12.30108093
I       23.28913654      16.07957483       8.57638970
I       27.84996190      13.44559820      12.30106067
