5
Lattice="6.360438914517985 0.5221891117051912 -0.25320400922031805 -0.5376189857407584 6.350818359445579 -0.41586029013257314 0.21638507590626183 0.4355579448870736 6.368638461502148" Properties=species:S:1:pos:R:3:spacegroup_kinds:I:1:forces:R:3 spacegroup="P 1" unit_cell=conventional occupancy="_JSON {\"0\": {\"Cs\": 1.0}, \"1\": {\"Pb\": 1.0}, \"2\": {\"I\": 1.0}, \"3\": {\"I\": 1.0}, \"4\": {\"I\": 1.0}}" energy=-13.980742255451553 free_energy=-13.980742255451553 stress="-6.288285718176336e-06 3.198115369296978e-07 -4.434844069483763e-06 3.198115369296978e-07 3.3222377269472225e-07 4.781641511912911e-07 -4.434844069483763e-06 4.781641511912911e-07 2.904931862225917e-06" pbc="T T T"
Cs       3.01969745       3.65416587       2.84976931        0       0.00000719      -0.00000830      -0.00000172
Pb       0.00000947      -0.00001413      -0.00000000        1       0.00000070       0.00000366       0.00000083
I        0.10816394       0.21780831       3.18432140        2      -0.00000232       0.00000421      -0.00000096
I        3.18022003       0.26111586      -0.12658509        3      -0.00000348       0.00000493       0.00000007
I        6.09161254       3.69759705      -0.46113192        4      -0.00000210      -0.00000450       0.00000177
