10
Lattice="15.450791769675547 0.03414618536883356 -2.111558533830598 9.33932456273673 7.977001806898578 -0.6468973732113099 1.504124869771427 8.163079802637089 5.467691466178395" Properties=species:S:1:pos:R:3:spacegroup_kinds:I:1:forces:R:3 spacegroup="P 1" unit_cell=conventional occupancy="_JSON {\"0\": {\"Cs\": 1.0}, \"1\": {\"Cs\": 1.0}, \"2\": {\"K\": 1.0}, \"3\": {\"In\": 1.0}, \"4\": {\"I\": 1.0}, \"5\": {\"I\": 1.0}, \"6\": {\"I\": 1.0}, \"7\": {\"I\": 1.0}, \"8\": {\"I\": 1.0}, \"9\": {\"I\": 1.0}}" energy=-25.653522362730033 free_energy=-25.653522362730033 stress="-1.034321181054688e-06 -2.1654264839866239e-07 -6.231035775048827e-07 -2.1654264839866239e-07 1.8725613040312653e-07 -5.674768635399816e-07 -6.231035775048827e-07 -5.674768635399816e-07 9.716077939088555e-08" pbc="T T T"
Cs       9.60638413       2.61015955      -0.38636139        0      -0.00004562      -0.00004581      -0.00002182
Cs      16.68805042      13.56411276       3.09576061        1      -0.00000177      -0.00001152       0.00003374
K       13.14705331       8.08673499       1.35460922        2       0.00005077       0.00011000       0.00005822
In      -0.00003810       0.00010153       0.00000155        3       0.00003062       0.00001484       0.00008963
I        7.31368554       5.80891832      -0.19114007        4      -0.00003451      -0.00000122      -0.00003530
I       18.98067706      10.36535433       2.90066052        5      -0.00006800       0.00001487      -0.00012040
I        1.06139725       7.92684013       2.50173925        6      -0.00001495       0.00000416      -0.00011933
I       25.23285774       8.24753552       0.20758228        7      -0.00013804      -0.00004789      -0.00016760
I       11.52187924       5.91853054      -0.86518008        8       0.00012402      -0.00002239       0.00017665
I       14.77213534      10.25573554       3.57388662        9       0.00009748      -0.00001505       0.00010622
