80
Lattice="19.737897426115055 0.0 0.0 9.868948713140634 17.093520588259373 0.0 9.868948713300153 5.697840196210464 16.115926205486193" Properties=species:S:1:pos:R:3 pbc="T T T"
Cs       4.93429192       2.84886540       2.01450018
Cs      14.80360509       8.54681361       6.04346202
K        9.86894838       5.69783941       4.02898099
In       0.00000027       0.00000113       0.00000047
I        9.04030171       1.61001038       3.04743249
I       10.69759516       9.78566744       5.01052948
I       13.49285339       5.21102804       1.87250554
I        6.24504143       6.18464965       6.18545624
I        7.22870378       7.22288360       1.87254374
I       12.50919452       4.17279867       6.18542021
Cs       9.86876628       5.69778550      10.07246328
Cs      19.73807944      11.39573371      14.10142513
K       14.80342273       8.54675950      12.08694409
In       4.93447462       2.84892123       8.05796357
I       13.97477607       4.45893047      11.10539559
I       15.63206951      12.63458754      13.06849259
I       18.42732774       8.05994814       9.93046864
I       11.17951578       9.03356975      14.24341935
I       12.16317814      10.07180370       9.93050684
I       17.44366887       7.02171877      14.24338331
Cs       9.86876628      11.39562569       2.01450018
Cs      19.73807944      17.09357390       6.04346202
K       14.80342273      14.24459970       4.02898099
In       4.93447462       8.54676142       0.00000047
I       13.97477607      10.15677067       3.04743249
I       15.63206951      18.33242774       5.01052948
I       18.42732774      13.75778833       1.87250554
I       11.17951578      14.73140995       6.18545624
I       12.16317814      15.76964389       1.87254374
I       17.44366887      12.71955896       6.18542021
Cs      14.80324063      14.24454579      10.07246328
Cs      24.67255380      19.94249400      14.10142513
K       19.73789709      17.09351980      12.08694409
In       9.86894898      11.39568152       8.05796357
I       18.90925042      13.00569077      11.10539559
I       20.56654387      21.18134783      13.06849259
I       23.36180210      16.60670843       9.93046864
I       16.11399014      17.58033004      14.24341935
I       17.09765250      18.61856399       9.93050684
I       22.37814323      15.56847906      14.24338331
Cs      14.80324063       2.84886540       2.01450018
Cs      24.67255380       8.54681361       6.04346202
K       19.73789709       5.69783941       4.02898099
In       9.86894898       0.00000113       0.00000047
I       18.90925042       1.61001038       3.04743249
I       20.56654387       9.78566744       5.01052948
I       23.36180210       5.21102804       1.87250554
I       16.11399014       6.18464965       6.18545624
I       17.09765250       7.22288360       1.87254374
I       22.37814323       4.17279867       6.18542021
Cs      19.73771499       5.69778550      10.07246328
Cs      29.60702816      11.39573371      14.10142513
K       24.67237145       8.54675950      12.08694409
In      14.80342334       2.84892123       8.05796357
I       23.84372478       4.45893047      11.10539559
I       25.50101823      12.63458754      13.06849259
I       28.29627646       8.05994814       9.93046864
I       21.04846450       9.03356975      14.24341935
I       22.03212685      10.07180370       9.93050684
I       27.31261759       7.02171877      14.24338331
Cs      19.73771499      11.39562569       2.01450018
Cs      29.60702816      17.09357390       6.04346202
K       24.67237145      14.24459970       4.02898099
In      14.80342334       8.54676142       0.00000047
I       23.84372478      10.15677067       3.04743249
I       25.50101823      18.33242774       5.01052948
I       28.29627646      13.75778833       1.87250554
I       21.04846450      14.73140995       6.18545624
I       22.03212685      15.76964389       1.87254374
I       27.31261759      12.71955896       6.18542021
Cs      24.67218935      14.24454579      10.07246328
Cs      34.54150251      19.94249400      14.10142513
K       29.60684580      17.09351980      12.08694409
In      19.73789769      11.39568152       8.05796357
I       28.77819914      13.00569077      11.10539559
I       30.43549258      21.18134783      13.06849259
I       33.23075081      16.60670843       9.93046864
I       25.98293885      17.58033004      14.24341935
I       26.96660121      18.61856399       9.93050684
I       32.24709194      15.56847906      14.24338331
