40
Lattice="12.423943860451967 0.17991857420930119 3.0717013054660205 -0.7325112867120047 12.721830161574122 1.4379606035518016 -3.0238174904117585 -1.5689562670093014 12.324395011890733" Properties=species:S:1:pos:R:3:spacegroup_kinds:I:1:forces:R:3 spacegroup="P 1" unit_cell=conventional occupancy="_JSON {\"0\": {\"Cs\": 1.0}, \"1\": {\"Pb\": 1.0}, \"2\": {\"I\": 1.0}, \"3\": {\"I\": 1.0}, \"4\": {\"I\": 1.0}, \"5\": {\"Cs\": 1.0}, \"6\": {\"Pb\": 1.0}, \"7\": {\"I\": 1.0}, \"8\": {\"I\": 1.0}, \"9\": {\"I\": 1.0}, \"10\": {\"Cs\": 1.0}, \"11\": {\"Pb\": 1.0}, \"12\": {\"I\": 1.0}, \"13\": {\"I\": 1.0}, \"14\": {\"I\": 1.0}, \"15\": {\"Cs\": 1.0}, \"16\": {\"Pb\": 1.0}, \"17\": {\"I\": 1.0}, \"18\": {\"I\": 1.0}, \"19\": {\"I\": 1.0}, \"20\": {\"Cs\": 1.0}, \"21\": {\"Pb\": 1.0}, \"22\": {\"I\": 1.0}, \"23\": {\"I\": 1.0}, \"24\": {\"I\": 1.0}, \"25\": {\"Cs\": 1.0}, \"26\": {\"Pb\": 1.0}, \"27\": {\"I\": 1.0}, \"28\": {\"I\": 1.0}, \"29\": {\"I\": 1.0}, \"30\": {\"Cs\": 1.0}, \"31\": {\"Pb\": 1.0}, \"32\": {\"I\": 1.0}, \"33\": {\"I\": 1.0}, \"34\": {\"I\": 1.0}, \"35\": {\"Cs\": 1.0}, \"36\": {\"Pb\": 1.0}, \"37\": {\"I\": 1.0}, \"38\": {\"I\": 1.0}, \"39\": {\"I\": 1.0}}" energy=-111.87535565902486 free_energy=-111.87535565902486 stress="9.739944475010185e-06 3.5105840933269303e-06 6.710580960231362e-06 3.5105840933269303e-06 1.4643554882962943e-06 -8.065066403494949e-07 6.710580960231362e-06 -8.065066403494949e-07 -1.0413593836056355e-05" pbc="T T T"
Cs       2.35950465       2.51024280       4.21491939        0      -0.00004574      -0.00003102       0.00004390
Pb      -0.00351247      -0.00082811      -0.00094310        1      -0.00047795       0.00012107      -0.00005754
I       -0.77601271      -0.25754776       3.09327954        2       0.00002797      -0.00007447      -0.00004663
I        3.07076664       0.18751216       0.77743506        3       0.00001222       0.00015234      -0.00005654
I       12.10738752       3.40672429       3.40412358        4       0.00001914      -0.00020007      -0.00001218
Cs       0.84762503       1.72576241      10.37721137        5      -0.00004072      -0.00001895       0.00000269
Pb      -1.51545798      -0.78529160       6.16126396        6      -0.00026038       0.00018480      -0.00003950
I       -2.28791690      -1.04202757       9.25547848        7       0.00001401      -0.00007919      -0.00001405
I        1.55890459      -0.59697332       6.93966888        8      -0.00009903       0.00013939      -0.00007428
I       10.59547446       2.62221149       9.56630535        9       0.00003256      -0.00006789       0.00003629
Cs       1.99324204       8.87116986       4.93392153       10      -0.00003389      -0.00005340       0.00002204
Pb      -0.36985429       6.36010370       0.71792648       11      -0.00022469       0.00003835       0.00039089
I       -1.14225813       6.10336093       3.81230536       12       0.00006554      -0.00004517      -0.00018719
I        2.70448560       6.54837220       1.49633319       13       0.00014784       0.00016350      -0.00001082
I       -0.68278471       9.58771445       1.05142451       14       0.00003326      -0.00016012      -0.00000574
Cs       0.48136553       8.08668752      11.09621269       15      -0.00001771      -0.00003396       0.00001168
Pb      10.54220313       5.75559205       9.95201583       16      -0.00030180      -0.00006276      -0.00043486
I       -2.65415338       5.31888286       9.97445543       17      -0.00001319      -0.00006550       0.00006757
I        1.19268298       5.76390489       7.65865165       18      -0.00005105       0.00015150      -0.00005151
I       10.22924401       8.98313787      10.28531137       19       0.00004996      -0.00013881       0.00002776
Cs       8.57145775       2.60019836       5.75076116       20      -0.00003246      -0.00005180       0.00005243
Pb       6.20826825       0.08922922       1.53483114       21       0.00033520      -0.00009860       0.00023141
I        5.43593951      -0.16756913       4.62902944       22      -0.00004577      -0.00014079       0.00010610
I        9.28271396       0.27741643       2.31324371       23       0.00015634       0.00016978      -0.00001203
I        5.89541409       3.31659818       1.86821176       24       0.00000533       0.00020458       0.00002263
Cs       7.05957090       1.81573130      11.91304900       25      -0.00002821      -0.00005663      -0.00000554
Pb       4.69637459      -0.69521043       7.69712119       26       0.00028988      -0.00016797      -0.00018152
I        3.92403174      -0.95203812      10.79125767       27      -0.00001261      -0.00012881      -0.00000228
I        7.77083799      -0.50706050       8.47545911       28       0.00012666       0.00016339      -0.00000162
I        4.38349782       2.53208542       8.03039225       29       0.00000606       0.00028194       0.00004630
Cs       8.20521348       8.96113448       6.46976239       30      -0.00003437      -0.00005727       0.00005388
Pb       5.84204060       6.45012820       2.25385429       31       0.00008425      -0.00006438      -0.00006325
I        5.06967923       6.19333600       5.34793956       32      -0.00007865      -0.00016015       0.00028484
I        8.91646897       6.63836425       3.03226328       33       0.00001002       0.00017783      -0.00006231
I        5.52915124       9.67755025       2.58723079       34      -0.00000483      -0.00001643      -0.00001930
Cs       6.69332279       8.17666222      12.63203984       35      -0.00004965      -0.00003188      -0.00000870
Pb       4.33003080       5.66567827       8.41603196       36       0.00055343      -0.00007376       0.00007143
I        3.55776132       5.40886628      11.51021743       37       0.00002337      -0.00012040      -0.00005995
I        7.40465048       5.85388597       9.19449480       38      -0.00015649       0.00016075      -0.00007911
I        4.01722368       8.89303439       8.74939127       39       0.00001615       0.00009095       0.00001461
