40
Lattice="11.093825128138478 0.0 0.0 -1.1724372936773757 12.60076518075347 0.0 -5.023856919393928 -2.2403801003051615 9.59985662123601" Properties=species:S:1:pos:R:3:oxi_states:R:1 pbc="T T T"
Cs       1.22463861       2.58984038       2.39996416       1.00000000
Pb      -0.00000000      -0.00000000       0.00000000       2.00000000
I       -1.25596423      -0.56009503       2.39996416      -1.00000000
I        2.77345628       0.00000000      -0.00000000      -1.00000000
I       -0.29310932       3.15019130       0.00000000      -1.00000000
Cs      -1.28728985       1.46965033       7.19989247       1.00000000
Pb      -2.51192846      -1.12019005       4.79992831       2.00000000
I       -3.76789269      -1.68028508       7.19989247      -1.00000000
I        0.26152782      -1.12019005       4.79992831      -1.00000000
I       -2.80503778       2.03000125       4.79992831      -1.00000000
Cs       0.63841997       8.89022297       2.39996416       1.00000000
Pb      -0.58621865       6.30038259       0.00000000       2.00000000
I       -1.84218288       5.74028757       2.39996416      -1.00000000
I        2.18723764       6.30038259      -0.00000000      -1.00000000
I       -0.87932797       9.45057389       0.00000000      -1.00000000
Cs      -1.87350849       7.77003292       7.19989247       1.00000000
Pb      -3.09814711       5.18019254       4.79992831       2.00000000
I       -4.35411134       4.62009752       7.19989247      -1.00000000
I       -0.32469082       5.18019254       4.79992831      -1.00000000
I       -3.39125643       8.33038384       4.79992831      -1.00000000
Cs       6.77155118       2.58984038       2.39996416       1.00000000
Pb       5.54691256      -0.00000000       0.00000000       2.00000000
I        4.29094833      -0.56009503       2.39996416      -1.00000000
I        8.32036885       0.00000000      -0.00000000      -1.00000000
I        5.25380324       3.15019130       0.00000000      -1.00000000
Cs       4.25962272       1.46965033       7.19989247       1.00000000
Pb       3.03498410      -1.12019005       4.79992831       2.00000000
I        1.77901987      -1.68028508       7.19989247      -1.00000000
I        5.80844039      -1.12019005       4.79992831      -1.00000000
I        2.74187478       2.03000125       4.79992831      -1.00000000
Cs       6.18533253       8.89022297       2.39996416       1.00000000
Pb       4.96069392       6.30038259       0.00000000       2.00000000
I        3.70472969       5.74028757       2.39996416      -1.00000000
I        7.73415020       6.30038259      -0.00000000      -1.00000000
I        4.66758459       9.45057389       0.00000000      -1.00000000
Cs       3.67340407       7.77003292       7.19989247       1.00000000
Pb       2.44876546       5.18019254       4.79992831       2.00000000
I        1.19280123       4.62009752       7.19989247      -1.00000000
I        5.22222174       5.18019254       4.79992831      -1.00000000
I        2.15565613       8.33038384       4.79992831      -1.00000000
