20
Lattice="12.773808800361198 -1.2515120037252468e-08 1.8005436978457815e-16 -1.2515120036615347e-08 12.773808800361461 1.6162194046185752e-17 9.046336077742124e-17 8.349015640411063e-18 6.386904399342324" Properties=species:S:1:pos:R:3:spacegroup_kinds:I:1:forces:R:3 spacegroup="P 1" unit_cell=conventional occupancy="_JSON {\"0\": {\"Cs\": 1.0}, \"1\": {\"Pb\": 1.0}, \"2\": {\"I\": 1.0}, \"3\": {\"I\": 1.0}, \"4\": {\"I\": 1.0}, \"5\": {\"Cs\": 1.0}, \"6\": {\"Pb\": 1.0}, \"7\": {\"I\": 1.0}, \"8\": {\"I\": 1.0}, \"9\": {\"I\": 1.0}, \"10\": {\"Cs\": 1.0}, \"11\": {\"Pb\": 1.0}, \"12\": {\"I\": 1.0}, \"13\": {\"I\": 1.0}, \"14\": {\"I\": 1.0}, \"15\": {\"Cs\": 1.0}, \"16\": {\"Pb\": 1.0}, \"17\": {\"I\": 1.0}, \"18\": {\"I\": 1.0}, \"19\": {\"I\": 1.0}}" energy=-55.92296941239484 free_energy=-55.92296941239484 stress="-7.48914738598257e-06 -5.3551049936636554e-11 -3.683945301292895e-18 -5.3551049936636554e-11 -7.4891473829522016e-06 -2.6476845161351407e-18 -3.683945301292895e-18 -2.6476845161351407e-18 -7.4891580017182744e-06" pbc="T T T"
Cs       3.19351521       3.19338918       3.19345220        0      -0.00000377       0.00000377       0.00000000
Pb       0.00001254      -0.00001254      -0.00000000        1      -0.00000048       0.00000048      -0.00000000
I        0.00005898      -0.00005898       3.19345220        2      -0.00000934       0.00000934      -0.00000000
I        3.19346803      -0.00005899      -0.00000000        3       0.00002292       0.00000934       0.00000000
I        0.00005898       3.19343637      -0.00000000        4      -0.00000934      -0.00002292       0.00000000
Cs       3.19351520       9.58029358       3.19345220        5      -0.00000377       0.00000377       0.00000000
Pb       0.00001254       6.38689186      -0.00000000        6      -0.00000048       0.00000048      -0.00000000
I        0.00005898       6.38684542       3.19345220        7      -0.00000934       0.00000934      -0.00000000
I        3.19346803       6.38684541      -0.00000000        8       0.00002292       0.00000934       0.00000000
I        0.00005897       9.58034077      -0.00000000        9      -0.00000934      -0.00002292       0.00000000
Cs       9.58041961       3.19338918       3.19345220       10      -0.00000377       0.00000377       0.00000000
Pb       6.38691694      -0.00001255      -0.00000000       11      -0.00000048       0.00000048      -0.00000000
I        6.38696338      -0.00005899       3.19345220       12      -0.00000934       0.00000934      -0.00000000
I        9.58037243      -0.00005899      -0.00000000       13       0.00002292       0.00000934       0.00000000
I        6.38696338       3.19343636      -0.00000000       14      -0.00000934      -0.00002292       0.00000000
Cs       9.58041960       9.58029358       3.19345220       15      -0.00000377       0.00000377       0.00000000
Pb       6.38691694       6.38689185      -0.00000000       16      -0.00000048       0.00000048      -0.00000000
I        6.38696338       6.38684541       3.19345220       17      -0.00000934       0.00000934      -0.00000000
I        9.58037243       6.38684541      -0.00000000       18       0.00002292       0.00000934       0.00000000
I        6.38696337       9.58034076      -0.00000000       19      -0.00000934      -0.00002292       0.00000000
