80
Lattice="19.67193763678068 0.0 0.0 -0.80210836424498 15.65772857857562 0.0 -6.725805921399987 -5.412598938481546 14.409084081662781" Properties=species:S:1:pos:R:3 pbc="T T T"
Cs       3.82694535       2.76552040       0.02281577
Cs      -2.92688222       2.68607722       7.18147624
K       -4.26738427      -1.18858852       3.60226262
In      -2.58598764       0.16453614       0.00008876
I       -3.34230810       1.68465643       1.44121855
I        4.24234865       3.76712517       5.76333639
I       -2.79096308       0.04342824       5.76339193
I        3.69099184       5.40802402       1.44127409
I       -1.09092740       7.43449623       1.44123915
I        1.99101897      -1.98289560       5.76335699
Cs       0.46404239       0.05922093       7.22735781
Cs      -6.28978518      -0.02022225      14.38601828
K       -7.63028723      -3.89488799      10.80680466
In      -5.94889061      -2.54176333       7.20463080
I       -6.70521106      -1.02164304       8.64576059
I        0.87944569       1.06082570      12.96787843
I       -6.15386604      -2.66287123      12.96793397
I        0.32808888       2.70172455       8.64581613
I       -4.45383036       4.72819676       8.64578119
I       -1.37188399      -4.68919507      12.96789903
Cs       3.42589117      10.59438469       0.02281577
Cs      -3.32793640      10.51494151       7.18147624
K       -4.66843845       6.64027577       3.60226262
In      -2.98704183       7.99340043       0.00008876
I       -3.74336228       9.51352071       1.44121855
I        3.84129447      11.59598946       5.76333639
I       -3.19201726       7.87229253       5.76339193
I        3.28993766      13.23688831       1.44127409
I       -1.49198158      15.26336052       1.44123915
I        1.58996479       5.84596869       5.76335699
Cs       0.06298821       7.88808522       7.22735781
Cs      -6.69083936       7.80864204      14.38601828
K       -8.03134141       3.93397630      10.80680466
In      -6.34994479       5.28710096       7.20463080
I       -7.10626524       6.80722125       8.64576059
I        0.47839151       8.88968999      12.96787843
I       -6.55492022       5.16599306      12.96793397
I       -0.07296530      10.53058884       8.64581613
I       -4.85488454      12.55706105       8.64578119
I       -1.77293817       3.13966922      12.96789903
Cs      13.66291417       2.76552040       0.02281577
Cs       6.90908660       2.68607722       7.18147624
K        5.56858455      -1.18858852       3.60226262
In       7.24998117       0.16453614       0.00008876
I        6.49366072       1.68465643       1.44121855
I       14.07831747       3.76712517       5.76333639
I        7.04500574       0.04342824       5.76339193
I       13.52696066       5.40802402       1.44127409
I        8.74504142       7.43449623       1.44123915
I       11.82698779      -1.98289560       5.76335699
Cs      10.30001121       0.05922093       7.22735781
Cs       3.54618364      -0.02022225      14.38601828
K        2.20568159      -3.89488799      10.80680466
In       3.88707821      -2.54176333       7.20463080
I        3.13075776      -1.02164304       8.64576059
I       10.71541451       1.06082570      12.96787843
I        3.68210278      -2.66287123      12.96793397
I       10.16405770       2.70172455       8.64581613
I        5.38213846       4.72819676       8.64578119
I        8.46408483      -4.68919507      12.96789903
Cs      13.26185999      10.59438469       0.02281577
Cs       6.50803242      10.51494151       7.18147624
K        5.16753037       6.64027577       3.60226262
In       6.84892699       7.99340043       0.00008876
I        6.09260654       9.51352071       1.44121855
I       13.67726329      11.59598946       5.76333639
I        6.64395156       7.87229253       5.76339193
I       13.12590648      13.23688831       1.44127409
I        8.34398724      15.26336052       1.44123915
I       11.42593361       5.84596869       5.76335699
Cs       9.89895703       7.88808522       7.22735781
Cs       3.14512946       7.80864204      14.38601828
K        1.80462740       3.93397630      10.80680466
In       3.48602403       5.28710096       7.20463080
I        2.72970358       6.80722125       8.64576059
I       10.31436033       8.88968999      12.96787843
I        3.28104860       5.16599306      12.96793397
I        9.76300352      10.53058884       8.64581613
I        4.98108428      12.55706105       8.64578119
I        8.06303065       3.13966922      12.96789903
