80
Lattice="19.413147340824217 -3.3647891205609017 0.13926331019349267 -3.613697049823348 16.55356339324376 -0.002485306328551187 -5.65420282927825 -4.556829961668702 15.333351495985886" Properties=species:S:1:pos:R:3:spacegroup_kinds:I:1:forces:R:3 spacegroup="P 1" unit_cell=conventional occupancy="_JSON {\"0\": {\"Cs\": 1.0}, \"1\": {\"Cs\": 1.0}, \"2\": {\"K\": 1.0}, \"3\": {\"In\": 1.0}, \"4\": {\"I\": 1.0}, \"5\": {\"I\": 1.0}, \"6\": {\"I\": 1.0}, \"7\": {\"I\": 1.0}, \"8\": {\"I\": 1.0}, \"9\": {\"I\": 1.0}, \"10\": {\"Cs\": 1.0}, \"11\": {\"Cs\": 1.0}, \"12\": {\"K\": 1.0}, \"13\": {\"In\": 1.0}, \"14\": {\"I\": 1.0}, \"15\": {\"I\": 1.0}, \"16\": {\"I\": 1.0}, \"17\": {\"I\": 1.0}, \"18\": {\"I\": 1.0}, \"19\": {\"I\": 1.0}, \"20\": {\"Cs\": 1.0}, \"21\": {\"Cs\": 1.0}, \"22\": {\"K\": 1.0}, \"23\": {\"In\": 1.0}, \"24\": {\"I\": 1.0}, \"25\": {\"I\": 1.0}, \"26\": {\"I\": 1.0}, \"27\": {\"I\": 1.0}, \"28\": {\"I\": 1.0}, \"29\": {\"I\": 1.0}, \"30\": {\"Cs\": 1.0}, \"31\": {\"Cs\": 1.0}, \"32\": {\"K\": 1.0}, \"33\": {\"In\": 1.0}, \"34\": {\"I\": 1.0}, \"35\": {\"I\": 1.0}, \"36\": {\"I\": 1.0}, \"37\": {\"I\": 1.0}, \"38\": {\"I\": 1.0}, \"39\": {\"I\": 1.0}, \"40\": {\"Cs\": 1.0}, \"41\": {\"Cs\": 1.0}, \"42\": {\"K\": 1.0}, \"43\": {\"In\": 1.0}, \"44\": {\"I\": 1.0}, \"45\": {\"I\": 1.0}, \"46\": {\"I\": 1.0}, \"47\": {\"I\": 1.0}, \"48\": {\"I\": 1.0}, \"49\": {\"I\": 1.0}, \"50\": {\"Cs\": 1.0}, \"51\": {\"Cs\": 1.0}, \"52\": {\"K\": 1.0}, \"53\": {\"In\": 1.0}, \"54\": {\"I\": 1.0}, \"55\": {\"I\": 1.0}, \"56\": {\"I\": 1.0}, \"57\": {\"I\": 1.0}, \"58\": {\"I\": 1.0}, \"59\": {\"I\": 1.0}, \"60\": {\"Cs\": 1.0}, \"61\": {\"Cs\": 1.0}, \"62\": {\"K\": 1.0}, \"63\": {\"In\": 1.0}, \"64\": {\"I\": 1.0}, \"65\": {\"I\": 1.0}, \"66\": {\"I\": 1.0}, \"67\": {\"I\": 1.0}, \"68\": {\"I\": 1.0}, \"69\": {\"I\": 1.0}, \"70\": {\"Cs\": 1.0}, \"71\": {\"Cs\": 1.0}, \"72\": {\"K\": 1.0}, \"73\": {\"In\": 1.0}, \"74\": {\"I\": 1.0}, \"75\": {\"I\": 1.0}, \"76\": {\"I\": 1.0}, \"77\": {\"I\": 1.0}, \"78\": {\"I\": 1.0}, \"79\": {\"I\": 1.0}}" energy=-204.88920751661743 free_energy=-204.88920751661743 stress="-1.8236523610970838e-09 1.60235802410631e-07 6.645970239749923e-08 1.60235802410631e-07 -1.6495656387233593e-07 5.762368844331914e-07 6.645970239749923e-08 5.762368844331914e-07 3.627441168258469e-08" pbc="T T T"
Cs       3.62576012       2.26071499       1.19377728        0      -0.00036480      -0.00010038      -0.00014448
Cs      -3.71581900       3.28499459       6.50514686        1      -0.00006659      -0.00011073      -0.00011455
K       15.41784901      -3.88910379       3.95425621        2       0.00012868      -0.00016103       0.00030886
In      16.83162173      -2.75003431       0.12103275        3       0.00005217       0.00037877      -0.00004078
I       16.69836703      -0.93894246       2.55638354        4       0.00020986       0.00017370      -0.00020007
I        2.62392552       3.11960582       5.28164080        5       0.00006555      -0.00000083       0.00015120
I       -2.59815410      -0.68520189       7.04139233        6      -0.00009134      -0.00012917      -0.00017916
I        2.50742512       6.23086627       0.65723699        7       0.00017720       0.00011281      -0.00001840
I       16.13503128       3.35350405       1.77525099        8      -0.00014077      -0.00030185       0.00016842
I        3.18774902      -1.17250559       6.06256630        9       0.00006588       0.00000322      -0.00018110
Cs       0.79856075      -0.01775486       8.86006137       10      -0.00012149      -0.00001902       0.00012909
Cs      -6.54314335       1.00657549      14.17158265       11       0.00011780       0.00001226       0.00005955
K       12.59114794      -6.16746705      11.62118862       12      -0.00013867      -0.00008422      -0.00021185
In      14.00435884      -5.02852018       7.78763855       13       0.00042185       0.00012120      -0.00019883
I       13.87190377      -3.21741190      10.22286311       14      -0.00016399       0.00012679       0.00008889
I       -0.20295358       0.84130497      12.94829630       15      -0.00020959       0.00005538      -0.00001605
I       -5.42510864      -2.96367282      14.70791502       16      -0.00008082       0.00011418       0.00023359
I       -0.31952585       3.95208361       8.32394721       17       0.00017178       0.00015651      -0.00001410
I       13.30773509       1.07465232       9.44192138       18      -0.00009317       0.00015027      -0.00022858
I        0.36043193      -3.45089180      13.72889970       19       0.00005839       0.00007098      -0.00001102
Cs       1.81844817      10.53730747       1.19213088       20       0.00001527       0.00014071       0.00010180
Cs      -5.52234367      11.56171555       6.50367337       21      -0.00033925       0.00008843      -0.00001724
K       13.61112273       4.38773938       3.95278896       22      -0.00006004      -0.00006198       0.00024696
In      15.02467922       5.52708726       0.11968111       23      -0.00012756      -0.00015301      -0.00002609
I       14.89134140       7.33818137       2.55492267       24       0.00028835       0.00005749      -0.00000323
I        0.81668810      11.39616144       5.28044316       25       0.00030657       0.00026088       0.00000567
I       -4.40522489       7.59179145       7.03995190       26       0.00024869      -0.00007450      -0.00011668
I        0.70065223      14.50771167       0.65620771       27      -0.00008998      -0.00004564       0.00000865
I       17.94181739      -4.92360197       1.77643494       28       0.00003022      -0.00034883       0.00028290
I        1.38053910       7.10420778       6.06102071       29       0.00015461       0.00008657       0.00008281
Cs      -1.00899244       8.25903773       8.85849535       30       0.00024222       0.00003205       0.00019509
Cs      -8.34984680       9.28320478      14.17015784       31       0.00008186       0.00022739       0.00010298
K       10.78425080       2.10892841      11.61991852       32      -0.00012624       0.00027309      -0.00038398
In      12.19744214       3.24841177       7.78622631       33      -0.00016502      -0.00015646       0.00023530
I       12.06474971       5.05934743      10.22166954       34      -0.00003010       0.00002329      -0.00003441
I       -2.01018482       9.11771615      12.94717985       35       0.00022989       0.00040416      -0.00008700
I       -7.23206825       5.31315180      14.70672121       36       0.00012408       0.00024550      -0.00001603
I       -2.12631645      12.22932470       8.32296523       37      -0.00009357      -0.00016430       0.00005131
I       15.11451916      -7.20249257       9.44306884       38      -0.00004149       0.00030279      -0.00003441
I       -1.44647581       4.82623433      13.72756222       39       0.00008708      -0.00018735       0.00014360
Cs      13.33162335       0.57808803       1.26355030       40       0.00022557       0.00007916      -0.00001379
Cs       5.99042734       1.60260698       6.57471791       41       0.00021833      -0.00009323      -0.00006702
K        5.71143686      -2.20666200       3.88479816       42       0.00002565      -0.00016574      -0.00011864
In       7.12482148      -1.06766700       0.05121479       43       0.00040482       0.00007378       0.00031662
I        6.99241312       0.74372157       2.48640896       44      -0.00023105      -0.00026588      -0.00006238
I       12.33073418       1.43737238       5.35094009       45      -0.00015550      -0.00012738       0.00021677
I        7.10859253      -2.36790084       7.11072001       46      -0.00002050      -0.00010252       0.00007341
I       12.21422791       4.54837931       0.72661029       47      -0.00025329       0.00006474       0.00010687
I        6.42817638       5.03575973       1.70566209       48       0.00013349       0.00007349       0.00017386
I       12.89416205      -2.85460356       6.13214476       49       0.00022073      -0.00022023       0.00000629
Cs      10.50493398      -1.70036831       8.93021918       50      -0.00012107      -0.00003448      -0.00010599
Cs       3.16337873      -0.67596203      14.24174966       51       0.00008052      -0.00007534      -0.00015961
K        2.88454466      -4.48522561      11.55142412       52      -0.00005941      -0.00009622       0.00014161
In       4.29807116      -3.34634263       7.71810363       53      -0.00011813       0.00065088      -0.00007512
I        4.16535577      -1.53486065      10.15310886       54      -0.00007240      -0.00019975       0.00000867
I        9.50331433      -0.84102432      13.01789216       55       0.00005080      -0.00018268      -0.00010560
I        4.28136954      -4.64589456      14.77755811       56      -0.00026572      -0.00024956      -0.00010589
I        9.38679558       2.27017564       8.39359995       57       0.00051242      -0.00011993       0.00003716
I        3.60151207       2.75751601       9.37251338       58      -0.00004710      -0.00040473       0.00032748
I       10.06714048      -5.13301743      13.79904074       59       0.00004716      -0.00008974      -0.00018043
Cs      11.52457825       8.85476569       1.26230987       60       0.00024691       0.00008327      -0.00012035
Cs       4.18365784       9.87939823       6.57340167       61       0.00004297      -0.00007667      -0.00014751
K        3.90457548       6.06993990       3.88353311       62      -0.00009703       0.00016425      -0.00020405
In       5.31790626       7.20948557       0.04998775       63       0.00000806      -0.00029542       0.00011059
I        5.18500229       9.02057053       2.48528979       64      -0.00000843      -0.00020812      -0.00017669
I       10.52389332       9.71399020       5.34981920       65      -0.00011095       0.00009594       0.00015784
I        5.30157660       5.90932316       7.10951615       66       0.00007489       0.00011107       0.00015922
I       10.40746909      12.82486934       0.72561370       67      -0.00038619       0.00007260      -0.00009621
I        8.23516946      -3.24119604       1.70701220       68      -0.00005341       0.00000610      -0.00004717
I       11.08732302       5.42207068       6.13062841       69      -0.00016433       0.00017177       0.00025242
Cs       8.69802405       6.57625108       8.92929342       70      -0.00015548      -0.00007250      -0.00030457
Cs       1.35675011       7.60078252      14.24021913       71      -0.00008707       0.00013862      -0.00005084
K        1.07734839       3.79164328      11.54992347       72       0.00005651       0.00006594       0.00022489
In       2.49108908       4.93087947       7.71694399       73      -0.00031258       0.00021759      -0.00067576
I        2.35790168       6.74223964      10.15179591       74      -0.00007874      -0.00016931       0.00008387
I        7.69652778       7.43576482      13.01655535       75       0.00008934      -0.00009444      -0.00013245
I        2.47432672       3.63088685      14.77629162       76       0.00004213       0.00014816      -0.00011379
I        7.58017205      10.54703443       8.39232908       77      -0.00003351      -0.00025337       0.00018999
I        5.40822112      -5.51993803       9.37374490       78      -0.00013797      -0.00004094       0.00006887
I        8.26040108       3.14399294      13.79743263       79      -0.00024401      -0.00009832       0.00008884
