10
Lattice="8.833520254637877 0.0 0.0 -2.1003989796765428 8.580175069033928 0.0 -1.1446850734450733 1.07369477765987 9.602135900704933" Properties=species:S:1:pos:R:3 pbc="T T T"
Cs       6.96746684       1.26941851       9.59299131
Cs       4.46536047       3.05780035       0.00890486
K       -0.57234254       0.53684739       4.80106795
In       2.92222750      -2.66334744       0.00003674
I        9.21197934      -2.44263325       1.92071599
I        2.22082544       6.76976252       7.68138084
I        4.46264214      -0.20159122       1.92075887
I        6.97025374       4.52883895       7.68142371
I        9.97171139       3.87872162       1.92074868
I        1.46112186       0.44851448       7.68141353
