5
Lattice="6.076844416958623 1.4886313347499884 1.28341339830628 -1.261638768889739 6.153126856037853 -1.1608566487636582 -1.505628881171331 0.8541985417063473 6.147841493116214" Properties=species:S:1:pos:R:3:spacegroup_kinds:I:1:forces:R:3 spacegroup="P 1" unit_cell=conventional occupancy="_JSON {\"0\": {\"Cs\": 1.0}, \"1\": {\"Pb\": 1.0}, \"2\": {\"I\": 1.0}, \"3\": {\"I\": 1.0}, \"4\": {\"I\": 1.0}}" energy=-13.980741362281258 free_energy=-13.980741362281258 stress="-8.58252334195884e-06 -4.266276131085871e-06 3.913742711012414e-06 -4.266276131085871e-06 1.4263746440366142e-05 7.928429576923347e-06 3.913742711012414e-06 7.928429576923347e-06 -4.786449460187803e-06" pbc="T T T"
Cs       1.65636999       4.24693198       3.13452797        0       0.00013351      -0.00009452      -0.00002414
Pb      -0.00025151       0.00012624       0.00007455        1       0.00038310      -0.00029354       0.00021740
I       -0.75340183       0.42754311       3.07405977        2       0.00009899      -0.00008235      -0.00019370
I        3.03836157       0.74482508       0.64194141        3      -0.00050475      -0.00016315       0.00001038
I       -0.63133274       3.07630271      -0.58013260        4      -0.00011084       0.00063356      -0.00000994
