80
Lattice="15.401151579948493 0.0 0.0 4.650119680244218 18.30967548147249 0.0 11.578641394640877 -1.4928643563751611 13.459958535687187" Properties=species:S:1:pos:R:3 pbc="T T T"
Cs       3.95369763       2.10208938       1.68250272
Cs      11.86125862       6.30631584       5.04747632
K        7.90747819       4.20420258       3.36498955
In       0.00000011       0.00000025       0.00000010
I        7.18062716       0.97933208       4.52861475
I        8.63432919       7.42907293       2.20136432
I        8.76344482       2.23047959       1.89651610
I        7.05151090       6.17792548       4.83346279
I        5.07322318       6.55497527       1.23153141
I       10.74173336       1.85343103       5.49844835
Cs       9.74301833       1.35565720       8.41248199
Cs      17.65057932       5.55988366      11.77745559
K       13.69679888       3.45777040      10.09496881
In       5.78932081      -0.74643193       6.72997937
I       12.96994786       0.23289990      11.25859402
I       14.42364989       6.68264076       8.93134359
I       14.55276552       1.48404741       8.62649536
I       12.84083159       5.43149330      11.56344206
I       10.86254388       5.80854310       7.96151067
I       16.53105405       1.10699885      12.22842762
Cs       6.27875747      11.25692712       1.68250272
Cs      14.18631846      15.46115358       5.04747632
K       10.23253803      13.35904032       3.36498955
In       2.32505995       9.15483799       0.00000010
I        9.50568700      10.13416982       4.52861475
I       10.95938903      16.58391067       2.20136432
I       11.08850466      11.38531733       1.89651610
I        9.37657074      15.33276322       4.83346279
I        7.39828302      15.70981302       1.23153141
I       13.06679320      11.00826877       5.49844835
Cs      12.06807817      10.51049495       8.41248199
Cs      19.97563916      14.71472140      11.77745559
K       16.02185872      12.61260814      10.09496881
In       8.11438065       8.40840581       6.72997937
I       15.29500770       9.38773764      11.25859402
I       16.74870973      15.83747850       8.93134359
I       16.87782536      10.63888515       8.62649536
I       15.16589143      14.58633104      11.56344206
I       13.18760372      14.96338084       7.96151067
I       18.85611389      10.26183659      12.22842762
Cs      11.65427342       2.10208938       1.68250272
Cs      19.56183441       6.30631584       5.04747632
K       15.60805398       4.20420258       3.36498955
In       7.70057590       0.00000025       0.00000010
I       14.88120295       0.97933208       4.52861475
I       16.33490498       7.42907293       2.20136432
I       16.46402061       2.23047959       1.89651610
I       14.75208669       6.17792548       4.83346279
I       12.77379897       6.55497527       1.23153141
I       18.44230915       1.85343103       5.49844835
Cs      17.44359412       1.35565720       8.41248199
Cs      25.35115511       5.55988366      11.77745559
K       21.39737467       3.45777040      10.09496881
In      13.48989660      -0.74643193       6.72997937
I       20.67052365       0.23289990      11.25859402
I       22.12422568       6.68264076       8.93134359
I       22.25334131       1.48404741       8.62649536
I       20.54140738       5.43149330      11.56344206
I       18.56311967       5.80854310       7.96151067
I       24.23162984       1.10699885      12.22842762
Cs      13.97933326      11.25692712       1.68250272
Cs      21.88689425      15.46115358       5.04747632
K       17.93311382      13.35904032       3.36498955
In      10.02563574       9.15483799       0.00000010
I       17.20626279      10.13416982       4.52861475
I       18.65996482      16.58391067       2.20136432
I       18.78908045      11.38531733       1.89651610
I       17.07714653      15.33276322       4.83346279
I       15.09885881      15.70981302       1.23153141
I       20.76736899      11.00826877       5.49844835
Cs      19.76865396      10.51049495       8.41248199
Cs      27.67621495      14.71472140      11.77745559
K       23.72243451      12.61260814      10.09496881
In      15.81495644       8.40840581       6.72997937
I       22.99558349       9.38773764      11.25859402
I       24.44928552      15.83747850       8.93134359
I       24.57840115      10.63888515       8.62649536
I       22.86646722      14.58633104      11.56344206
I       20.88817951      14.96338084       7.96151067
I       26.55668968      10.26183659      12.22842762
