20
Lattice="18.55009316185599 -0.0809418542191392 -1.2986453564340121 -4.689698365060191 7.972823198975927 -0.945133406562725 0.6162571016667925 1.3927440625928382 8.69674704516784" Properties=species:S:1:pos:R:3:spacegroup_kinds:I:1:forces:R:3 spacegroup="P 1" unit_cell=conventional occupancy="_JSON {\"0\": {\"Cs\": 1.0}, \"1\": {\"Cs\": 1.0}, \"2\": {\"K\": 1.0}, \"3\": {\"In\": 1.0}, \"4\": {\"I\": 1.0}, \"5\": {\"I\": 1.0}, \"6\": {\"I\": 1.0}, \"7\": {\"I\": 1.0}, \"8\": {\"I\": 1.0}, \"9\": {\"I\": 1.0}, \"10\": {\"Cs\": 1.0}, \"11\": {\"Cs\": 1.0}, \"12\": {\"K\": 1.0}, \"13\": {\"In\": 1.0}, \"14\": {\"I\": 1.0}, \"15\": {\"I\": 1.0}, \"16\": {\"I\": 1.0}, \"17\": {\"I\": 1.0}, \"18\": {\"I\": 1.0}, \"19\": {\"I\": 1.0}}" energy=-51.58762710768818 free_energy=-51.58762710768818 stress="1.1532451688226083e-06 6.459589953630983e-06 3.447398464294212e-06 6.459589953630983e-06 -8.999012885526146e-07 -2.0463182732767798e-06 3.447398464294212e-06 -2.0463182732767798e-06 3.63151754905505e-06" pbc="T T T"
Cs       3.83088927       2.63966219      -0.72750417        0      -0.00000297      -0.00091015       0.00026014
Cs      -0.20241745       6.71299681       7.93675926        1      -0.00023165      -0.00020935      -0.00027840
K       -0.47842364       0.70913396       4.40174572        2       0.00001712       0.00024911       0.00022887
In      17.76323238      -0.06749852      -1.24512146        3       0.00015756       0.00001805      -0.00017896
I       16.63860334       2.29103314       0.25007832        4      -0.00037001       0.00028964       0.00010415
I        5.53981559       6.97989349       5.66093565        5       0.00032269      -0.00049399      -0.00062931
I        0.89002916       3.21746828       6.59181418        6      -0.00001840       0.00010920      -0.00024295
I        2.73797869       6.13389900       0.61745917        7       0.00020375       0.00072387       0.00022548
I       -2.92101547       8.27496558       0.67433772        8      -0.00039997       0.00015660       0.00015864
I        6.54919946       1.07676109       6.53463049        9       0.00036534       0.00015615       0.00025435
Cs      13.10593361       2.59919291      -1.37682708       10       0.00001639      -0.00092271       0.00026006
Cs       9.07263140       6.67252429       7.28743686       11      -0.00025119      -0.00019695      -0.00027824
K        8.79662370       0.66866518       3.75242661       12       0.00000301       0.00022022       0.00019549
In       8.48819622      -0.02700210      -0.59583802       13       0.00008504      -0.00013036       0.00005117
I        7.36355586       2.33150382       0.89940158       14      -0.00036013       0.00028968       0.00009967
I       14.81486287       6.93942295       5.01161263       15       0.00031329      -0.00049477      -0.00062553
I       10.16506909       3.17698523       5.94250830       16       0.00002661       0.00018739      -0.00033741
I       12.01303191       6.09344028      -0.03188039       17       0.00015875       0.00064552       0.00032036
I        6.35403229       8.23449372       0.02501728       18      -0.00040684       0.00015890       0.00014604
I       15.82424501       1.03629106       5.88530578       19       0.00037160       0.00015394       0.00026634
