20
Lattice="8.381384111596667 0.5990712144281055 2.0933846105614458 -0.7982590434310352 9.102123143102917 0.5967970715010011 -2.980017095626732 -1.0614958311319624 12.23705629014635" Properties=species:S:1:pos:R:3:spacegroup_kinds:I:1:forces:R:3 spacegroup="P 1" unit_cell=conventional occupancy="_JSON {\"0\": {\"Cs\": 1.0}, \"1\": {\"Cs\": 1.0}, \"2\": {\"Cs\": 1.0}, \"3\": {\"Cs\": 1.0}, \"4\": {\"Pb\": 1.0}, \"5\": {\"Pb\": 1.0}, \"6\": {\"Pb\": 1.0}, \"7\": {\"Pb\": 1.0}, \"8\": {\"I\": 1.0}, \"9\": {\"I\": 1.0}, \"10\": {\"I\": 1.0}, \"11\": {\"I\": 1.0}, \"12\": {\"I\": 1.0}, \"13\": {\"I\": 1.0}, \"14\": {\"I\": 1.0}, \"15\": {\"I\": 1.0}, \"16\": {\"I\": 1.0}, \"17\": {\"I\": 1.0}, \"18\": {\"I\": 1.0}, \"19\": {\"I\": 1.0}}" energy=-56.50802384135535 free_energy=-56.50802384135535 stress="-1.0090120186042338e-05 1.5356002699615478e-06 -2.480965593840435e-06 1.5356002699615478e-06 2.111712464356687e-06 6.953032639459092e-06 -2.480965593840435e-06 6.953032639459092e-06 -6.373717063442574e-07" pbc="T T T"
Cs       3.64413333       9.06666254       4.94075419        0       0.00018332       0.00071860      -0.00007658
Cs       0.31464092       4.25075529       3.70906432        1      -0.00028567       0.00002936       0.00013018
Cs       3.28859895       0.88469334      10.67119691        2       0.00014587       0.00034827      -0.00057771
Cs      -1.75974385       5.10463891       9.80463405        3      -0.00010920       0.00008397       0.00032768
Pb      -1.81383838      -0.40448682      12.57864003        4       0.00000334      -0.00022205      -0.00023551
Pb       4.95847653       5.50727925       1.68604538        5      -0.00038800       0.00019489       0.00015861
Pb      -0.32499577       0.12631061       6.45949401        6      -0.00007758      -0.00036608      -0.00035448
Pb       3.46712910       4.97640766       7.80451991        7      -0.00009185       0.00031118       0.00007429
I        2.10487047       7.08972435       1.67265415        8       0.00033359       0.00015674      -0.00011398
I        3.45369344       2.60594496       1.61153964        9       0.00016367      -0.00034665       0.00001863
I       -0.29841885       0.42880096       3.22832436       10       0.00038602      -0.00076658       0.00018552
I        4.83171037       2.86527336      13.93566169       11      -0.00028457      -0.00043298       0.00039283
I        3.48296016       7.34645322      13.99866034       12      -0.00039024       0.00034472       0.00001377
I        4.91507027       5.37878444       4.92793438       13       0.00002827      -0.00047739       0.00061871
I        0.86211025       6.64665701       6.77125736       14      -0.00041182       0.00013584      -0.00003797
I        2.21039756       2.16376534       6.71162791       15       0.00063487       0.00004787      -0.00050940
I       -0.35206617      -0.17498685       9.69037648       16       0.00015885       0.00039889       0.00009294
I        6.07205886       3.30664237       8.83761151       17      -0.00023155      -0.00005755       0.00007454
I        4.72226011       7.79017493       8.89857481       18       0.00005658      -0.00027493      -0.00018379
I        2.01984894       4.57425840      10.68067673       19       0.00017609       0.00017387       0.00000171
