20
Lattice="7.26646063469039 0.0 0.0 -1.3148686843316013 9.32716339561112 0.0 -4.959997676737415 -1.6934208740831864 10.418631971797854" Properties=species:S:1:pos:R:3 pbc="T T T"
Cs       2.00493286       8.79255269       2.60465795
Cs      -0.57361457       4.12930082       2.60465795
Cs       1.03233051       0.07056020       7.81397393
Cs       3.61097026       4.73447172       7.81397393
Pb       1.02281482       0.61492330      -0.00000271
Pb       2.97579598       4.66358170       0.00000000
Pb      -1.45718402      -0.23178714       5.20931860
Pb       1.51863971       4.43162473       5.20932785
I        1.30393802       7.06287214       0.43282984
I        2.78228758       2.39926397       0.43314132
I        6.42139662       0.27962186       2.60465795
I        1.73334377       1.80057600       9.98540051
I        0.25500137       6.46413122       9.98571199
I        3.36167615       4.94286586       2.60465795
I       -0.76375505       6.35692935       4.77648605
I        0.71459451       1.69332118       4.77617457
I       -3.38420015       8.58415941       7.81397393
I        3.80103684       2.50651879       5.64254736
I        2.32269444       7.17007401       5.64223587
I       -0.32445579       3.92024002       7.81397393
