20
Lattice="18.337598863289177 -2.532746272051595 1.7693885987487001 -3.367428761806992 8.474549382169046 -1.8175300085867259 -0.6129644274565056 1.6119718135555177 8.65872787591671" Properties=species:S:1:pos:R:3:spacegroup_kinds:I:1:forces:R:3 spacegroup="P 1" unit_cell=conventional occupancy="_JSON {\"0\": {\"Cs\": 1.0}, \"1\": {\"Cs\": 1.0}, \"2\": {\"K\": 1.0}, \"3\": {\"In\": 1.0}, \"4\": {\"I\": 1.0}, \"5\": {\"I\": 1.0}, \"6\": {\"I\": 1.0}, \"7\": {\"I\": 1.0}, \"8\": {\"I\": 1.0}, \"9\": {\"I\": 1.0}, \"10\": {\"Cs\": 1.0}, \"11\": {\"Cs\": 1.0}, \"12\": {\"K\": 1.0}, \"13\": {\"In\": 1.0}, \"14\": {\"I\": 1.0}, \"15\": {\"I\": 1.0}, \"16\": {\"I\": 1.0}, \"17\": {\"I\": 1.0}, \"18\": {\"I\": 1.0}, \"19\": {\"I\": 1.0}}" energy=-51.587630118040906 free_energy=-51.587630118040906 stress="-3.1818667411064563e-06 1.6334024224944464e-06 -3.9947095119097324e-07 1.6334024224944464e-06 2.0297092162339715e-06 -5.702672122682219e-07 -3.9947095119097324e-07 -5.702672122682219e-07 7.801395304570267e-07" pbc="T T T"
Cs       5.70491121       3.41993794       8.79554078        0       0.00014373       0.00024399      -0.00004898
Cs       2.14359916       5.04511576      -0.81528113        1      -0.00001300       0.00000803      -0.00003773
K        1.02405543       0.63006057       4.45626813        2      -0.00025431      -0.00070788       0.00015042
In       1.32988151      -0.17783632       0.12730693        3       0.00012481       0.00038414      -0.00035114
I        7.96933289      -0.80544308       2.51504735        4       0.00020568       0.00002647      -0.00000540
I        3.24628353       0.79570820       7.28289919        5       0.00046708       0.00025938      -0.00014890
I        2.71528742       2.04527319       1.61217025        6       0.00011541       0.00005795       0.00000338
I        5.13349147       6.41987841       6.36749644        7      -0.00034775       0.00013662       0.00024837
I        7.90770747       5.13755779       1.40318844        8      -0.00036535       0.00005583      -0.00013929
I       -0.05897656       3.32801957       6.57749093        9      -0.00013733      -0.00019946      -0.00002649
Cs      14.87371019       2.15356468       9.68023966       10       0.00015563       0.00020981      -0.00008539
Cs      11.31239937       3.77874304       0.06940874       11      -0.00002746       0.00003988      -0.00000131
K       10.19285793      -0.63631245       5.34098552       12      -0.00023201      -0.00079843       0.00000334
In      10.49865553      -1.44413421       1.01186099       13       0.00023154      -0.00001840       0.00047745
I       17.13815286      -2.07182409       3.39973841       14       0.00009788       0.00004596       0.00003583
I       12.41506509      -0.47065888       8.16759646       15       0.00056020       0.00024748      -0.00018289
I       11.88409073       0.77890242       2.49686920       16       0.00007682       0.00002251      -0.00002621
I       14.30228767       5.15350427       7.25218740       17      -0.00031398       0.00016023       0.00026923
I       -1.26112019       6.40398058       0.51843229       18      -0.00024536      -0.00021237       0.00019529
I        9.10984558       2.06160628       7.46223634       19      -0.00024223       0.00003825      -0.00032956
