80
Lattice="14.591613372597516 0.0 0.0 12.152944003003391 13.772003683036841 0.0 12.633262756953757 -4.521723405571985 9.610473148950273" Properties=species:S:1:pos:R:3 pbc="T T T"
Cs       4.92204984       1.15623224       1.20133980
Cs      14.76685992       3.46890650       3.60389585
K        9.84445478       2.31256910       2.40261764
In       0.00000029       0.00000096       0.00000041
I        9.71064003      -2.61617911       0.87867881
I        9.97826949       7.24131656       3.92655653
I       12.50897152       2.54045293       2.24589009
I        7.17993543       2.08468475       2.55934460
I        8.34911738       3.74548784      -0.01271091
I       11.33979315       0.87965485       4.81794900
Cs      11.23868121      -1.10462947       6.00657637
Cs      21.08349129       1.20804480       8.40913243
K       16.16108615       0.05170740       7.20785422
In       6.31663167      -2.26086075       4.80523699
I       16.02727141      -4.87704081       5.68391539
I       16.29490087       4.98045485       8.73179311
I       18.82560290       0.27959122       7.05112667
I       13.49656680      -0.17617695       7.36458118
I       14.66574876       1.48462614       4.79252567
I       17.65642453      -1.38120685       9.62318558
Cs      10.99852184       8.04223408       1.20133980
Cs      20.84333192      10.35490834       3.60389585
K       15.92092678       9.19857094       2.40261764
In       6.07647229       6.88600280       0.00000041
I       15.78711204       4.26982273       0.87867881
I       16.05474150      14.12731840       3.92655653
I       18.58544352       9.42645477       2.24589009
I       13.25640743       8.97068659       2.55934460
I       14.42558938      10.63148968      -0.01271091
I       17.41626516       7.76565669       4.81794900
Cs      17.31515322       5.78137238       6.00657637
Cs      27.15996330       8.09404664       8.40913243
K       22.23755816       6.93770924       7.20785422
In      12.39310367       4.62514110       4.80523699
I       22.10374341       2.00896103       5.68391539
I       22.37137287      11.86645670       8.73179311
I       24.90207490       7.16559307       7.05112667
I       19.57303881       6.70982489       7.36458118
I       20.74222076       8.37062798       4.79252567
I       23.73289653       5.50479499       9.62318558
Cs      12.21785652       1.15623224       1.20133980
Cs      22.06266660       3.46890650       3.60389585
K       17.14026146       2.31256910       2.40261764
In       7.29580697       0.00000096       0.00000041
I       17.00644672      -2.61617911       0.87867881
I       17.27407618       7.24131656       3.92655653
I       19.80477821       2.54045293       2.24589009
I       14.47574211       2.08468475       2.55934460
I       15.64492407       3.74548784      -0.01271091
I       18.63559984       0.87965485       4.81794900
Cs      18.53448790      -1.10462947       6.00657637
Cs      28.37929798       1.20804480       8.40913243
K       23.45689284       0.05170740       7.20785422
In      13.61243835      -2.26086075       4.80523699
I       23.32307810      -4.87704081       5.68391539
I       23.59070756       4.98045485       8.73179311
I       26.12140958       0.27959122       7.05112667
I       20.79237349      -0.17617695       7.36458118
I       21.96155545       1.48462614       4.79252567
I       24.95223122      -1.38120685       9.62318558
Cs      18.29432852       8.04223408       1.20133980
Cs      28.13913860      10.35490834       3.60389585
K       23.21673346       9.19857094       2.40261764
In      13.37227898       6.88600280       0.00000041
I       23.08291872       4.26982273       0.87867881
I       23.35054818      14.12731840       3.92655653
I       25.88125021       9.42645477       2.24589009
I       20.55221411       8.97068659       2.55934460
I       21.72139607      10.63148968      -0.01271091
I       24.71207184       7.76565669       4.81794900
Cs      24.61095990       5.78137238       6.00657637
Cs      34.45576998       8.09404664       8.40913243
K       29.53336484       6.93770924       7.20785422
In      19.68891035       4.62514110       4.80523699
I       29.39955010       2.00896103       5.68391539
I       29.66717956      11.86645670       8.73179311
I       32.19788159       7.16559307       7.05112667
I       26.86884549       6.70982489       7.36458118
I       28.03802745       8.37062798       4.79252567
I       31.02870322       5.50479499       9.62318558
