80
Lattice="19.612984291478032 -2.7273766586762935 0.9549867151757987 14.30161625888462 13.596684997894023 -1.885793162702244 17.856578094795896 -9.822490533200014 16.74232490099849" Properties=species:S:1:pos:R:3:spacegroup_kinds:I:1:forces:R:3 spacegroup="P 1" unit_cell=conventional occupancy="_JSON {\"0\": {\"Cs\": 1.0}, \"1\": {\"Cs\": 1.0}, \"2\": {\"K\": 1.0}, \"3\": {\"In\": 1.0}, \"4\": {\"I\": 1.0}, \"5\": {\"I\": 1.0}, \"6\": {\"I\": 1.0}, \"7\": {\"I\": 1.0}, \"8\": {\"I\": 1.0}, \"9\": {\"I\": 1.0}, \"10\": {\"Cs\": 1.0}, \"11\": {\"Cs\": 1.0}, \"12\": {\"K\": 1.0}, \"13\": {\"In\": 1.0}, \"14\": {\"I\": 1.0}, \"15\": {\"I\": 1.0}, \"16\": {\"I\": 1.0}, \"17\": {\"I\": 1.0}, \"18\": {\"I\": 1.0}, \"19\": {\"I\": 1.0}, \"20\": {\"Cs\": 1.0}, \"21\": {\"Cs\": 1.0}, \"22\": {\"K\": 1.0}, \"23\": {\"In\": 1.0}, \"24\": {\"I\": 1.0}, \"25\": {\"I\": 1.0}, \"26\": {\"I\": 1.0}, \"27\": {\"I\": 1.0}, \"28\": {\"I\": 1.0}, \"29\": {\"I\": 1.0}, \"30\": {\"Cs\": 1.0}, \"31\": {\"Cs\": 1.0}, \"32\": {\"K\": 1.0}, \"33\": {\"In\": 1.0}, \"34\": {\"I\": 1.0}, \"35\": {\"I\": 1.0}, \"36\": {\"I\": 1.0}, \"37\": {\"I\": 1.0}, \"38\": {\"I\": 1.0}, \"39\": {\"I\": 1.0}, \"40\": {\"Cs\": 1.0}, \"41\": {\"Cs\": 1.0}, \"42\": {\"K\": 1.0}, \"43\": {\"In\": 1.0}, \"44\": {\"I\": 1.0}, \"45\": {\"I\": 1.0}, \"46\": {\"I\": 1.0}, \"47\": {\"I\": 1.0}, \"48\": {\"I\": 1.0}, \"49\": {\"I\": 1.0}, \"50\": {\"Cs\": 1.0}, \"51\": {\"Cs\": 1.0}, \"52\": {\"K\": 1.0}, \"53\": {\"In\": 1.0}, \"54\": {\"I\": 1.0}, \"55\": {\"I\": 1.0}, \"56\": {\"I\": 1.0}, \"57\": {\"I\": 1.0}, \"58\": {\"I\": 1.0}, \"59\": {\"I\": 1.0}, \"60\": {\"Cs\": 1.0}, \"61\": {\"Cs\": 1.0}, \"62\": {\"K\": 1.0}, \"63\": {\"In\": 1.0}, \"64\": {\"I\": 1.0}, \"65\": {\"I\": 1.0}, \"66\": {\"I\": 1.0}, \"67\": {\"I\": 1.0}, \"68\": {\"I\": 1.0}, \"69\": {\"I\": 1.0}, \"70\": {\"Cs\": 1.0}, \"71\": {\"Cs\": 1.0}, \"72\": {\"K\": 1.0}, \"73\": {\"In\": 1.0}, \"74\": {\"I\": 1.0}, \"75\": {\"I\": 1.0}, \"76\": {\"I\": 1.0}, \"77\": {\"I\": 1.0}, \"78\": {\"I\": 1.0}, \"79\": {\"I\": 1.0}}" energy=-205.03855586083796 free_energy=-205.03855586083796 stress="3.1298278315317236e-06 -1.2801224025960086e-06 -1.0222194583848856e-06 -1.2801224025960086e-06 1.4090831943997343e-06 8.594757679372974e-07 -1.0222194583848856e-06 8.594757679372974e-07 -2.853424319330603e-06" pbc="T T T"
Cs       7.20937221      -1.38399874       5.21207592        0      -0.00004728       0.00003816      -0.00003348
Cs      18.51025197       1.93591486       3.16741405        1       0.00002954      -0.00006605      -0.00026099
K       13.69294068       0.13463849       1.82268028        2      -0.00000222      -0.00017897      -0.00003417
In      19.53150053      -2.71245848       1.19221803        3      -0.00033165      -0.00016259       0.00016408
I       26.62306029      10.98539828      -1.90379360        4       0.00030332      -0.00000275       0.00001786
I       33.00202131       0.42768213       9.38801235        5       0.00012563       0.00015413      -0.00000029
I       14.97973593       1.56280746       4.87050227        6      -0.00006657       0.00012442       0.00003563
I       10.72977139      -0.97768583       3.49414115        7      -0.00004774      -0.00007732      -0.00007704
I       28.70985176      -8.51179270      16.73177681        8      -0.00012783       0.00007103      -0.00029929
I       14.88063881      -0.78550856       8.36781138        9      -0.00010360      -0.00025699       0.00011466
Cs      16.13772958      -6.29528199      13.58320058       10      -0.00009754       0.00006349       0.00010534
Cs      27.43857410      -2.97537758      11.53837232       11      -0.00000844       0.00003976      -0.00009998
K       22.62116103      -4.77674790      10.19403920       12       0.00005956      -0.00001302      -0.00018318
In      28.45974006      -7.62375492       9.56343159       13       0.00016079      -0.00017410      -0.00004736
I       35.55144166       6.07420392       6.46739051       14      -0.00013871       0.00007937       0.00004948
I       41.93033348      -4.48352221      17.75921705       15       0.00000338       0.00006674      -0.00001926
I       23.90801021      -3.34839514      13.24172442       16      -0.00001464       0.00000307       0.00002572
I       19.65796214      -5.88888012      11.86540004       17      -0.00002567      -0.00017506      -0.00022418
I       19.78160954      -3.60051240       8.36064635       18      -0.00020007      -0.00021070      -0.00021215
I        5.95240621       4.12563923      -0.00323414       19       0.00002166       0.00003021      -0.00006518
Cs      14.36017862       5.41438140       4.26914562       20       0.00009914      -0.00009592       0.00006035
Cs      25.66114367       8.73428979       2.22444980       21       0.00002077      -0.00004351      -0.00015374
K       20.84374777       6.93290562       0.87982222       22      -0.00007765      -0.00005365      -0.00011659
In      26.68221994       4.08578358       0.24941679       23      -0.00003822       0.00012713      -0.00005688
I       19.47252668       4.18704913      -0.96083035       24      -0.00046470       0.00025254       0.00006971
I       25.85128847      -6.37066395      10.33097235       25      -0.00022366       0.00021349      -0.00006072
I       22.13060888       8.36120835       3.92764891       26      -0.00005524      -0.00006681      -0.00003019
I       17.88048134       5.82067985       2.55122730       27       0.00008474      -0.00002556      -0.00003288
I       35.86054975      -1.71339145      15.78871476       28       0.00013184      -0.00021940      -0.00002423
I       22.03143354       6.01283085       7.42498638       29       0.00014512      -0.00006847      -0.00009669
Cs      23.28847886       0.50314210      12.64033187       30       0.00003557      -0.00007039      -0.00002036
Cs      34.58940100       3.82316351      10.59581234       31       0.00009722      -0.00020362      -0.00028883
K       29.77211389       2.02185024       9.25073787       32      -0.00013300      -0.00027509       0.00011304
In      35.61053529      -0.82544696       8.62051027       33      -0.00037022       0.00028385       0.00021254
I       28.40070977      -0.72422542       7.41029332       34       0.00002618       0.00011423       0.00003847
I       34.77947790     -11.28187103      18.70210040       35       0.00010372       0.00017915      -0.00008860
I       31.05899445       3.44988071      12.29879494       36      -0.00020980       0.00003543      -0.00014982
I       26.80888718       0.90938857      10.92232278       37       0.00008444       0.00001689       0.00001899
I       26.93228792       3.19780085       7.41758922       38       0.00007840       0.00010465      -0.00020869
I       13.10302941      10.92425262      -0.94623214       39       0.00007017      -0.00038199       0.00002260
Cs      17.01592786      -2.74772012       5.68976197       40       0.00008292      -0.00005989      -0.00013982
Cs      28.31682620       0.57223871       3.64463340       41       0.00000275      -0.00005084       0.00008724
K       23.49949251      -1.22917680       2.29985673       42      -0.00008322       0.00005845       0.00014851
In       9.72488902      -1.34891862       0.71478695       43      -0.00022766       0.00008800       0.00003875
I       16.81676598      12.34901382      -2.38122496       44       0.00006756      -0.00000717       0.00005169
I       23.19551987       1.79154662       8.91044179       45      -0.00004007      -0.00009330      -0.00006606
I       24.78625418       0.19914580       5.34800863       46      -0.00000857       0.00001651      -0.00007323
I       20.53639179      -2.34138437       3.97148311       47       0.00005140       0.00015809       0.00013473
I       38.51625838      -9.87546134      17.20877964       48       0.00011013       0.00003972       0.00022240
I       24.68711497      -2.14923288       8.84520513       49      -0.00003567      -0.00017535       0.00017524
Cs      25.94422209      -7.65897008      14.06082350       50       0.00007317      -0.00005948       0.00004930
Cs      37.24514307      -4.33907796      12.01552788       51      -0.00000923       0.00008378       0.00030788
K       32.42774301      -6.14052529      10.67114142       52      -0.00007519       0.00019192       0.00005188
In      18.65305823      -6.26021361       9.08602181       53       0.00050654       0.00016982      -0.00023725
I       25.74515761       7.43779747       5.98990311       54      -0.00030240       0.00008376       0.00009103
I       32.12375207      -3.11963790      17.28163364       55      -0.00003648      -0.00028247      -0.00008365
I       33.71453040      -4.71205045      13.71923837       56       0.00003260      -0.00011988      -0.00006318
I       29.46466529      -7.25263020      12.34272112       57       0.00007443       0.00009700       0.00001816
I       29.58795334      -4.96418893       8.83766273       58       0.00013334      -0.00015848       0.00024140
I       15.75889839       2.76182258       0.47414065       59       0.00008403       0.00031426      -0.00001385
Cs      24.16677581       4.05058908       4.74675194       60      -0.00002363       0.00003196       0.00004634
Cs      35.46760335       7.37035025       2.70137960       61      -0.00008221       0.00022686       0.00031322
K       30.65014443       5.56899929       1.35723781       62       0.00013993       0.00025822      -0.00006773
In      16.87564310       5.44943617      -0.22807505       63       0.00042473      -0.00013706      -0.00017382
I        9.66586594       5.55071203      -1.43837051       64       0.00007185      -0.00007823       0.00000628
I       16.04470004      -5.00680654       9.85333729       65      -0.00009990      -0.00023971       0.00003327
I       31.93687473       6.99756632       4.40514002       66       0.00020442      -0.00004129       0.00019215
I       27.68720255       4.45696911       3.02870169       67      -0.00008208       0.00000954       0.00007706
I       45.66714254      -3.07713457      16.26609630       68      -0.00009783      -0.00007557       0.00006724
I       31.83815647       4.64872264       7.90239653       69      -0.00004734       0.00051415       0.00003382
Cs      33.09510765      -0.86068366      13.11798110       70      -0.00010914       0.00010716      -0.00007068
Cs      44.39584801       2.45923097      11.07283518       71      -0.00001538       0.00005549       0.00009317
K       39.57845492       0.65794789       9.72824497       72       0.00014845       0.00003194       0.00009521
In      25.80402795       0.53819676       8.14300396       73      -0.00006222      -0.00003531       0.00008581
I       18.59401913       0.63946720       6.93280965       74       0.00051608      -0.00020897      -0.00002547
I       24.97294393      -9.91803592      18.22449074       75       0.00017581      -0.00021628      -0.00002076
I       40.86521829       2.08624849      12.77625677       76       0.00009971       0.00007073       0.00016081
I       36.61552251      -0.45425393      11.39984648       77      -0.00012436      -0.00001839      -0.00001578
I       36.73891277       1.83408901       7.89495270       78      -0.00024556       0.00011184      -0.00004583
I       22.90975704       9.56018013      -0.46878673       79      -0.00008846       0.00016272       0.00011082
