80
Lattice="20.885360225601868 0.0 0.0 -9.774152654351814 11.501870667959297 0.0 7.847109081250269 14.058617388863489 8.509791324126919" Properties=species:S:1:pos:R:3 pbc="T T T"
Cs       9.88847376       8.88447679       4.25087466
Cs       0.86237564       3.78535976       0.00397707
K        1.96177727       3.51465435       2.12744783
In       0.63585222      -0.05520496       0.00001167
I        9.12527108       1.35487186       0.85111945
I        1.62557435      11.31494664       3.40378358
I        2.88283016       2.85692358       0.85112426
I        7.86803403       9.81292278       3.40378839
I        8.25223538       5.59178970       0.85111859
I        2.49861401       7.07805233       3.40378272
Cs      13.81202830      15.91378548       8.50577032
Cs       4.78593018      10.81466845       4.25887273
K        5.88533181      10.54396304       6.38234349
In       4.55940676       6.97410373       4.25490734
I       13.04882562       8.38418055       5.10601511
I        5.54912889      18.34425534       7.65867924
I        6.80638470       9.88623227       5.10601993
I       11.79158857      16.84223148       7.65868406
I       12.17578992      12.62109839       5.10601426
I        6.42216855      14.10736103       7.65867838
Cs       5.00139743      14.63541212       4.25087466
Cs      -4.02470069       9.53629509       0.00397707
K       -2.92529906       9.26558968       2.12744783
In      -4.25122410       5.69573037       0.00001167
I        4.23819476       7.10580719       0.85111945
I       -3.26150198      17.06588198       3.40378358
I       -2.00424617       8.60785891       0.85112426
I        2.98095770      15.56385812       3.40378839
I        3.36515905      11.34272503       0.85111859
I       -2.38846232      12.82898767       3.40378272
Cs       8.92495197      21.66472082       8.50577032
Cs      -0.10114615      16.56560379       4.25887273
K        0.99825548      16.29489838       6.38234349
In      -0.32766956      12.72503907       4.25490734
I        8.16174930      14.13511589       5.10601511
I        0.66205256      24.09519067       7.65867924
I        1.91930837      15.63716760       5.10601993
I        6.90451224      22.59316681       7.65868406
I        7.28871359      18.37203373       5.10601426
I        1.53509222      19.85829636       7.65867838
Cs      20.33115387       8.88447679       4.25087466
Cs      11.30505575       3.78535976       0.00397707
K       12.40445738       3.51465435       2.12744783
In      11.07853234      -0.05520496       0.00001167
I       19.56795120       1.35487186       0.85111945
I       12.06825446      11.31494664       3.40378358
I       13.32551027       2.85692358       0.85112426
I       18.31071414       9.81292278       3.40378839
I       18.69491549       5.59178970       0.85111859
I       12.94129412       7.07805233       3.40378272
Cs      24.25470841      15.91378548       8.50577032
Cs      15.22861029      10.81466845       4.25887273
K       16.32801192      10.54396304       6.38234349
In      15.00208688       6.97410373       4.25490734
I       23.49150574       8.38418055       5.10601511
I       15.99180900      18.34425534       7.65867924
I       17.24906481       9.88623227       5.10601993
I       22.23426868      16.84223148       7.65868406
I       22.61847003      12.62109839       5.10601426
I       16.86484866      14.10736103       7.65867838
Cs      15.44407755      14.63541212       4.25087466
Cs       6.41797943       9.53629509       0.00397707
K        7.51738106       9.26558968       2.12744783
In       6.19145601       5.69573037       0.00001167
I       14.68087487       7.10580719       0.85111945
I        7.18117814      17.06588198       3.40378358
I        8.43843395       8.60785891       0.85112426
I       13.42363781      15.56385812       3.40378839
I       13.80783916      11.34272503       0.85111859
I        8.05421780      12.82898767       3.40378272
Cs      19.36763209      21.66472082       8.50577032
Cs      10.34153397      16.56560379       4.25887273
K       11.44093560      16.29489838       6.38234349
In      10.11501055      12.72503907       4.25490734
I       18.60442941      14.13511589       5.10601511
I       11.10473268      24.09519067       7.65867924
I       12.36198849      15.63716760       5.10601993
I       17.34719235      22.59316681       7.65868406
I       17.73139371      18.37203373       5.10601426
I       11.97777234      19.85829636       7.65867838
