80
Lattice="33.28893044964039 -1.0000872133573606 -2.178742183753698 -15.889291784763666 14.015630928013387 0.814811948621299 11.262440702370345 16.04491216209577 10.49749592213417" Properties=species:S:1:pos:R:3:spacegroup_kinds:I:1:forces:R:3 spacegroup="P 1" unit_cell=conventional occupancy="_JSON {\"0\": {\"Cs\": 1.0}, \"1\": {\"Cs\": 1.0}, \"2\": {\"K\": 1.0}, \"3\": {\"In\": 1.0}, \"4\": {\"I\": 1.0}, \"5\": {\"I\": 1.0}, \"6\": {\"I\": 1.0}, \"7\": {\"I\": 1.0}, \"8\": {\"I\": 1.0}, \"9\": {\"I\": 1.0}, \"10\": {\"Cs\": 1.0}, \"11\": {\"Cs\": 1.0}, \"12\": {\"K\": 1.0}, \"13\": {\"In\": 1.0}, \"14\": {\"I\": 1.0}, \"15\": {\"I\": 1.0}, \"16\": {\"I\": 1.0}, \"17\": {\"I\": 1.0}, \"18\": {\"I\": 1.0}, \"19\": {\"I\": 1.0}, \"20\": {\"Cs\": 1.0}, \"21\": {\"Cs\": 1.0}, \"22\": {\"K\": 1.0}, \"23\": {\"In\": 1.0}, \"24\": {\"I\": 1.0}, \"25\": {\"I\": 1.0}, \"26\": {\"I\": 1.0}, \"27\": {\"I\": 1.0}, \"28\": {\"I\": 1.0}, \"29\": {\"I\": 1.0}, \"30\": {\"Cs\": 1.0}, \"31\": {\"Cs\": 1.0}, \"32\": {\"K\": 1.0}, \"33\": {\"In\": 1.0}, \"34\": {\"I\": 1.0}, \"35\": {\"I\": 1.0}, \"36\": {\"I\": 1.0}, \"37\": {\"I\": 1.0}, \"38\": {\"I\": 1.0}, \"39\": {\"I\": 1.0}, \"40\": {\"Cs\": 1.0}, \"41\": {\"Cs\": 1.0}, \"42\": {\"K\": 1.0}, \"43\": {\"In\": 1.0}, \"44\": {\"I\": 1.0}, \"45\": {\"I\": 1.0}, \"46\": {\"I\": 1.0}, \"47\": {\"I\": 1.0}, \"48\": {\"I\": 1.0}, \"49\": {\"I\": 1.0}, \"50\": {\"Cs\": 1.0}, \"51\": {\"Cs\": 1.0}, \"52\": {\"K\": 1.0}, \"53\": {\"In\": 1.0}, \"54\": {\"I\": 1.0}, \"55\": {\"I\": 1.0}, \"56\": {\"I\": 1.0}, \"57\": {\"I\": 1.0}, \"58\": {\"I\": 1.0}, \"59\": {\"I\": 1.0}, \"60\": {\"Cs\": 1.0}, \"61\": {\"Cs\": 1.0}, \"62\": {\"K\": 1.0}, \"63\": {\"In\": 1.0}, \"64\": {\"I\": 1.0}, \"65\": {\"I\": 1.0}, \"66\": {\"I\": 1.0}, \"67\": {\"I\": 1.0}, \"68\": {\"I\": 1.0}, \"69\": {\"I\": 1.0}, \"70\": {\"Cs\": 1.0}, \"71\": {\"Cs\": 1.0}, \"72\": {\"K\": 1.0}, \"73\": {\"In\": 1.0}, \"74\": {\"I\": 1.0}, \"75\": {\"I\": 1.0}, \"76\": {\"I\": 1.0}, \"77\": {\"I\": 1.0}, \"78\": {\"I\": 1.0}, \"79\": {\"I\": 1.0}}" energy=-199.27884365501745 free_energy=-199.27884365501745 stress="2.8452170560068236e-06 7.992904487494536e-06 -4.452360517478954e-06 7.992904487494536e-06 4.9762909420205554e-06 -1.364789608102521e-06 -4.452360517478954e-06 -1.364789608102521e-06 -8.653091615951728e-06" pbc="T T T"
Cs      16.45889842      10.32634466       3.54047555        0      -0.00014095      -0.00057037       0.00015056
Cs       0.37177895       4.98062414      -0.26635386        1      -0.00021166      -0.00003147      -0.00012233
K        1.91828338       3.65622431       4.47571832        2      -0.00001823      -0.00015105      -0.00022004
In     -14.64100064      14.75756608       2.62439874        3       0.00016210       0.00001064       0.00001970
I       -0.36132987      16.71371953       2.41702272        4      -0.00021652      -0.00003130      -0.00021114
I        0.98824067      11.25319315       0.96696463        5      -0.00010644      -0.00033931      -0.00017863
I        4.58172693       2.39960267       2.52941905        6      -0.00009365      -0.00028775      -0.00010691
I       11.25613787      13.10826342       1.79494107        7       0.00011773       0.00033932       0.00035194
I       13.16756509       6.28837575      -1.31812851        8      -0.00002166      -0.00000922      -0.00007926
I        1.12203052       7.25524672       5.14431434        9       0.00020500      -0.00013375      -0.00008602
Cs      23.42448677      18.35748641      10.29872891       10       0.00001130      -0.00024256       0.00013964
Cs       6.04263788      12.63633271       4.17742518       11       0.00005588       0.00036101       0.00007816
K       25.81246536      25.83317068       9.12501308       12      -0.00002036       0.00016207       0.00001076
In      -8.40971297      22.60097036       8.71156062       13      -0.00049910      -0.00013640      -0.00007974
I        6.14559584      22.72313573       6.00396196       14      -0.00003018       0.00020701       0.00010090
I        8.69249155      19.36866196       7.75111355       15      -0.00021358       0.00002306       0.00007049
I        9.84199474       9.99041650       7.43705434       16       0.00015996       0.00026351      -0.00015525
I       16.94958483      20.99956725       6.22119959       17      -0.00013395      -0.00005641      -0.00014183
I       18.98382864      13.14109972       3.49235219       18      -0.00029048      -0.00005551      -0.00012936
I        6.36709930      15.46157684       9.86763383       19       0.00005055      -0.00028049      -0.00006687
Cs       8.51512934      17.33223304       3.94751885       20       0.00002977      -0.00003254       0.00008973
Cs      -7.57723061      11.98758127       0.13904549       21      -0.00004079      -0.00000895       0.00010844
K       -6.02729330      10.66198128       4.88121286       22       0.00018746      -0.00021095      -0.00016120
In      -6.69645842       7.74810050       2.21509825       23       0.00018120       0.00019806       0.00001749
I        7.58485562       9.70698241       2.00924634       24      -0.00004117      -0.00023481      -0.00000026
I       -6.95700829      18.25984505       1.37512769       25       0.00010786       0.00005605      -0.00004494
I       -3.36203589       9.40718887       2.93563615       26      -0.00019413      -0.00023171       0.00006388
I        3.30923545      20.11713892       2.20257353       27       0.00003170       0.00021259       0.00026110
I        5.22427003      13.29733332      -0.91122881       28      -0.00016315      -0.00040486      -0.00026220
I       -6.82417508      14.26057978       5.55031027       29       0.00031140       0.00024351      -0.00004033
Cs      15.48138011      25.36668100      10.70723744       30      -0.00018508      -0.00026248      -0.00014622
Cs      -1.90264556      19.64318468       4.58693839       31       0.00003024       0.00010295       0.00000214
K       33.75686823      18.82667724       8.71757591       32       0.00009425      -0.00011155      -0.00018432
In      -0.46282855      15.59267120       8.30418177       33       0.00018281      -0.00017273       0.00000225
I       14.08437797      15.71951325       5.59788258       34       0.00017368       0.00003208      -0.00023059
I        0.74126041      26.37831577       8.15737749       35      -0.00007282       0.00013683       0.00002235
I        1.89855177      16.99925441       7.84355400       36      -0.00021296       0.00002470      -0.00003615
I        9.00359707      28.00477679       6.62816806       37      -0.00011489      -0.00013326      -0.00000734
I       11.04000547      20.14695208       3.89757046       38      -0.00027456      -0.00009199      -0.00014833
I       -1.57931241      22.46955197      10.27554608       39      -0.00007881      -0.00012051      -0.00009326
Cs      33.10225920       9.82661973       2.45141537       40      -0.00002038       0.00008717      -0.00017134
Cs      17.01353752       4.47710617      -1.35713762       41       0.00006745       0.00003955      -0.00002205
K       18.56279633       3.15544273       3.38501601       42      -0.00026050      -0.00020834       0.00036754
In       2.00242831      14.25786055       1.53429844       43       0.00022203       0.00015638       0.00007502
I       16.28468735      16.21425093       1.32679965       44       0.00017715       0.00016836       0.00031130
I       17.63332929      10.75190926      -0.12222022       45      -0.00022014       0.00026547       0.00009327
I       21.22688379       1.89974243       1.44009917       46       0.00045282      -0.00012589      -0.00013996
I       27.89801429      12.60941544       0.70658058       47      -0.00008796      -0.00007248       0.00004143
I       -3.47468375       6.78792873      -0.23056553       48      -0.00002976       0.00011948      -0.00010878
I       17.76543755       6.75344599       4.05358707       49      -0.00010306       0.00013948      -0.00031635
Cs      40.07179388      17.85565527       9.20773389       50      -0.00033692       0.00003885       0.00017562
Cs      22.68658389      12.13563207       3.08861219       51      -0.00020898      -0.00003954      -0.00007454
K        9.16744661      26.33527936      10.21290411       52      -0.00000171      -0.00025762       0.00006966
In       8.23861876      22.09935183       7.62092349       53      -0.00007699      -0.00008518      -0.00011419
I       22.78642622      22.22834523       4.91692416       54       0.00044547      -0.00025341       0.00025329
I       25.32928020      18.86952307       6.66179574       55       0.00035174      -0.00022793      -0.00011507
I       26.48862703       9.49141303       6.34560410       56      -0.00005363      -0.00000613       0.00030766
I       33.59368812      20.49718520       5.13120771       57       0.00002106       0.00019910       0.00010645
I        2.33913191      13.64035751       4.58036355       58       0.00021738       0.00006873       0.00001165
I       23.00879310      14.96268474       8.78114801       59       0.00022092       0.00024169      -0.00035421
Cs      25.15809397      16.83296496       2.85973810       60      -0.00029359       0.00007256      -0.00014914
Cs       9.07067808      11.48564516      -0.95015627       61       0.00006181       0.00022203       0.00014090
K       10.61827995      10.16229724       3.79332532       62       0.00028244      -0.00008280      -0.00002643
In       9.94783354       7.24909934       1.12763401       63      -0.00013987      -0.00010878      -0.00009531
I       24.22811123       9.20500928       0.91819280       64      -0.00013438      -0.00008068       0.00015801
I        9.68968328      17.75792427       0.28411877       65       0.00017677       0.00039236       0.00009853
I       13.28264439       8.90519545       1.84781184       66      -0.00012186       0.00056064       0.00018905
I       19.95649706      19.61873256       1.11542584       67      -0.00029725      -0.00015553       0.00005513
I      -11.42406979      13.79632962       0.17783504       68       0.00024947       0.00022597       0.00014742
I        9.82224592      13.75971772       4.46030269       69      -0.00007412       0.00005235      -0.00032212
Cs      32.12419089      24.86378290       9.61525917       70       0.00030644       0.00016264       0.00035075
Cs      14.74341433      19.14491465       3.49605285       71      -0.00004196      -0.00011225      -0.00003803
K       17.11113043      19.32744505       9.80669566       72      -0.00000407      -0.00026377       0.00014414
In      16.17729767      15.09358690       7.21397481       73       0.00053162      -0.00004014       0.00016195
I       30.73308160      15.21657358       4.50861268       74      -0.00022109       0.00022853       0.00017070
I       17.38924452      25.87729308       7.07064244       75      -0.00014682       0.00002993      -0.00021150
I       18.53835272      16.50136154       6.75436425       76      -0.00004131      -0.00007678       0.00016004
I       25.65006903      27.50325238       5.53778711       77       0.00002362       0.00042067       0.00007390
I       -5.60632658      20.64757150       4.98882247       78       0.00039748       0.00026048       0.00007734
I       15.06717095      21.97290250       9.18696262       79      -0.00000709       0.00001339      -0.00003873
