20
Lattice="12.655956867815888 -0.1695490435836166 1.8940942105267484 -0.3596419918026479 12.31087930359015 3.4384630680278634 -0.8441283336660763 -1.7330384911709256 6.115722787667086" Properties=species:S:1:pos:R:3:spacegroup_kinds:I:1:forces:R:3 spacegroup="P 1" unit_cell=conventional occupancy="_JSON {\"0\": {\"Cs\": 1.0}, \"1\": {\"Pb\": 1.0}, \"2\": {\"I\": 1.0}, \"3\": {\"I\": 1.0}, \"4\": {\"I\": 1.0}, \"5\": {\"Cs\": 1.0}, \"6\": {\"Pb\": 1.0}, \"7\": {\"I\": 1.0}, \"8\": {\"I\": 1.0}, \"9\": {\"I\": 1.0}, \"10\": {\"Cs\": 1.0}, \"11\": {\"Pb\": 1.0}, \"12\": {\"I\": 1.0}, \"13\": {\"I\": 1.0}, \"14\": {\"I\": 1.0}, \"15\": {\"Cs\": 1.0}, \"16\": {\"Pb\": 1.0}, \"17\": {\"I\": 1.0}, \"18\": {\"I\": 1.0}, \"19\": {\"I\": 1.0}}" energy=-55.93767148202883 free_energy=-55.93767148202883 stress="4.061813870921134e-06 -1.6349984881586288e-05 -5.256872901969336e-06 -1.6349984881586288e-05 -4.236185642248004e-06 -2.280365162102282e-06 -5.256872901969336e-06 -2.280365162102282e-06 -4.456777591080405e-06" pbc="T T T"
Cs       2.18336274       2.53479946       4.07675449        0       0.00002240       0.00006695      -0.00002862
Pb      -0.33197910       0.27429068       0.02524212        1      -0.00002216      -0.00014593       0.00030284
I       12.02314318      -0.77761267       5.04394873        2       0.00009858      -0.00008761      -0.00004648
I        2.83600081       0.19114749       0.64271036        3      -0.00030806       0.00006189      -0.00011939
I       -0.43279626       3.31427962       1.01773184        4       0.00021271       0.00010946      -0.00010632
Cs       2.00354163       8.69023893       5.79598581        5       0.00002275       0.00006813      -0.00002813
Pb      12.14415758       6.26018103       3.63856742        6      -0.00002576      -0.00014446       0.00030433
I       11.84332237       5.37782724       6.76318131        7       0.00009883      -0.00008750      -0.00004810
I        2.65617997       6.34658724       2.36194199        8      -0.00031121       0.00006145      -0.00011991
I       -0.61261704       9.46972100       2.73696497        9       0.00021284       0.00009757      -0.00011009
Cs       8.51134106       2.45002487       5.02380147       10       0.00002282       0.00006734      -0.00002836
Pb       5.99599988       0.18951657       0.97228929       11      -0.00002494      -0.00014815       0.00030278
I        5.69516484      -0.69283795       4.09690259       12       0.00009896      -0.00008720      -0.00004770
I        9.16398006       0.10637305       1.58975779       13      -0.00031320       0.00006179      -0.00012008
I        5.89518226       3.22950546       1.96477927       14       0.00021263       0.00010659      -0.00010716
Cs       8.33152013       8.60546447       6.74303302       15       0.00002256       0.00006776      -0.00002836
Pb       5.81617855       6.34495504       2.69151990       16      -0.00002281      -0.00014235       0.00030507
I        5.51534390       5.46260168       5.81613372       17       0.00009854      -0.00008774      -0.00004768
I        8.98415796       6.26181266       3.30898890       18      -0.00030835       0.00006155      -0.00011952
I        5.71536128       9.38494606       3.68401163       19       0.00021288       0.00010047      -0.00010911
