10
Lattice="9.265953617862303 -0.7715543004581555 0.1787003538119079 -3.96865480648385 8.411343245007291 -0.008876767611464524 -0.1823784904640909 -0.07845616345808941 8.82622418460694" Properties=species:S:1:pos:R:3:spacegroup_kinds:I:1:forces:R:3 spacegroup="P 1" unit_cell=conventional occupancy="_JSON {\"0\": {\"Cs\": 1.0}, \"1\": {\"Cs\": 1.0}, \"2\": {\"K\": 1.0}, \"3\": {\"In\": 1.0}, \"4\": {\"I\": 1.0}, \"5\": {\"I\": 1.0}, \"6\": {\"I\": 1.0}, \"7\": {\"I\": 1.0}, \"8\": {\"I\": 1.0}, \"9\": {\"I\": 1.0}}" energy=-25.793813419325176 free_energy=-25.793813419325176 stress="4.113493916192985e-06 -4.566781689597476e-06 -8.854079362021409e-06 -4.566781689597476e-06 2.4658327269942834e-06 -7.316988996595937e-06 -8.854079362021409e-06 -7.316988996595937e-06 -1.9149255186961087e-06" pbc="T T T"
Cs       2.69989195       5.78425261       8.92649415        0       0.00017288      -0.00015118       0.00024968
Cs       7.11159605       2.72348033       9.00177358        1      -0.00022267       0.00011849       0.00010966
K        2.34825731       0.47320638       4.46610176        2       0.00010438      -0.00003502       0.00025840
In       2.43930757       0.51251238       0.05295573        3       0.00076711      -0.00028358       0.00015537
I        3.78962984       2.50264423       1.86422091        4      -0.00014866       0.00025020      -0.00014988
I       -3.06168025       6.85481794       7.05933336        5       0.00017983       0.00037090      -0.00023797
I        4.72283525       0.25081204       7.16098892        6      -0.00037003       0.00010894      -0.00010039
I       -0.02600982       0.69539097       1.77138852        7      -0.00066822       0.00024464       0.00007877
I       -0.52085244       6.70535805       1.81223730        8       0.00016855      -0.00040324       0.00007915
I        1.24867386       2.65270984       7.11128984        9       0.00001683      -0.00022016      -0.00044280
