10
Lattice="10.229080729087281 0.0 0.0 -3.8651390126475333 6.694617148222137 0.0 -0.40420556962338566 -0.2333681944300076 9.70036831943136" Properties=species:S:1:pos:R:3 pbc="T T T"
Cs       3.57165743       5.05587646      -0.00007756
Cs       8.26973067       2.82433741      -0.00007756
K        2.53663512       0.47610921       4.85020006
In       2.73875453       0.59280248       0.00005615
I        4.32651661       2.30144214       1.94076801
I        7.11073355       5.34540764       7.75969091
I        5.09745055       0.40608504       7.75967530
I       10.20486338       0.54607472       1.94075240
I       -0.19384828       5.48543150       1.94074315
I        1.40193985       2.16148662       7.75966605
