160
Lattice="17.197692768116998 0.0315788091758302 2.102476192178325 -0.11993424525316353 18.293156960285597 0.7366412354027156 -3.0621517495215214 -1.0402265499985648 25.069497941336707" Properties=species:S:1:pos:R:3:spacegroup_kinds:I:1:forces:R:3 spacegroup="P 1" unit_cell=conventional occupancy="_JSON {\"0\": {\"Cs\": 1.0}, \"1\": {\"Cs\": 1.0}, \"2\": {\"Cs\": 1.0}, \"3\": {\"Cs\": 1.0}, \"4\": {\"Pb\": 1.0}, \"5\": {\"Pb\": 1.0}, \"6\": {\"Pb\": 1.0}, \"7\": {\"Pb\": 1.0}, \"8\": {\"I\": 1.0}, \"9\": {\"I\": 1.0}, \"10\": {\"I\": 1.0}, \"11\": {\"I\": 1.0}, \"12\": {\"I\": 1.0}, \"13\": {\"I\": 1.0}, \"14\": {\"I\": 1.0}, \"15\": {\"I\": 1.0}, \"16\": {\"I\": 1.0}, \"17\": {\"I\": 1.0}, \"18\": {\"I\": 1.0}, \"19\": {\"I\": 1.0}, \"20\": {\"Cs\": 1.0}, \"21\": {\"Cs\": 1.0}, \"22\": {\"Cs\": 1.0}, \"23\": {\"Cs\": 1.0}, \"24\": {\"Pb\": 1.0}, \"25\": {\"Pb\": 1.0}, \"26\": {\"Pb\": 1.0}, \"27\": {\"Pb\": 1.0}, \"28\": {\"I\": 1.0}, \"29\": {\"I\": 1.0}, \"30\": {\"I\": 1.0}, \"31\": {\"I\": 1.0}, \"32\": {\"I\": 1.0}, \"33\": {\"I\": 1.0}, \"34\": {\"I\": 1.0}, \"35\": {\"I\": 1.0}, \"36\": {\"I\": 1.0}, \"37\": {\"I\": 1.0}, \"38\": {\"I\": 1.0}, \"39\": {\"I\": 1.0}, \"40\": {\"Cs\": 1.0}, \"41\": {\"Cs\": 1.0}, \"42\": {\"Cs\": 1.0}, \"43\": {\"Cs\": 1.0}, \"44\": {\"Pb\": 1.0}, \"45\": {\"Pb\": 1.0}, \"46\": {\"Pb\": 1.0}, \"47\": {\"Pb\": 1.0}, \"48\": {\"I\": 1.0}, \"49\": {\"I\": 1.0}, \"50\": {\"I\": 1.0}, \"51\": {\"I\": 1.0}, \"52\": {\"I\": 1.0}, \"53\": {\"I\": 1.0}, \"54\": {\"I\": 1.0}, \"55\": {\"I\": 1.0}, \"56\": {\"I\": 1.0}, \"57\": {\"I\": 1.0}, \"58\": {\"I\": 1.0}, \"59\": {\"I\": 1.0}, \"60\": {\"Cs\": 1.0}, \"61\": {\"Cs\": 1.0}, \"62\": {\"Cs\": 1.0}, \"63\": {\"Cs\": 1.0}, \"64\": {\"Pb\": 1.0}, \"65\": {\"Pb\": 1.0}, \"66\": {\"Pb\": 1.0}, \"67\": {\"Pb\": 1.0}, \"68\": {\"I\": 1.0}, \"69\": {\"I\": 1.0}, \"70\": {\"I\": 1.0}, \"71\": {\"I\": 1.0}, \"72\": {\"I\": 1.0}, \"73\": {\"I\": 1.0}, \"74\": {\"I\": 1.0}, \"75\": {\"I\": 1.0}, \"76\": {\"I\": 1.0}, \"77\": {\"I\": 1.0}, \"78\": {\"I\": 1.0}, \"79\": {\"I\": 1.0}, \"80\": {\"Cs\": 1.0}, \"81\": {\"Cs\": 1.0}, \"82\": {\"Cs\": 1.0}, \"83\": {\"Cs\": 1.0}, \"84\": {\"Pb\": 1.0}, \"85\": {\"Pb\": 1.0}, \"86\": {\"Pb\": 1.0}, \"87\": {\"Pb\": 1.0}, \"88\": {\"I\": 1.0}, \"89\": {\"I\": 1.0}, \"90\": {\"I\": 1.0}, \"91\": {\"I\": 1.0}, \"92\": {\"I\": 1.0}, \"93\": {\"I\": 1.0}, \"94\": {\"I\": 1.0}, \"95\": {\"I\": 1.0}, \"96\": {\"I\": 1.0}, \"97\": {\"I\": 1.0}, \"98\": {\"I\": 1.0}, \"99\": {\"I\": 1.0}, \"100\": {\"Cs\": 1.0}, \"101\": {\"Cs\": 1.0}, \"102\": {\"Cs\": 1.0}, \"103\": {\"Cs\": 1.0}, \"104\": {\"Pb\": 1.0}, \"105\": {\"Pb\": 1.0}, \"106\": {\"Pb\": 1.0}, \"107\": {\"Pb\": 1.0}, \"108\": {\"I\": 1.0}, \"109\": {\"I\": 1.0}, \"110\": {\"I\": 1.0}, \"111\": {\"I\": 1.0}, \"112\": {\"I\": 1.0}, \"113\": {\"I\": 1.0}, \"114\": {\"I\": 1.0}, \"115\": {\"I\": 1.0}, \"116\": {\"I\": 1.0}, \"117\": {\"I\": 1.0}, \"118\": {\"I\": 1.0}, \"119\": {\"I\": 1.0}, \"120\": {\"Cs\": 1.0}, \"121\": {\"Cs\": 1.0}, \"122\": {\"Cs\": 1.0}, \"123\": {\"Cs\": 1.0}, \"124\": {\"Pb\": 1.0}, \"125\": {\"Pb\": 1.0}, \"126\": {\"Pb\": 1.0}, \"127\": {\"Pb\": 1.0}, \"128\": {\"I\": 1.0}, \"129\": {\"I\": 1.0}, \"130\": {\"I\": 1.0}, \"131\": {\"I\": 1.0}, \"132\": {\"I\": 1.0}, \"133\": {\"I\": 1.0}, \"134\": {\"I\": 1.0}, \"135\": {\"I\": 1.0}, \"136\": {\"I\": 1.0}, \"137\": {\"I\": 1.0}, \"138\": {\"I\": 1.0}, \"139\": {\"I\": 1.0}, \"140\": {\"Cs\": 1.0}, \"141\": {\"Cs\": 1.0}, \"142\": {\"Cs\": 1.0}, \"143\": {\"Cs\": 1.0}, \"144\": {\"Pb\": 1.0}, \"145\": {\"Pb\": 1.0}, \"146\": {\"Pb\": 1.0}, \"147\": {\"Pb\": 1.0}, \"148\": {\"I\": 1.0}, \"149\": {\"I\": 1.0}, \"150\": {\"I\": 1.0}, \"151\": {\"I\": 1.0}, \"152\": {\"I\": 1.0}, \"153\": {\"I\": 1.0}, \"154\": {\"I\": 1.0}, \"155\": {\"I\": 1.0}, \"156\": {\"I\": 1.0}, \"157\": {\"I\": 1.0}, \"158\": {\"I\": 1.0}, \"159\": {\"I\": 1.0}}" energy=-452.06421283328103 free_energy=-452.06421283328103 stress="3.1673110515995245e-06 1.1477102771350494e-05 2.1985950654693073e-06 1.1477102771350494e-05 -4.328558979525405e-07 -1.2032245407235907e-05 2.1985950654693073e-06 -1.2032245407235907e-05 -7.1121776331754425e-06" pbc="T T T"
Cs       4.13367702       8.43651271       4.03755671        0       0.00004959       0.00033687      -0.00007299
Cs       0.33522687       3.85631344       3.38476339        1      -0.00005411      -0.00002293      -0.00004762
Cs       3.88926388       0.45421658      10.05170183        2      -0.00010029      -0.00007829      -0.00001661
Cs       7.68916973       5.03475085      10.70290767        3      -0.00013839       0.00002660       0.00033803
Pb       0.50785001       0.12420613       0.06745287        4       0.00030827       0.00002083      -0.00031739
Pb       4.77779207       4.70552059       0.77687633        5      -0.00011409      -0.00016402      -0.00022167
Pb      -0.25795308      -0.13595754       6.33466000        6      -0.00017503      -0.00056494      -0.00028082
Pb       4.01187648       4.44506670       7.04419997        7      -0.00007261       0.00055133      -0.00016238
I        2.06512322       6.49758976       1.05018642        8       0.00006346       0.00015244      -0.00003104
I        3.06870649       1.92624582       0.98436997        9       0.00004325      -0.00006720       0.00016114
I        7.99418331       0.09514921       4.16656536       10       0.00015295       0.00004141       0.00025989
I        5.95894520       2.39374767      13.03812019       11      -0.00017575      -0.00006402       0.00006113
I        4.95517990       6.96480243      13.10407451       12      -0.00014244      -0.00030395       0.00006841
I        5.12292975       4.66271718       4.00301595       13      -0.00017305      -0.00014357       0.00046934
I        1.42737492       6.28094263       6.27312810       14       0.00029052      -0.00043087      -0.00007714
I        2.42943815       1.70972322       6.20866524       15       0.00022324       0.00006303      -0.00016236
I        0.02856721       8.79627913       9.92221221       16       0.00006334      -0.00021913       0.00003190
I        6.59545499       2.60957501       7.81562719       17       0.00012326       0.00010999       0.00002537
I        5.59328599       7.18135344       7.88045312       18      -0.00021234      -0.00048249      -0.00016752
I        2.90140028       4.22869938      10.08543022       19      -0.00008537      -0.00012989      -0.00014138
Cs       2.60260401       7.91642195      16.57230805       20       0.00005180       0.00018722      -0.00009919
Cs      -1.19585208       3.33619818      15.91948505       21      -0.00006831      -0.00000937       0.00013907
Cs       2.35818831      -0.06592876      22.58644600       22      -0.00012210       0.00011615      -0.00001300
Cs       6.15810485       4.51466866      23.23767458       23      -0.00018336      -0.00014523       0.00022584
Pb      -1.02316318      -0.39580613      12.60219630       24      -0.00008104      -0.00038806      -0.00015110
Pb       3.24664579       4.18531956      13.31148278       25       0.00008109       0.00027415       0.00067373
Pb      -1.78915408      -0.65624345      18.86931138       26       0.00043988       0.00036245       0.00014128
Pb       2.48081261       3.92502716      19.57892650       27      -0.00015554       0.00006793       0.00002143
I        0.53401473       5.97753291      13.58493333       28       0.00030672      -0.00017783      -0.00003947
I        1.53761701       1.40613841      13.51912094       29       0.00012317      -0.00008590       0.00011066
I        6.46312125      -0.42495252      16.70138022       30       0.00016651       0.00000522      -0.00021508
I        4.42784827       1.87364404      25.57285130       31      -0.00009070      -0.00008385       0.00015353
I        3.42408293       6.44464453      25.63881194       32       0.00002306      -0.00001783       0.00009893
I        3.59187653       4.14260756      16.53788141       33      -0.00013662      -0.00008869      -0.00033801
I       -0.10363319       5.76072640      18.80788925       34      -0.00018962       0.00018351      -0.00011136
I        0.89839802       1.18966686      18.74344550       35      -0.00001794      -0.00024128      -0.00028961
I       -1.50250112       8.27614546      22.45697138       36       0.00004997      -0.00011073       0.00000221
I        5.06435429       2.08948678      20.35037200       37       0.00031039      -0.00006344       0.00003768
I        4.06211698       6.66110088      20.41514889       38       0.00032319       0.00024083      -0.00000639
I        1.37031402       3.70857774      22.62012185       39      -0.00012279      -0.00011859       0.00027475
Cs       4.07371141      17.58314304       4.40589793       40       0.00007468       0.00005308      -0.00020297
Cs       0.27525890      13.00290648       3.75306347       41      -0.00007956      -0.00009561       0.00011401
Cs       3.82930419       9.60073841      10.42001958       42      -0.00015340       0.00022796      -0.00002723
Cs       7.62920128      14.18137732      11.07124620       43      -0.00011137      -0.00023210       0.00022551
Pb       0.44786071       9.27075344       0.43570592       44       0.00030531       0.00020141       0.00006393
Pb       4.71776466      13.85203594       1.14507367       45       0.00004747       0.00012465       0.00052651
Pb      -0.31794890       9.01037666       6.70291377       46      -0.00000181       0.00077816       0.00008443
Pb       3.95190527      13.59178666       7.41250866       47      -0.00005915      -0.00026321      -0.00006213
I        2.00516074      15.64416534       1.41851239       48       0.00005452       0.00017283      -0.00006726
I        3.00878434      11.07288369       1.35272425       49      -0.00016718      -0.00035288       0.00003558
I        7.93423807       9.24174578       4.53497001       50       0.00013785      -0.00002501      -0.00030073
I        5.89894648      11.54034476      13.40642406       51      -0.00004378      -0.00012561       0.00013932
I        4.89517865      16.11130164      13.47238020       52       0.00009783       0.00015147       0.00008452
I        5.06297982      13.80928396       4.37141588       53      -0.00014837      -0.00003718      -0.00007494
I        1.36749377      15.42736686       6.64145769       54      -0.00031488       0.00044531      -0.00008355
I        2.36947947      10.85633322       6.57700195       55       0.00011547      -0.00014497      -0.00024964
I        0.08853353      -0.35033577       9.55391688       56       0.00011519      -0.00002455      -0.00011406
I        6.53548256      11.75616221       8.18394759       57       0.00020828       0.00001133       0.00003019
I        5.53321528      16.32776175       8.24871050       58       0.00042068       0.00044359       0.00003784
I        2.84141471      13.37526900      10.45369494       59      -0.00008883      -0.00010769       0.00025555
Cs       2.54263969      17.06299858      16.94062020       60       0.00002352       0.00021074      -0.00002241
Cs      -1.25581878      12.48278697      16.28783204       61      -0.00004286      -0.00007178      -0.00004610
Cs       2.29822254       9.08066840      22.95477063       62      -0.00011262       0.00002398      -0.00002187
Cs       6.09813572      13.66122236      23.60597835       63      -0.00020053      -0.00003147       0.00034115
Pb      -1.08314097       8.75059073      12.97053269       64       0.00006194       0.00046644      -0.00035599
Pb       3.18680104      13.33200671      13.67995562       65      -0.00032645      -0.00028390      -0.00014365
Pb      -1.84908341       8.49042736      19.23769342       66       0.00024223      -0.00017410      -0.00023938
Pb       2.42088704      13.07157717      19.94728128       67      -0.00029275       0.00025573      -0.00010002
I        0.47407017      15.12402915      13.95325558       68       0.00009392       0.00028598      -0.00005609
I        1.47763343      10.55269381      13.88742803       69       0.00016562      -0.00000604       0.00016630
I        6.40315236       8.72162273      17.06967016       70       0.00013767       0.00001454       0.00005118
I        4.36787199      11.02024242      25.94118064       71       0.00000268      -0.00022230       0.00009033
I        3.36410273      15.59121994      26.00712677       72       0.00008526      -0.00001226       0.00011163
I        3.53187989      13.28917820      16.90610524       73      -0.00011825      -0.00009629       0.00029105
I       -0.16363645      14.90734646      19.17619763       74       0.00005205      -0.00008091      -0.00006825
I        0.83840625      10.33620544      19.11174176       75       0.00014577      -0.00002456      -0.00018308
I       -1.44252377      -0.87041983      22.08866169       76       0.00000486      -0.00016288      -0.00008113
I        5.00438568      11.23604910      20.71868649       77       0.00024377       0.00006400       0.00005143
I        4.00217263      15.80772458      20.78348796       78       0.00013116      -0.00005535      -0.00009205
I        1.31036565      12.85516268      22.98850718       79      -0.00012304      -0.00011945      -0.00018345
Cs      12.73252766       8.45228390       5.08878524       80       0.00002363       0.00038476      -0.00001632
Cs       8.93408831       3.87210803       4.43600563       81      -0.00012989      -0.00002923      -0.00005516
Cs      12.48810852       0.47000514      11.10293743       82      -0.00009975      -0.00007136      -0.00000460
Cs      -0.90967174       5.01895914       9.65167296       83      -0.00015379       0.00003513       0.00032005
Pb       9.10680552       0.14001344       1.11874236       84      -0.00025582      -0.00001905      -0.00048642
Pb      13.37666455       4.72136422       1.82815277       85      -0.00020936      -0.00029572      -0.00027801
Pb       8.34089022      -0.12021154       7.38589176       86      -0.00019118      -0.00040899      -0.00028429
Pb      12.61072493       4.46088077       8.09538902       87      -0.00015621       0.00047231       0.00011648
I       10.66395262       6.51339169       2.10141856       88       0.00022387       0.00001982      -0.00001011
I       11.66749435       1.94198428       2.03557751       89       0.00032237       0.00014872       0.00022909
I       16.59303672       0.11093693       5.21780374       90       0.00011506       0.00004648       0.00022813
I       14.55780019       2.40950847      14.08935799       91      -0.00018836       0.00002502       0.00006270
I       13.55404219       6.98060597      14.15531929       92      -0.00021408      -0.00035001       0.00005537
I       13.72177188       4.67851149       5.05427030       93      -0.00014360      -0.00014994       0.00030598
I       10.02622699       6.29672972       7.32437154       94       0.00027875      -0.00040881      -0.00009558
I       11.02826636       1.72549309       7.25989881       95       0.00027104       0.00009802      -0.00017865
I        8.62741624       8.81206212      10.97343922       96       0.00004762      -0.00019838       0.00008216
I       15.19431563       2.62534941       8.86687289       97       0.00007214       0.00017528       0.00001194
I       14.19211446       7.19712580       8.93168705       98      -0.00017992      -0.00046112      -0.00017665
I       11.50023637       4.24448565      11.13666484       99      -0.00003084      -0.00012186      -0.00013400
Cs      11.20144725       7.93220551      17.62355527      100       0.00007349       0.00021582      -0.00016566
Cs       7.40301185       3.35199991      16.97073970      101      -0.00015518      -0.00005214       0.00007433
Cs      10.95704289      -0.05016004      23.63768361      102      -0.00015996       0.00016991      -0.00000631
Cs      -2.44076426       4.49888489      22.18643171      103      -0.00005081      -0.00016088       0.00022903
Pb       7.57565636      -0.38010979      13.65339584      104      -0.00001813      -0.00007014       0.00001800
Pb      11.84553583       4.20116162      14.36278753      105      -0.00010520       0.00012246       0.00035425
Pb       6.80982063      -0.64044422      19.92059723      106      -0.00022864       0.00036932       0.00003274
Pb      11.07963720       3.94086762      20.63013353      107      -0.00009467      -0.00005096       0.00013268
I        9.13286913       5.99329832      14.63617130      108       0.00028717      -0.00007624      -0.00003923
I       10.13646455       1.42190650      14.57036109      109       0.00012840      -0.00002557       0.00010390
I       15.06198106      -0.40916681      17.75262766      110       0.00009985       0.00001692      -0.00024578
I       13.02672752       1.88940480      26.62409929      111      -0.00026056       0.00004804       0.00012236
I       12.02293361       6.46042446      26.69005306      112      -0.00004755      -0.00003888       0.00007059
I       12.19071606       4.15839272      17.58908537      113      -0.00014933      -0.00009551      -0.00009717
I        8.49519738       5.77652441      19.85912290      114      -0.00005488       0.00010148      -0.00008859
I        9.49718869       1.20538874      19.79465277      115       0.00025517       0.00001789      -0.00022000
I        7.09633257       8.29192925      23.50821136      116       0.00013164      -0.00008867      -0.00004306
I       13.66326416       2.10522515      21.40163001      117       0.00000847       0.00016738      -0.00000520
I       12.66100791       6.67693076      21.46640594      118       0.00007886       0.00003482      -0.00004431
I        9.96914177       3.72436936      23.67136712      119      -0.00001681      -0.00012139       0.00021224
Cs      12.67255825      17.59891016       5.45712381      120       0.00006535       0.00011984      -0.00013466
Cs       8.87412340      13.01870640       4.80431427      121      -0.00016224      -0.00012257       0.00006666
Cs      12.42814343       9.61651752      11.47125661      122      -0.00012456       0.00027375      -0.00003416
Cs      -0.96963821      14.16558734      10.02000387      123      -0.00014736      -0.00023343       0.00024488
Pb       9.04679133       9.28653660       1.48697883      124      -0.00014196       0.00024984      -0.00005368
Pb      13.31666142      13.86790945       2.19636988      125      -0.00013945      -0.00012961       0.00042370
Pb       8.28088015       9.02617084       7.75415646      126       0.00005222       0.00072999       0.00001844
Pb      12.55071026      13.60762345       8.46367606      127       0.00005946      -0.00042699       0.00029790
I       10.60398302      15.65996800       2.46974196      128       0.00024334       0.00003905      -0.00004001
I       11.60756415      11.08860016       2.40392945      129       0.00015653      -0.00003703       0.00009868
I       16.53308904       9.25753654       5.58620974      130       0.00011386      -0.00003132      -0.00034821
I       14.49782588      11.55612108      14.45766372      131      -0.00017500      -0.00008946       0.00016268
I       13.49401234      16.12708414      14.52360418      132       0.00016279       0.00019781       0.00014362
I       13.66182108      13.82507692       5.42266679      133      -0.00012479      -0.00003858      -0.00023749
I        9.96636018      15.44315684       7.69271091      134      -0.00038573       0.00045245      -0.00013737
I       10.96832499      10.87211919       7.62824346      135       0.00010359      -0.00015854      -0.00027790
I        8.68738443      -0.33453941      10.60516140      136       0.00011251      -0.00004646      -0.00016281
I       15.13434925      11.77195285       9.23520458      137       0.00013346       0.00001753      -0.00003498
I       14.13203199      16.34351090       9.29993910      138       0.00049612       0.00053825       0.00002613
I       11.44026882      13.39105842      11.50494859      139      -0.00010050      -0.00010787       0.00017234
Cs      11.14148371      17.07877913      17.99187374      140       0.00004642       0.00024535      -0.00012667
Cs       7.34304056      12.49858058      17.33907274      141      -0.00011836      -0.00008267      -0.00004618
Cs      10.89707748       9.09643810      24.00600944      142      -0.00014903       0.00006777      -0.00001818
Cs      -2.50073491      13.64544107      22.55473774      143      -0.00005149      -0.00005317       0.00033030
Pb       7.51570074       8.76642741      14.02177139      144       0.00004341       0.00025804      -0.00033667
Pb      11.78556933      13.34782167      14.73121530      145       0.00002192      -0.00031990      -0.00037042
Pb       6.74985421       8.50623446      20.28895545      146      -0.00026868      -0.00020667      -0.00023770
Pb      11.01970158      13.08745283      20.99849913      147      -0.00016215       0.00000608      -0.00007393
I        9.07294227      15.13982334      15.00449299      148      -0.00000913       0.00026936      -0.00001923
I       10.07649491      10.56849199      14.93866906      149       0.00008647      -0.00008686       0.00018286
I       15.00200828       8.73741531      18.12090876      150       0.00007768      -0.00000207       0.00006823
I       12.96675160      11.03599690      26.99242732      151      -0.00017090      -0.00006950       0.00006652
I       11.96297222      15.60701079      27.05837891      152      -0.00007757      -0.00008431       0.00004812
I       12.13073201      13.30496270      17.95731131      153      -0.00019270      -0.00009930       0.00054456
I        8.43518958      14.92316130      20.22743536      154       0.00021230      -0.00022613      -0.00006622
I        9.43719315      10.35190762      20.16294497      155       0.00041745       0.00029347      -0.00010913
I        7.15630371      -0.85463668      23.13989164      156       0.00010637      -0.00014306      -0.00006413
I       13.60330700      11.25177824      21.76994759      157      -0.00010914       0.00032928       0.00000408
I       12.60107927      15.82356271      21.83474883      158      -0.00017278      -0.00027843      -0.00012526
I        9.90918987      12.87095052      24.03974353      159      -0.00001585      -0.00010755      -0.00018828
