160
Lattice="17.49354322045118 0.0 0.0 -0.14819209047162565 16.93224568068278 0.0 -6.565070294570637 -2.0923358928506124 27.684570030907505" Properties=species:S:1:pos:R:3 pbc="T T T"
Cs       3.78897087       7.66580902       3.46057126
Cs      -0.06923811       3.43292289       3.46057126
Cs       2.68838521      -0.00554742      10.38171376
Cs       6.54661224       4.22768929      10.38171376
Pb       0.54359425       0.12028384       0.00000103
Pb       4.33633778       4.23306142       0.00000000
Pb      -1.09767332      -0.40280014       6.92114148
Pb       3.23866989       3.83017103       6.92114639
I        2.04801002       5.99341834       0.57523672
I        3.07320510       1.76034285       0.57540226
I        7.72817555      -0.06137331       3.46057126
I        4.42934154       1.66702851      13.26686515
I        3.40414786       5.90007586      13.26703070
I        4.79943972       4.17150864       3.46057126
I        0.67960713       5.55729833       6.34590580
I        1.70480221       1.32422284       6.34574026
I       -1.25086652       7.72198984      10.38171376
I        5.79774443       2.10314851       7.49656237
I        4.77255076       6.33619586       7.49639683
I        1.67787397       3.48874895      10.38171376
Cs       0.50643572       6.61964107      17.30285627
Cs      -3.35177326       2.38675494      17.30285627
Cs      -0.59414994      -1.05171537      24.22399878
Cs       3.26407710       3.18152135      24.22399878
Pb      -2.73894089      -0.92588411      13.84228605
Pb       1.05380264       3.18689347      13.84228502
Pb      -4.38020847      -1.44896808      20.76342650
Pb      -0.04386526       2.78400308      20.76343141
I       -1.23452512       4.94725039      14.41752173
I       -0.20933005       0.71417490      14.41768727
I        4.44564040      -1.10754126      17.30285627
I        1.14680639       0.62086056      27.10915017
I        0.12161271       4.85390791      27.10931571
I        1.51690458       3.12534069      17.30285627
I       -2.60292802       4.51113038      20.18819081
I       -1.57773294       0.27805489      20.18802527
I       -4.53340167       6.67582189      24.22399878
I        2.51520929       1.05698057      21.33884739
I        1.49001561       5.29002792      21.33868185
I       -1.60466117       2.44258100      24.22399878
Cs       3.71487483      16.13193186       3.46057126
Cs      -0.14333415      11.89904573       3.46057126
Cs       2.61428916       8.46057542      10.38171376
Cs       6.47251620      12.69381213      10.38171376
Pb       0.46949821       8.58640668       0.00000103
Pb       4.26224174      12.69918426       0.00000000
Pb      -1.17176936       8.06332270       6.92114148
Pb       3.16457384      12.29629387       6.92114639
I        1.97391398      14.45954118       0.57523672
I        2.99910906      10.22646569       0.57540226
I        7.65407950       8.40474953       3.46057126
I        4.35524549      10.13315135      13.26686515
I        3.33005182      14.36619870      13.26703070
I        4.72534368      12.63763148       3.46057126
I        0.60551108      14.02342117       6.34590580
I        1.63070616       9.79034568       6.34574026
I       -1.32496257      16.18811268      10.38171376
I        5.72364839      10.56927135       7.49656237
I        4.69845471      14.80231871       7.49639683
I        1.60377793      11.95487179      10.38171376
Cs       0.43233968      15.08576391      17.30285627
Cs      -3.42586930      10.85287778      17.30285627
Cs      -0.66824599       7.41440747      24.22399878
Cs       3.18998105      11.64764419      24.22399878
Pb      -2.81303694       7.54023873      13.84228605
Pb       0.97970659      11.65301631      13.84228502
Pb      -4.45430451       7.01715476      20.76342650
Pb      -0.11796130      11.25012592      20.76343141
I       -1.30862117      13.41337323      14.41752173
I       -0.28342609       9.18029774      14.41768727
I        4.37154436       7.35858158      17.30285627
I        1.07271035       9.08698340      27.10915017
I        0.04751667      13.32003075      27.10931571
I        1.44280853      11.59146353      17.30285627
I       -2.67702406      12.97725322      20.18819081
I       -1.65182899       8.74417773      20.18802527
I       -4.60749771      15.14194474      24.22399878
I        2.44111324       9.52310341      21.33884739
I        1.41591956      13.75615076      21.33868185
I       -1.67875722      10.90870384      24.22399878
Cs      12.53574248       7.66580902       3.46057126
Cs       8.67753350       3.43292289       3.46057126
Cs      11.43515682      -0.00554742      10.38171376
Cs      15.29338385       4.22768929      10.38171376
Pb       9.29036586       0.12028384       0.00000103
Pb      13.08310939       4.23306142       0.00000000
Pb       7.64909829      -0.40280014       6.92114148
Pb      11.98544150       3.83017103       6.92114639
I       10.79478163       5.99341834       0.57523672
I       11.81997671       1.76034285       0.57540226
I       16.47494716      -0.06137331       3.46057126
I       13.17611315       1.66702851      13.26686515
I       12.15091947       5.90007586      13.26703070
I       13.54621133       4.17150864       3.46057126
I        9.42637874       5.55729833       6.34590580
I       10.45157382       1.32422284       6.34574026
I        7.49590509       7.72198984      10.38171376
I       14.54451605       2.10314851       7.49656237
I       13.51932237       6.33619586       7.49639683
I       10.42464559       3.48874895      10.38171376
Cs       9.25320733       6.61964107      17.30285627
Cs       5.39499835       2.38675494      17.30285627
Cs       8.15262167      -1.05171537      24.22399878
Cs      12.01084871       3.18152135      24.22399878
Pb       6.00783072      -0.92588411      13.84228605
Pb       9.80057425       3.18689347      13.84228502
Pb       4.36656314      -1.44896808      20.76342650
Pb       8.70290635       2.78400308      20.76343141
I        7.51224649       4.94725039      14.41752173
I        8.53744156       0.71417490      14.41768727
I       13.19241201      -1.10754126      17.30285627
I        9.89357800       0.62086056      27.10915017
I        8.86838432       4.85390791      27.10931571
I       10.26367619       3.12534069      17.30285627
I        6.14384359       4.51113038      20.18819081
I        7.16903867       0.27805489      20.18802527
I        4.21336994       6.67582189      24.22399878
I       11.26198090       1.05698057      21.33884739
I       10.23678722       5.29002792      21.33868185
I        7.14211044       2.44258100      24.22399878
Cs      12.46164644      16.13193186       3.46057126
Cs       8.60343746      11.89904573       3.46057126
Cs      11.36106077       8.46057542      10.38171376
Cs      15.21928781      12.69381213      10.38171376
Pb       9.21626982       8.58640668       0.00000103
Pb      13.00901335      12.69918426       0.00000000
Pb       7.57500225       8.06332270       6.92114148
Pb      11.91134545      12.29629387       6.92114639
I       10.72068559      14.45954118       0.57523672
I       11.74588067      10.22646569       0.57540226
I       16.40085111       8.40474953       3.46057126
I       13.10201710      10.13315135      13.26686515
I       12.07682343      14.36619870      13.26703070
I       13.47211529      12.63763148       3.46057126
I        9.35228269      14.02342117       6.34590580
I       10.37747777       9.79034568       6.34574026
I        7.42180904      16.18811268      10.38171376
I       14.47042000      10.56927135       7.49656237
I       13.44522632      14.80231871       7.49639683
I       10.35054954      11.95487179      10.38171376
Cs       9.17911129      15.08576391      17.30285627
Cs       5.32090231      10.85287778      17.30285627
Cs       8.07852562       7.41440747      24.22399878
Cs      11.93675266      11.64764419      24.22399878
Pb       5.93373467       7.54023873      13.84228605
Pb       9.72647820      11.65301631      13.84228502
Pb       4.29246710       7.01715476      20.76342650
Pb       8.62881031      11.25012592      20.76343141
I        7.43815044      13.41337323      14.41752173
I        8.46334552       9.18029774      14.41768727
I       13.11831597       7.35858158      17.30285627
I        9.81948196       9.08698340      27.10915017
I        8.79428828      13.32003075      27.10931571
I       10.18958014      11.59146353      17.30285627
I        6.06974755      12.97725322      20.18819081
I        7.09494262       8.74417773      20.18802527
I        4.13927390      15.14194474      24.22399878
I       11.18788485       9.52310341      21.33884739
I       10.16269117      13.75615076      21.33868185
I        7.06801439      10.90870384      24.22399878
