80
Lattice="22.396738592166248 -0.8127426970101719 2.8265544652202723 3.464177219366879 18.505696911854113 0.4833281377063972 13.879132772820542 2.3981038747739625 14.31674384366717" Properties=species:S:1:pos:R:3:spacegroup_kinds:I:1:forces:R:3 spacegroup="P 1" unit_cell=conventional occupancy="_JSON {\"0\": {\"Cs\": 1.0}, \"1\": {\"Cs\": 1.0}, \"2\": {\"K\": 1.0}, \"3\": {\"In\": 1.0}, \"4\": {\"I\": 1.0}, \"5\": {\"I\": 1.0}, \"6\": {\"I\": 1.0}, \"7\": {\"I\": 1.0}, \"8\": {\"I\": 1.0}, \"9\": {\"I\": 1.0}, \"10\": {\"Cs\": 1.0}, \"11\": {\"Cs\": 1.0}, \"12\": {\"K\": 1.0}, \"13\": {\"In\": 1.0}, \"14\": {\"I\": 1.0}, \"15\": {\"I\": 1.0}, \"16\": {\"I\": 1.0}, \"17\": {\"I\": 1.0}, \"18\": {\"I\": 1.0}, \"19\": {\"I\": 1.0}, \"20\": {\"Cs\": 1.0}, \"21\": {\"Cs\": 1.0}, \"22\": {\"K\": 1.0}, \"23\": {\"In\": 1.0}, \"24\": {\"I\": 1.0}, \"25\": {\"I\": 1.0}, \"26\": {\"I\": 1.0}, \"27\": {\"I\": 1.0}, \"28\": {\"I\": 1.0}, \"29\": {\"I\": 1.0}, \"30\": {\"Cs\": 1.0}, \"31\": {\"Cs\": 1.0}, \"32\": {\"K\": 1.0}, \"33\": {\"In\": 1.0}, \"34\": {\"I\": 1.0}, \"35\": {\"I\": 1.0}, \"36\": {\"I\": 1.0}, \"37\": {\"I\": 1.0}, \"38\": {\"I\": 1.0}, \"39\": {\"I\": 1.0}, \"40\": {\"Cs\": 1.0}, \"41\": {\"Cs\": 1.0}, \"42\": {\"K\": 1.0}, \"43\": {\"In\": 1.0}, \"44\": {\"I\": 1.0}, \"45\": {\"I\": 1.0}, \"46\": {\"I\": 1.0}, \"47\": {\"I\": 1.0}, \"48\": {\"I\": 1.0}, \"49\": {\"I\": 1.0}, \"50\": {\"Cs\": 1.0}, \"51\": {\"Cs\": 1.0}, \"52\": {\"K\": 1.0}, \"53\": {\"In\": 1.0}, \"54\": {\"I\": 1.0}, \"55\": {\"I\": 1.0}, \"56\": {\"I\": 1.0}, \"57\": {\"I\": 1.0}, \"58\": {\"I\": 1.0}, \"59\": {\"I\": 1.0}, \"60\": {\"Cs\": 1.0}, \"61\": {\"Cs\": 1.0}, \"62\": {\"K\": 1.0}, \"63\": {\"In\": 1.0}, \"64\": {\"I\": 1.0}, \"65\": {\"I\": 1.0}, \"66\": {\"I\": 1.0}, \"67\": {\"I\": 1.0}, \"68\": {\"I\": 1.0}, \"69\": {\"I\": 1.0}, \"70\": {\"Cs\": 1.0}, \"71\": {\"Cs\": 1.0}, \"72\": {\"K\": 1.0}, \"73\": {\"In\": 1.0}, \"74\": {\"I\": 1.0}, \"75\": {\"I\": 1.0}, \"76\": {\"I\": 1.0}, \"77\": {\"I\": 1.0}, \"78\": {\"I\": 1.0}, \"79\": {\"I\": 1.0}}" energy=-193.84340855939072 free_energy=-193.84340855939072 stress="8.829051336860129e-07 -4.370434168773211e-06 1.09823369280976e-06 -4.370434168773211e-06 -5.733177435264584e-06 -6.492493384052974e-07 1.09823369280976e-06 -6.492493384052974e-07 4.022008927029402e-06" pbc="T T T"
Cs       6.04292628       2.19787679       2.65859359        0       0.00029029       0.00010862      -0.00043855
Cs      15.42367410       6.88460120       5.33161605        1      -0.00024811      -0.00016163       0.00000094
K       10.16903107       5.12525779       6.44577673        2       0.00008368       0.00016793      -0.00005441
In      22.07557021       1.42687392       3.82637484        3       0.00019646       0.00010028      -0.00006945
I        8.14030250      -0.30749759       0.33713591        4      -0.00022474       0.00019732       0.00001640
I       11.07686217      11.28238305       8.19052470        5       0.00001552      -0.00008161      -0.00019116
I       12.43464763       4.65331938       3.72162275        6      -0.00026595      -0.00040129       0.00014474
I        6.90318409       4.83779467       5.39513117        7       0.00000232      -0.00004197      -0.00024672
I       19.67533933       7.88184459      15.20430821        8       0.00044573      -0.00028079      -0.00013037
I       13.75020708       2.81207392       5.69569161        9      -0.00008225      -0.00004646      -0.00011312
Cs      12.98389523       3.39712446       9.81317394       10       0.00002513       0.00006221       0.00014523
Cs      22.35898041       8.08272426      12.49138118       11      -0.00016224       0.00013687       0.00006195
K       17.10751538       6.32339380      13.60725845       12      -0.00006064      -0.00010471      -0.00013140
In      29.01798970       2.62613774      10.98627104       13      -0.00013047      -0.00008610       0.00026110
I       15.08191215       0.89197463       7.49244233       14       0.00001833      -0.00026869      -0.00013055
I       18.01225017      12.48083078      15.35007905       15       0.00044021      -0.00020724       0.00016719
I       19.37053371       5.84975905      10.88172175       16       0.00007720      -0.00014812       0.00016847
I       13.84357511       6.03599360      12.55170228       17       0.00006379      -0.00035095       0.00036135
I       12.73776796       6.68290267       8.04256323       18      -0.00005373       0.00013195       0.00004141
I        6.80710124       1.61131069      -1.46013465       19       0.00041227       0.00033306      -0.00036013
Cs       7.77535407      11.45077184       2.89902967       20       0.00033568      -0.00018879      -0.00008964
Cs      17.15508326      16.13697119       5.57205090       21      -0.00030673       0.00025870       0.00013377
K       11.90137961      14.37818916       6.68674983       22       0.00020722      -0.00007297       0.00003689
In      23.80834541      10.68021128       4.06763673       23      -0.00010548      -0.00001733      -0.00026651
I        9.87198058       8.94543107       0.57832459       24       0.00021248       0.00020109      -0.00037060
I       12.80795991      20.53546310       8.43240508       25      -0.00010693       0.00006355      -0.00003827
I       14.16684478      13.90446514       3.96283689       26      -0.00017262       0.00000262      -0.00002606
I        8.63572144      14.09005817       5.63616255       27       0.00018565      -0.00002477      -0.00024062
I       21.40922468      17.13478310      15.44532368       28      -0.00038532      -0.00007870      -0.00001675
I       15.48321632      12.06402558       5.93697911       29      -0.00001879      -0.00004136       0.00007938
Cs      14.71685498      12.65021176      10.05418893       30       0.00010446      -0.00017825       0.00006978
Cs      24.09292567      17.33527375      12.73320014       31       0.00011669      -0.00011952      -0.00008361
K       18.84092083      15.57641422      13.84811955       32      -0.00028781       0.00012876      -0.00003706
In      30.75090701      11.87815686      11.22723341       33      -0.00026580       0.00012770       0.00041210
I       16.81605026      10.14430780       7.73350582       34      -0.00045739       0.00019923       0.00008420
I       19.74383581      21.73315289      15.59260785       35       0.00014310       0.00031137      -0.00010564
I       21.10418024      15.10354786      11.12269963       36      -0.00018785       0.00006539      -0.00024541
I       15.57661653      15.28885108      12.79282157       37      -0.00013262       0.00012601       0.00016316
I       14.46995625      15.93592874       8.28367336       38      -0.00003945       0.00005507      -0.00011313
I        8.54028880      10.86477859      -1.21937756       39       0.00012144      -0.00005898       0.00011238
Cs      17.24359636       1.79142292       4.06825437       40      -0.00039589       0.00012114      -0.00003876
Cs      26.61805771       6.47839190       6.74666481       41      -0.00011169       0.00004707      -0.00016792
K       21.36593879       4.71716171       7.86139630       42       0.00017404       0.00016950       0.00002279
In      10.88002943       1.83386141       2.41468042       43       0.00004014      -0.00007873       0.00008008
I       19.34027519      -0.71313561       1.74587448       44       0.00023913      -0.00021162       0.00025478
I       22.27227336      10.87480972       9.60545641       45       0.00035173      -0.00010963      -0.00023772
I       23.62970493       4.24560004       5.13604391       46      -0.00030498       0.00014854      -0.00033549
I       18.10159720       4.42842257       6.80825558       47      -0.00000104       0.00022458       0.00012048
I       30.87634524       7.47558054      16.61455506       48      -0.00020288      -0.00009107       0.00032715
I       24.94590266       2.40559304       7.11059003       49       0.00021000       0.00005937      -0.00000812
Cs      24.17979222       2.99010643      11.22979948       50       0.00028956       0.00009332      -0.00017256
Cs      33.56035312       7.67754730      13.90219858       51       0.00003715      -0.00000109       0.00006769
K       28.30685663       5.91873644      15.01781125       52      -0.00007883      -0.00013712       0.00017618
In      17.81786260       3.02994317       9.57333572       53       0.00041264       0.00006697      -0.00023654
I       26.27892575       0.48691698       8.90812803       54       0.00001312      -0.00032433      -0.00002631
I       29.21560620      12.07411686      16.76233887       55      -0.00003601      -0.00001157       0.00000047
I       30.57121611       5.44633547      12.29291727       56      -0.00014920       0.00020312      -0.00033099
I       25.04108182       5.63007177      13.96638893       57       0.00002880      -0.00010011       0.00001149
I       23.93365175       6.27572141       9.45867561       58       0.00035998      -0.00002766      -0.00008277
I       18.00801939       1.20723997      -0.05021032       59      -0.00000929      -0.00008327       0.00008304
Cs      18.97661717      11.04439516       4.30965424       60      -0.00016442       0.00005014       0.00008833
Cs      28.35059300      15.73078970       6.98779421       61       0.00014190      -0.00012373      -0.00011507
K       23.09888162      13.97078338       8.10280777       62       0.00004423      -0.00003132       0.00009324
In      12.61379152      11.08415708       2.65642054       63      -0.00024895       0.00033827      -0.00005901
I       21.07387454       8.54011266       1.98779823       64       0.00004817      -0.00017082      -0.00010988
I       24.00487506      20.12706808       9.84746427       65      -0.00027991       0.00012437       0.00025250
I       25.36175634      13.49925404       5.37666897       66       0.00016539       0.00018883       0.00002000
I       19.83435034      13.68285296       7.04891281       67       0.00035741      -0.00010706       0.00031348
I       32.60850206      16.72832148      16.85577166       68      -0.00008946      -0.00000805      -0.00002583
I       26.67821900      11.65895041       7.35072512       69       0.00016209      -0.00042389       0.00032695
Cs      25.91298566      12.24157455      11.47038197       70      -0.00002921       0.00017900       0.00020236
Cs      35.29252059      16.93039819      14.14340329       71       0.00008335      -0.00031308       0.00017385
K       30.04011362      15.17002642      15.25878649       72      -0.00043058      -0.00005564       0.00014170
In      19.55020058      12.28422198       9.81384886       73      -0.00008326       0.00030944      -0.00007994
I       28.01127636       9.73934897       9.14763270       74      -0.00027469       0.00025255      -0.00012947
I       30.94534972      21.32821846      17.00383534       75       0.00000194      -0.00013728       0.00022054
I       32.30405256      14.69836734      12.53363124       76      -0.00011008      -0.00003717       0.00023718
I       26.77403295      14.88067182      14.20809749       77       0.00013638       0.00010629       0.00012662
I       25.66755192      15.52767477       9.70060441       78      -0.00016591       0.00022854      -0.00011897
I       19.74123090      10.45990385       0.19119367       79       0.00006639      -0.00014429      -0.00002683
