10
Lattice="8.99124215193469 -2.265165725979966 -0.7292822564009093 -2.6441349316626983 8.877554741094615 -0.830857912360908 0.9834075939431828 1.1102929684948726 8.702434693285761" Properties=species:S:1:pos:R:3:spacegroup_kinds:I:1:forces:R:3 spacegroup="P 1" unit_cell=conventional occupancy="_JSON {\"0\": {\"Cs\": 1.0}, \"1\": {\"Cs\": 1.0}, \"2\": {\"K\": 1.0}, \"3\": {\"In\": 1.0}, \"4\": {\"I\": 1.0}, \"5\": {\"I\": 1.0}, \"6\": {\"I\": 1.0}, \"7\": {\"I\": 1.0}, \"8\": {\"I\": 1.0}, \"9\": {\"I\": 1.0}}" energy=-25.793814983606385 free_energy=-25.793814983606385 stress="6.520388868484508e-06 -5.3373300805816215e-06 -4.690971683694269e-06 -5.3373300805816215e-06 3.310274805231144e-06 2.015210501485666e-06 -4.690971683694269e-06 2.015210501485666e-06 -3.6857236568826418e-06" pbc="T T T"
Cs       2.71502838       6.15150635       7.88397394        0       0.00026493      -0.00013222      -0.00000739
Cs       6.59077700       2.43201000       7.88074151        1      -0.00045980      -0.00035614      -0.00020876
K        0.98763079       0.43018177       4.31107956        2      -0.00004793       0.00008044      -0.00013944
In      -2.14823711       8.75258399      -0.87119322        3      -0.00042230       0.00020158      -0.00019898
I        2.36620158       1.82257028       1.29149648        4      -0.00006858      -0.00003843       0.00000481
I        5.95597095       5.65016637       5.77006743        5       0.00009591       0.00014983       0.00033342
I        3.63679996       0.15812301       6.73179236        6       0.00010713       0.00019835       0.00018617
I        7.32969102      -1.56306983       1.16091778        7      -0.00015641       0.00015554      -0.00028846
I        7.72101429       4.37856669       0.36076102        8       0.00059752       0.00004389       0.00001498
I        0.60075126       3.09434910       6.70099765        9       0.00008952      -0.00030283       0.00030365
