10
Lattice="8.342468816098835 0.0 0.0 -0.4035924986687659 7.878414042537805 0.0 1.8999202152997214 2.0505345944200046 6.834294380991001" Properties=species:S:1:pos:R:3 pbc="T T T"
Cs       3.43188958       5.25227690      -0.00002748
Cs       6.34724335       2.62613889      -0.00002748
K        0.94996011       1.02526730       3.41714719
In       0.92013884       0.00000088       0.00001745
I        3.38182701       2.47596794       1.36732995
I        8.29724886       7.45298245       5.46699203
I        3.70720732       1.64029048       5.46697823
I        6.53518171       0.41024412       1.36731615
I        0.08234076       6.22293522       1.36731615
I        1.41398695       3.70601342       5.46697823
