10
Lattice="9.178626704681761 -0.045093330409209424 -0.051627275607017256 4.613137079503389 7.986847764069658 -0.06053172368650021 4.626516398391403 2.619573040050808 6.902640494771396" Properties=species:S:1:pos:R:3:spacegroup_kinds:I:1:forces:R:3 spacegroup="P 1" unit_cell=conventional occupancy="_JSON {\"0\": {\"Cs\": 1.0}, \"1\": {\"Cs\": 1.0}, \"2\": {\"K\": 1.0}, \"3\": {\"In\": 1.0}, \"4\": {\"I\": 1.0}, \"5\": {\"I\": 1.0}, \"6\": {\"I\": 1.0}, \"7\": {\"I\": 1.0}, \"8\": {\"I\": 1.0}, \"9\": {\"I\": 1.0}}" energy=-25.648946424707194 free_energy=-25.648946424707194 stress="-5.17927569573569e-07 5.221529163403328e-07 -7.875896293678951e-07 5.221529163403328e-07 1.1830653428613321e-07 -4.70644067233256e-07 -7.875896293678951e-07 -4.70644067233256e-07 -3.7283492432658335e-07" pbc="T T T"
Cs       4.62042937       2.62842736       1.88737887        0      -0.00012877      -0.00000067      -0.00011300
Cs      13.79802913       7.93317512       4.90359862        1      -0.00012108       0.00004939      -0.00008649
K        9.20959070       5.28058410       3.39547146        2      -0.00031286       0.00000888      -0.00026910
In       9.17863167      -0.04522178      -0.05162114        3      -0.00003324       0.00006143      -0.00001446
I        7.00043470       3.19124879       5.20075998        4       0.00040018      -0.00032189       0.00030994
I       11.41694558       7.37055943       1.58871811        5       0.00024563      -0.00034939       0.00025093
I        9.89057337       2.26151487       1.68277613        6      -0.00006699       0.00020973      -0.00006247
I        8.52800056       8.29929116       5.10792356        7      -0.00016281       0.00008513       0.00005031
I        6.27669718       6.17990467       1.62788446        8       0.00022990       0.00010568       0.00004473
I       12.14155570       4.38139652       5.16264951        9      -0.00004996       0.00015173      -0.00011038
