80
Lattice="16.875798557961883 -1.474946587864002 3.1636306706573816 -6.805749568142067 15.465362245388064 -3.4285725747655795 -2.9955012082215244 2.4668144937502396 17.064585688919152" Properties=species:S:1:pos:R:3:spacegroup_kinds:I:1:forces:R:3 spacegroup="P 1" unit_cell=conventional occupancy="_JSON {\"0\": {\"Cs\": 1.0}, \"1\": {\"Cs\": 1.0}, \"2\": {\"K\": 1.0}, \"3\": {\"In\": 1.0}, \"4\": {\"I\": 1.0}, \"5\": {\"I\": 1.0}, \"6\": {\"I\": 1.0}, \"7\": {\"I\": 1.0}, \"8\": {\"I\": 1.0}, \"9\": {\"I\": 1.0}, \"10\": {\"Cs\": 1.0}, \"11\": {\"Cs\": 1.0}, \"12\": {\"K\": 1.0}, \"13\": {\"In\": 1.0}, \"14\": {\"I\": 1.0}, \"15\": {\"I\": 1.0}, \"16\": {\"I\": 1.0}, \"17\": {\"I\": 1.0}, \"18\": {\"I\": 1.0}, \"19\": {\"I\": 1.0}, \"20\": {\"Cs\": 1.0}, \"21\": {\"Cs\": 1.0}, \"22\": {\"K\": 1.0}, \"23\": {\"In\": 1.0}, \"24\": {\"I\": 1.0}, \"25\": {\"I\": 1.0}, \"26\": {\"I\": 1.0}, \"27\": {\"I\": 1.0}, \"28\": {\"I\": 1.0}, \"29\": {\"I\": 1.0}, \"30\": {\"Cs\": 1.0}, \"31\": {\"Cs\": 1.0}, \"32\": {\"K\": 1.0}, \"33\": {\"In\": 1.0}, \"34\": {\"I\": 1.0}, \"35\": {\"I\": 1.0}, \"36\": {\"I\": 1.0}, \"37\": {\"I\": 1.0}, \"38\": {\"I\": 1.0}, \"39\": {\"I\": 1.0}, \"40\": {\"Cs\": 1.0}, \"41\": {\"Cs\": 1.0}, \"42\": {\"K\": 1.0}, \"43\": {\"In\": 1.0}, \"44\": {\"I\": 1.0}, \"45\": {\"I\": 1.0}, \"46\": {\"I\": 1.0}, \"47\": {\"I\": 1.0}, \"48\": {\"I\": 1.0}, \"49\": {\"I\": 1.0}, \"50\": {\"Cs\": 1.0}, \"51\": {\"Cs\": 1.0}, \"52\": {\"K\": 1.0}, \"53\": {\"In\": 1.0}, \"54\": {\"I\": 1.0}, \"55\": {\"I\": 1.0}, \"56\": {\"I\": 1.0}, \"57\": {\"I\": 1.0}, \"58\": {\"I\": 1.0}, \"59\": {\"I\": 1.0}, \"60\": {\"Cs\": 1.0}, \"61\": {\"Cs\": 1.0}, \"62\": {\"K\": 1.0}, \"63\": {\"In\": 1.0}, \"64\": {\"I\": 1.0}, \"65\": {\"I\": 1.0}, \"66\": {\"I\": 1.0}, \"67\": {\"I\": 1.0}, \"68\": {\"I\": 1.0}, \"69\": {\"I\": 1.0}, \"70\": {\"Cs\": 1.0}, \"71\": {\"Cs\": 1.0}, \"72\": {\"K\": 1.0}, \"73\": {\"In\": 1.0}, \"74\": {\"I\": 1.0}, \"75\": {\"I\": 1.0}, \"76\": {\"I\": 1.0}, \"77\": {\"I\": 1.0}, \"78\": {\"I\": 1.0}, \"79\": {\"I\": 1.0}}" energy=-206.20620097203062 free_energy=-206.20620097203062 stress="-3.2324698399710156e-06 -1.739057224430854e-06 -1.0702272271187669e-05 -1.739057224430854e-06 3.518901453468521e-06 -6.681721582504518e-06 -1.0702272271187669e-05 -6.681721582504518e-06 -3.992086123857075e-06" pbc="T T T"
Cs      -1.51728858       7.68901157      15.30143443        0      -0.00044589      -0.00048138      -0.00015164
Cs       2.00908880       5.21510273      18.80814372        1      -0.00029980      -0.00034640      -0.00020054
K       -0.02797174       1.10404720       4.32241376        2       0.00074491      -0.00017806      -0.00063178
In       0.72283453       0.48852789       0.05596908        3       0.00004349       0.00008664       0.00008527
I        0.98193028       3.08444734       1.51504051        4       0.00027156      -0.00025948       0.00001008
I        3.99687334       6.11825547       6.99611844        5       0.00027580       0.00011762       0.00016836
I        1.81539273       2.21089407       7.18320944        6       0.00074871      -0.00010159      -0.00007190
I        6.57133016      -0.74265357       3.04315368        7       0.00006860       0.00039886      -0.00026713
I       -1.24347134       6.85485915       0.57926140        8      -0.00032965       0.00047552       0.00023054
I       -2.21211052       3.08594411       6.35001519        9       0.00047898       0.00021525      -0.00013159
Cs      -0.02311968       6.45630486       6.76887454       10       0.00016495      -0.00045355      -0.00029950
Cs       3.50618464       3.98036881      10.27326341       11      -0.00033915       0.00016943       0.00000806
K       -1.52522022       2.33839357      12.85410420       12       0.00082561      -0.00020992      -0.00013701
In      -0.77707295       1.71976490       8.58839129       13       0.00078626       0.00029793      -0.00035293
I       -0.51405477       4.31629946      10.04608362       14      -0.00066789      -0.00017919       0.00042967
I        2.50475059       7.35150354      15.53030967       15      -0.00005654       0.00022711       0.00017015
I        0.31891965       3.44920215      15.71499745       16      -0.00016448      -0.00039899      -0.00007288
I        5.07078531       0.49298191      11.57348190       17       0.00010747       0.00017725       0.00013704
I       -2.74140324       8.09002016       9.11216542       18       0.00015303      -0.00020927      -0.00028402
I       -3.70927465       4.32015542      14.88246783       19       0.00031015       0.00003063      -0.00024848
Cs      -4.92113789      15.42280546      13.58742394       20       0.00035067       0.00037429      -0.00016051
Cs      -1.39303151      12.94757332      17.09339489       21       0.00014233      -0.00018704      -0.00012050
K       -3.42889506       8.83769820       2.60747344       22      -0.00016406      -0.00019064      -0.00035391
In      -2.67917999       8.22138133      -1.65844852       23       0.00035241      -0.00081249       0.00002077
I       -2.41687938      10.81720942      -0.19925315       24      -0.00047355       0.00014738       0.00002159
I        0.59520436      13.85237641       5.28167492       25      -0.00010880      -0.00011783      -0.00017029
I       -1.58714220       9.94769371       5.46773727       26       0.00011281      -0.00019103      -0.00008313
I        3.16694794       6.98659275       1.32911962       27      -0.00015619       0.00070509       0.00054717
I       -4.64594415      14.58899196      -1.13477518       28      -0.00011450       0.00021557       0.00058093
I       -5.61575026      10.81917251       4.63612992       29       0.00036199      -0.00027582       0.00023952
Cs      -3.42493354      14.18777650       5.05500739       30       0.00008082      -0.00009264      -0.00008238
Cs       0.10219188      11.71262779       8.56010165       31       0.00024861       0.00023118       0.00046396
K       -4.92588442      10.07191612      11.14060124       32      -0.00050602      -0.00031156       0.00005910
In      -4.17838155       9.45488001       6.87409145       33      -0.00012550       0.00013504      -0.00001925
I       -3.91686279      12.05095829       8.33290498       34      -0.00041105       0.00020833      -0.00034646
I       -0.89966127      15.08546745      13.81494878       35      -0.00014134      -0.00022864       0.00003850
I       -3.08239499      11.17956887      14.00107808       36      -0.00019995       0.00011409      -0.00003987
I        1.66682073       8.22108382       9.86173014       37       0.00005144       0.00035752       0.00019571
I       -6.14799369      15.81864509       7.39789353       38       0.00042313       0.00051507      -0.00022251
I       -7.11032641      12.05453911      13.16840467       39      -0.00028101      -0.00015594       0.00034925
Cs       6.91882161       6.95158001      16.88302120       40       0.00052331       0.00025728      -0.00017734
Cs      10.44713672       4.47703050      20.38830772       41       0.00023946       0.00041648       0.00000513
K        8.41447935       0.36624468       5.90355498       42      -0.00067495       0.00032213       0.00026449
In       9.16305193      -0.25009119       1.63675235       43      -0.00065563      -0.00007127       0.00032730
I        9.42390040       2.34625069       3.09567628       44      -0.00042237      -0.00007522      -0.00017813
I       12.43740668       5.38333214       8.57918756       45       0.00004903      -0.00022673       0.00003338
I       10.25713176       1.47259390       8.76525536       46      -0.00006764       0.00019851      -0.00008856
I       15.00670201      -1.48095025       4.62436853       47       0.00042458      -0.00009806       0.00008977
I        7.19600183       6.11854692       2.16230415       48      -0.00037883      -0.00017041       0.00012662
I        6.23035056       2.35056796       7.93099350       49      -0.00060732      -0.00034133       0.00012599
Cs       8.41779813       5.71889483       8.35165927       50       0.00003071      -0.00002265      -0.00010641
Cs      11.94519838       3.24493325      11.85615433       51       0.00005159       0.00023467       0.00028510
K        6.91499118       1.59902137      14.43511198       52      -0.00048652       0.00058197       0.00028008
In       7.66402908       0.98271235      10.16898264       53      -0.00039704       0.00037399       0.00036114
I        7.92759982       3.57837107      11.62851366       54      -0.00073096       0.00009304      -0.00001141
I       10.93966202       6.61697106      17.11090743       55      -0.00050871       0.00026402       0.00013063
I        8.75898806       2.70848124      17.29534788       56      -0.00035329       0.00006747       0.00027213
I       13.50640249      -0.24563527      13.15690459       57       0.00019496      -0.00011338       0.00055282
I        5.69499691       7.34868062      10.69359836       58       0.00032713       0.00003065      -0.00032435
I        4.73022184       3.58183774      16.46401297       59       0.00000565      -0.00044564       0.00034554
Cs       3.51637991      14.68169896      15.16816959       60       0.00009582       0.00009971      -0.00004710
Cs       7.04322415      12.21206590      18.67493862       61      -0.00028908      -0.00055527      -0.00053340
K        5.00719391       8.09833246       4.18976071       62       0.00061166       0.00012464      -0.00004018
In       5.75849928       7.48157654      -0.07603927       63       0.00030893      -0.00015214      -0.00058200
I        6.01642408      10.07837080       1.38194053       64       0.00008969       0.00030760       0.00033054
I        9.03150193      13.11433279       6.86422511       65      -0.00011665      -0.00040837       0.00027512
I        6.84956867       9.20731216       7.05041443       66       0.00064062       0.00005815      -0.00032231
I       11.60447272       6.25469503       2.91011256       67      -0.00020597       0.00020663      -0.00008675
I        3.79387208      13.85045064       0.44632589       68      -0.00036302      -0.00011151       0.00012926
I        2.82131670      10.07974710       6.21825404       69       0.00049361      -0.00027064      -0.00066180
Cs       5.01272574      13.44874262       6.63763271       70      -0.00023350      -0.00042870      -0.00030521
Cs       8.53834796      10.97597996      10.14257440       71       0.00040244       0.00007855      -0.00019240
K        3.51030411       9.33047957      12.72193759       72       0.00034579       0.00043693       0.00014042
In       4.25810207       8.71389788       8.45570557       73      -0.00036753       0.00007887       0.00037255
I        4.51870339      11.31018693       9.91468937       74       0.00001731       0.00042261       0.00024423
I        7.53801518      14.34945698      15.39702972       75      -0.00024588      -0.00071746      -0.00032381
I        5.35404466      10.44327964      15.58214456       76      -0.00022885       0.00001142       0.00036122
I       10.10621392       7.48736259      11.44395092       77      -0.00038486      -0.00026447      -0.00005954
I        2.29112904      15.08035903       8.97906287       78       0.00063491      -0.00005247       0.00013625
I        1.32494216      11.31173434      14.75046497       79       0.00011303       0.00004203      -0.00045641
