80
Lattice="21.404261851207064 0.0 0.0 -7.154331595005279 14.062173315361445 0.0 -5.527871743373394 4.197232469997563 13.955553890483168" Properties=species:S:1:pos:R:3 pbc="T T T"
Cs       2.26197535       5.26575550      -0.00002811
Cs       7.02174092       2.92205994      -0.00002811
K       -1.38196794       1.04930812       3.48888847
In       1.07938792       0.57836842       0.00002459
I        2.39458516       2.84178346       1.39604257
I        4.12522189       7.44465222       5.58177498
I        1.67451319       2.25710395       5.58177153
I        8.42243076       0.99821504       1.39603911
I       -2.11283060       6.18577612       1.39603009
I       -2.06952472       4.10068518       5.58176250
Cs      -0.50196052       7.36437173       6.97774883
Cs       4.25780505       5.02067618       6.97774883
K       -4.14590381       3.14792435      10.46666542
In      -1.68454795       2.67698465       6.97780153
I       -0.36935071       4.94039970       8.37381952
I        1.36128602       9.54326846      12.55955193
I       -1.08942268       4.35572018      12.55954847
I        5.65849489       3.09683128       8.37381606
I       -4.87676647       8.28439236       8.37380703
I       -4.83346059       6.19930141      12.55953944
Cs      -1.31519045      12.29684215      -0.00002811
Cs       3.44457513       9.95314660      -0.00002811
K       -4.95913373       8.08039478       3.48888847
In      -2.49777787       7.60945507       0.00002459
I       -1.18258064       9.87287012       1.39604257
I        0.54805609      14.47573888       5.58177498
I       -1.90265261       9.28819061       5.58177153
I        4.84526497       8.02930170       1.39603911
I       -5.68999639      13.21686278       1.39603009
I       -5.64669052      11.13177183       5.58176250
Cs      -4.07912632      14.39545839       6.97774883
Cs       0.68063925      12.05176284       6.97774883
K       -7.72306961      10.17901101      10.46666542
In      -5.26171375       9.70807131       6.97780153
I       -3.94651651      11.97148635       8.37381952
I       -2.21587978      16.57435511      12.55955193
I       -4.66658848      11.38680684      12.55954847
I        2.08132910      10.12791793       8.37381606
I       -8.45393226      15.31547902       8.37380703
I       -8.41062639      13.23038807      12.55953944
Cs      12.96410627       5.26575550      -0.00002811
Cs      17.72387185       2.92205994      -0.00002811
K        9.32016299       1.04930812       3.48888847
In      11.78151885       0.57836842       0.00002459
I       13.09671609       2.84178346       1.39604257
I       14.82735282       7.44465222       5.58177498
I       12.37664412       2.25710395       5.58177153
I       19.12456169       0.99821504       1.39603911
I        8.58930033       6.18577612       1.39603009
I        8.63260620       4.10068518       5.58176250
Cs      10.20017040       7.36437173       6.97774883
Cs      14.95993598       5.02067618       6.97774883
K        6.55622712       3.14792435      10.46666542
In       9.01758298       2.67698465       6.97780153
I       10.33278021       4.94039970       8.37381952
I       12.06341694       9.54326846      12.55955193
I        9.61270824       4.35572018      12.55954847
I       16.36062582       3.09683128       8.37381606
I        5.82536446       8.28439236       8.37380703
I        5.86867033       6.19930141      12.55953944
Cs       9.38694048      12.29684215      -0.00002811
Cs      14.14670605       9.95314660      -0.00002811
K        5.74299719       8.08039478       3.48888847
In       8.20435305       7.60945507       0.00002459
I        9.51955029       9.87287012       1.39604257
I       11.25018702      14.47573888       5.58177498
I        8.79947832       9.28819061       5.58177153
I       15.54739589       8.02930170       1.39603911
I        5.01213453      13.21686278       1.39603009
I        5.05544041      11.13177183       5.58176250
Cs       6.62300460      14.39545839       6.97774883
Cs      11.38277018      12.05176284       6.97774883
K        2.97906132      10.17901101      10.46666542
In       5.44041718       9.70807131       6.97780153
I        6.75561442      11.97148635       8.37381952
I        8.48625115      16.57435511      12.55955193
I        6.03554245      11.38680684      12.55954847
I       12.78346002      10.12791793       8.37381606
I        2.24819866      15.31547902       8.37380703
I        2.29150453      13.23038807      12.55953944
