40
Lattice="19.415627924577894 -3.3511052851902363 0.1154458772008923 -3.6251819356814017 16.55107472278884 -0.016631510665030304 -2.814740546509657 -2.2710017916047693 7.673371156726533" Properties=species:S:1:pos:R:3:spacegroup_kinds:I:1:forces:R:3 spacegroup="P 1" unit_cell=conventional occupancy="_JSON {\"0\": {\"Cs\": 1.0}, \"1\": {\"Cs\": 1.0}, \"2\": {\"K\": 1.0}, \"3\": {\"In\": 1.0}, \"4\": {\"I\": 1.0}, \"5\": {\"I\": 1.0}, \"6\": {\"I\": 1.0}, \"7\": {\"I\": 1.0}, \"8\": {\"I\": 1.0}, \"9\": {\"I\": 1.0}, \"10\": {\"Cs\": 1.0}, \"11\": {\"Cs\": 1.0}, \"12\": {\"K\": 1.0}, \"13\": {\"In\": 1.0}, \"14\": {\"I\": 1.0}, \"15\": {\"I\": 1.0}, \"16\": {\"I\": 1.0}, \"17\": {\"I\": 1.0}, \"18\": {\"I\": 1.0}, \"19\": {\"I\": 1.0}, \"20\": {\"Cs\": 1.0}, \"21\": {\"Cs\": 1.0}, \"22\": {\"K\": 1.0}, \"23\": {\"In\": 1.0}, \"24\": {\"I\": 1.0}, \"25\": {\"I\": 1.0}, \"26\": {\"I\": 1.0}, \"27\": {\"I\": 1.0}, \"28\": {\"I\": 1.0}, \"29\": {\"I\": 1.0}, \"30\": {\"Cs\": 1.0}, \"31\": {\"Cs\": 1.0}, \"32\": {\"K\": 1.0}, \"33\": {\"In\": 1.0}, \"34\": {\"I\": 1.0}, \"35\": {\"I\": 1.0}, \"36\": {\"I\": 1.0}, \"37\": {\"I\": 1.0}, \"38\": {\"I\": 1.0}, \"39\": {\"I\": 1.0}}" energy=-102.44460302846164 free_energy=-102.44460302846164 stress="-1.0741098309294408e-07 2.0218915735666273e-07 -3.5781251519451817e-07 2.0218915735666273e-07 -1.555385965383878e-07 8.466646163358904e-07 -3.5781251519451817e-07 8.466646163358904e-07 -2.5731918754364744e-07" pbc="T T T"
Cs       3.62519172       2.26485442       1.18555658        0       0.00044085      -0.00013823       0.00007476
Cs      -3.70902992       3.29028894       6.50642214        1       0.00001467       0.00000653       0.00014867
K       15.42618413      -3.87335579       3.93678295        2      -0.00028540      -0.00040294       0.00003961
In      16.83371689      -2.73814586       0.10015064        3      -0.00036081      -0.00004532      -0.00013343
I       16.70276645      -0.92433975       2.53353201        4       0.00034352       0.00055242      -0.00011366
I        2.62913253       3.12790541       5.27430407        5      -0.00004975       0.00007182       0.00001278
I       -2.58778215      -0.67840733       7.04545069        6       0.00017260      -0.00001447       0.00028444
I        2.50403352       6.23344676       0.64652388        7       0.00001423      -0.00008640      -0.00020438
I       16.13494547       3.36653691       1.74841510        8       0.00024368      -0.00024763       0.00042782
I        3.19692939      -1.16283879       6.05920428        9       0.00002003       0.00034974      -0.00001419
Cs       1.81301439      10.54003775       1.17743115       10      -0.00014349       0.00009424       0.00004362
Cs      -5.52180382      11.56600758       6.49838822       11       0.00004681      -0.00008081      -0.00012926
K       13.61363147       4.40152146       3.92838344       12       0.00015632       0.00053252       0.00020803
In      15.02090957       5.53756677       0.09188183       13      -0.00006997      -0.00006428      -0.00020674
I       14.89041597       7.35176870       2.52451151       14      -0.00037488      -0.00047518       0.00077239
I        0.81642937      11.40344837       5.26574506       15       0.00016668       0.00022851       0.00056752
I       -4.40049042       7.59711809       7.03776030       16       0.00049735       0.00017589      -0.00053256
I        0.69159932      14.50901087       0.63816367       17      -0.00006053      -0.00013022      -0.00001130
I       17.94768295      -4.90902588       1.75682008       18       0.00012908      -0.00006079       0.00007681
I        1.38428627       7.11303369       6.05083169       19       0.00018867      -0.00048147       0.00014414
Cs      13.33333664       0.58905932       1.24346171       20      -0.00009187      -0.00006083      -0.00007237
Cs       5.99882094       1.61479955       6.56443799       21      -0.00014668      -0.00008960      -0.00018603
K        5.71842904      -2.19812929       3.87908410       22       0.00002709       0.00005559       0.00007520
In       7.12578189      -1.06256335       0.04248770       23       0.00027004      -0.00017751       0.00001902
I        6.99514177       0.75149536       2.47582253       24      -0.00016411      -0.00020026      -0.00048988
I       12.33711970       1.45215678       5.33252750       25      -0.00023326       0.00014673      -0.00066704
I        7.12017654      -2.35400580       7.10343728       26      -0.00033296      -0.00008560       0.00005384
I       12.21185188       4.55766580       0.70411060       27       0.00025858       0.00033598       0.00007865
I        6.42731550       5.04207081       1.69080498       28      -0.00029859       0.00008205      -0.00006387
I       12.90463849      -2.83834514       6.11704421       29       0.00021295       0.00046702      -0.00028671
Cs      11.52062784       8.86476747       1.23524195       30      -0.00000897      -0.00011135      -0.00024661
Cs       4.18612776       9.89034712       6.55589038       31       0.00001501       0.00003455      -0.00003246
K        3.90559709       6.07765017       3.87074885       32       0.00017548      -0.00018289       0.00012829
In       5.31313457       7.21282067       0.03398908       33       0.00031043       0.00066434       0.00007794
I        5.18246049       9.02688642       2.46723188       34       0.00011470       0.00004956      -0.00013817
I       10.52405156       9.72811676       5.32353261       35       0.00042350      -0.00018632       0.00004411
I        5.30758123       5.92167386       7.09500746       36      -0.00044190      -0.00020553       0.00008305
I       10.39956151      12.83347543       0.69573074       37      -0.00051814      -0.00031350       0.00018317
I        8.23998047      -3.23349422       1.69907231       38      -0.00019630       0.00014431      -0.00013526
I       11.09238736       5.43745741       6.10828796       39      -0.00046464      -0.00015065       0.00012007
