40
Lattice="19.67193763678068 0.0 0.0 -0.80210836424498 15.65772857857562 0.0 -3.3629029606999934 -2.706299469240773 7.204542040831391" Properties=species:S:1:pos:R:3 pbc="T T T"
Cs       3.82694535       2.76552040       0.02281577
Cs      -2.92688222       2.68607722       7.18147624
K       -4.26738427      -1.18858852       3.60226262
In      -2.58598764       0.16453614       0.00008876
I       -3.34230810       1.68465643       1.44121855
I        4.24234865       3.76712517       5.76333639
I       -2.79096308       0.04342824       5.76339193
I        3.69099184       5.40802402       1.44127409
I       -1.09092740       7.43449623       1.44123915
I        1.99101897      -1.98289560       5.76335699
Cs       3.42589117      10.59438469       0.02281577
Cs      -3.32793640      10.51494151       7.18147624
K       -4.66843845       6.64027577       3.60226262
In      -2.98704183       7.99340043       0.00008876
I       -3.74336228       9.51352071       1.44121855
I        3.84129447      11.59598946       5.76333639
I       -3.19201726       7.87229253       5.76339193
I        3.28993766      13.23688831       1.44127409
I       -1.49198158      15.26336052       1.44123915
I        1.58996479       5.84596869       5.76335699
Cs      13.66291417       2.76552040       0.02281577
Cs       6.90908660       2.68607722       7.18147624
K        5.56858455      -1.18858852       3.60226262
In       7.24998117       0.16453614       0.00008876
I        6.49366072       1.68465643       1.44121855
I       14.07831747       3.76712517       5.76333639
I        7.04500574       0.04342824       5.76339193
I       13.52696066       5.40802402       1.44127409
I        8.74504142       7.43449623       1.44123915
I       11.82698779      -1.98289560       5.76335699
Cs      13.26185999      10.59438469       0.02281577
Cs       6.50803242      10.51494151       7.18147624
K        5.16753037       6.64027577       3.60226262
In       6.84892699       7.99340043       0.00008876
I        6.09260654       9.51352071       1.44121855
I       13.67726329      11.59598946       5.76333639
I        6.64395156       7.87229253       5.76339193
I       13.12590648      13.23688831       1.44127409
I        8.34398724      15.26336052       1.44123915
I       11.42593361       5.84596869       5.76335699
