5
Lattice="5.198236422769642 0.0 0.0 1.119337582977028 6.763258408970697 0.0 -3.3025113471475684 -2.51612370577262 5.379481145202811" Properties=species:S:1:pos:R:3:oxi_states:R:1 pbc="T T T"
Cs       1.50765061       2.12344807       2.68974057       1.00000000
Pb      -0.00000000      -0.00000000       0.00000000       2.00000000
I       -2.57497189      -0.33434739       2.68974123      -1.00000000
I        2.59911821       0.00000000      -0.00000000      -1.00000000
I        0.55966879       3.38162920       0.00000000      -1.00000000
