5
Lattice="6.15989390257918 -0.6973806181842221 1.6375417717139031 0.33176664013021434 6.2278005384790065 1.410130796235896 -1.837683557988484 -1.2600401144135842 5.998842077177951" Properties=species:S:1:pos:R:3:spacegroup_kinds:I:1:forces:R:3 spacegroup="P 1" unit_cell=conventional occupancy="_JSON {\"0\": {\"Cs\": 1.0}, \"1\": {\"Pb\": 1.0}, \"2\": {\"I\": 1.0}, \"3\": {\"I\": 1.0}, \"4\": {\"I\": 1.0}}" energy=-13.984418304328296 free_energy=-13.984418304328296 stress="6.5799407480803626e-06 4.165445425193909e-06 -3.2441587494791826e-06 4.165445425193909e-06 -3.4281132164219324e-06 1.963821515459036e-06 -3.2441587494791826e-06 1.963821515459036e-06 9.491747144429921e-07" pbc="T T T"
Cs       1.71392198       2.33269597       4.58277828        0       0.00019662       0.00014641      -0.00012250
Pb      -0.24572788       0.20039813      -0.03300100        1      -0.00008591      -0.00038170       0.00024456
I        5.14445751      -1.13845083       4.61869552        2      -0.00011020       0.00018119      -0.00045030
I        2.91994885      -0.12847825       0.67317913        3      -0.00020683       0.00008598       0.00028341
I        0.05098176       3.30172101       0.69587051        4       0.00020632      -0.00003189       0.00004483
