80
Lattice="17.568759445851374 5.179638877942351 -1.9745859073106233 4.467142282168218 17.95266522792947 -0.48757305853707106 9.029312154857395 7.742131987078425 12.955647511816213" Properties=species:S:1:pos:R:3:spacegroup_kinds:I:1:forces:R:3 spacegroup="P 1" unit_cell=conventional occupancy="_JSON {\"0\": {\"Cs\": 1.0}, \"1\": {\"Cs\": 1.0}, \"2\": {\"K\": 1.0}, \"3\": {\"In\": 1.0}, \"4\": {\"I\": 1.0}, \"5\": {\"I\": 1.0}, \"6\": {\"I\": 1.0}, \"7\": {\"I\": 1.0}, \"8\": {\"I\": 1.0}, \"9\": {\"I\": 1.0}, \"10\": {\"Cs\": 1.0}, \"11\": {\"Cs\": 1.0}, \"12\": {\"K\": 1.0}, \"13\": {\"In\": 1.0}, \"14\": {\"I\": 1.0}, \"15\": {\"I\": 1.0}, \"16\": {\"I\": 1.0}, \"17\": {\"I\": 1.0}, \"18\": {\"I\": 1.0}, \"19\": {\"I\": 1.0}, \"20\": {\"Cs\": 1.0}, \"21\": {\"Cs\": 1.0}, \"22\": {\"K\": 1.0}, \"23\": {\"In\": 1.0}, \"24\": {\"I\": 1.0}, \"25\": {\"I\": 1.0}, \"26\": {\"I\": 1.0}, \"27\": {\"I\": 1.0}, \"28\": {\"I\": 1.0}, \"29\": {\"I\": 1.0}, \"30\": {\"Cs\": 1.0}, \"31\": {\"Cs\": 1.0}, \"32\": {\"K\": 1.0}, \"33\": {\"In\": 1.0}, \"34\": {\"I\": 1.0}, \"35\": {\"I\": 1.0}, \"36\": {\"I\": 1.0}, \"37\": {\"I\": 1.0}, \"38\": {\"I\": 1.0}, \"39\": {\"I\": 1.0}, \"40\": {\"Cs\": 1.0}, \"41\": {\"Cs\": 1.0}, \"42\": {\"K\": 1.0}, \"43\": {\"In\": 1.0}, \"44\": {\"I\": 1.0}, \"45\": {\"I\": 1.0}, \"46\": {\"I\": 1.0}, \"47\": {\"I\": 1.0}, \"48\": {\"I\": 1.0}, \"49\": {\"I\": 1.0}, \"50\": {\"Cs\": 1.0}, \"51\": {\"Cs\": 1.0}, \"52\": {\"K\": 1.0}, \"53\": {\"In\": 1.0}, \"54\": {\"I\": 1.0}, \"55\": {\"I\": 1.0}, \"56\": {\"I\": 1.0}, \"57\": {\"I\": 1.0}, \"58\": {\"I\": 1.0}, \"59\": {\"I\": 1.0}, \"60\": {\"Cs\": 1.0}, \"61\": {\"Cs\": 1.0}, \"62\": {\"K\": 1.0}, \"63\": {\"In\": 1.0}, \"64\": {\"I\": 1.0}, \"65\": {\"I\": 1.0}, \"66\": {\"I\": 1.0}, \"67\": {\"I\": 1.0}, \"68\": {\"I\": 1.0}, \"69\": {\"I\": 1.0}, \"70\": {\"Cs\": 1.0}, \"71\": {\"Cs\": 1.0}, \"72\": {\"K\": 1.0}, \"73\": {\"In\": 1.0}, \"74\": {\"I\": 1.0}, \"75\": {\"I\": 1.0}, \"76\": {\"I\": 1.0}, \"77\": {\"I\": 1.0}, \"78\": {\"I\": 1.0}, \"79\": {\"I\": 1.0}}" energy=-205.19146522341993 free_energy=-205.19146522341993 stress="5.169661538862405e-06 2.489221251786613e-06 8.382957094839618e-06 2.489221251786613e-06 1.2020499012340423e-05 -4.650655395361797e-06 8.382957094839618e-06 -4.650655395361797e-06 -5.882410876861901e-06" pbc="T T T"
Cs       3.90979492       3.88171376       1.49871676        0       0.00001087      -0.00002156       0.00004038
Cs      11.62259561      11.55548000       3.74781322        1       0.00002931      -0.00002235       0.00003798
K        7.76635374       7.71857527       2.62346164        2      -0.00006364       0.00004881      -0.00008061
In      -0.00000623      -0.00006041       0.00004065        3       0.00039046       0.00030697       0.00002735
I        6.39270984       5.05833433       4.50514551        4       0.00012553      -0.00002051      -0.00002626
I        9.13992616      10.37886985       0.74153100        5      -0.00010089      -0.00000104      -0.00004064
I        9.04150285       5.03429414       0.69827455        6      -0.00005688      -0.00012292      -0.00005289
I        6.49114143      10.40291034       4.54855167        7      -0.00003373       0.00007910       0.00013496
I        4.53890990       7.73656375       1.17673133        8      -0.00008866       0.00004011      -0.00007249
I       10.99373705       7.70044524       4.07008183        9      -0.00006922       0.00021683      -0.00007171
Cs       8.42464180       7.75291811       7.97658516       10       0.00008698       0.00004838       0.00005254
Cs      16.13716325      15.42655548      10.22555993       11       0.00007411      -0.00008947       0.00005605
K       12.28100815      11.58975109       9.10128011       12       0.00000042      -0.00006348      -0.00004624
In       4.51472185       3.87116330       6.47781470       13      -0.00022981      -0.00045360      -0.00015457
I       10.90748462       8.92954579      10.98321048       14      -0.00017899      -0.00008026       0.00022091
I       13.65446451      14.24991253       7.21934848       15       0.00004499       0.00004011      -0.00019480
I       13.55586785       8.90519644       7.17636293       16       0.00001164      -0.00020168      -0.00031424
I       11.00598764      14.27404224      11.02621163       17       0.00003254       0.00025831       0.00013430
I        9.05370348      11.60776649       7.65445416       18      -0.00001370      -0.00019889       0.00002506
I       15.50834145      11.57167193      10.54798778       19      -0.00005725       0.00013076      -0.00001225
Cs       6.14331847      12.85811540       1.25493255       20       0.00003274      -0.00004478       0.00013138
Cs      13.85624443      20.53173447       3.50408384       21       0.00002350      -0.00005510      -0.00001649
K        9.99995159      16.69482070       2.37962283       22      -0.00010342       0.00007483      -0.00000342
In       2.23362926       8.97632720      -0.24381646       23      -0.00019472      -0.00027262       0.00020222
I        8.62621843      14.03465772       4.26146820       24      -0.00006702      -0.00015003       0.00011705
I       11.37349030      19.35515649       0.49773785       25      -0.00000852       0.00015041      -0.00007749
I       11.27504442      14.01054870       0.45450728       26      -0.00004372      -0.00010242      -0.00007870
I        8.72476280      19.37933827       4.30462415       27       0.00006497       0.00009084       0.00021858
I        6.77251345      16.71288368       0.93285979       28      -0.00004121       0.00006842       0.00000528
I       13.22726244      16.67678389       3.82628488       29       0.00005768       0.00004310       0.00001616
Cs      10.65813850      16.72943824       7.73259826       30       0.00005731      -0.00006192       0.00010217
Cs      18.37072589      24.40283895       9.98179371       31       0.00013756      -0.00003614       0.00005143
K       14.51467418      20.56612079       8.85752059       32      -0.00007478      -0.00012923      -0.00007369
In       6.74817335      12.84725935       6.23420635       33       0.00036428       0.00036666      -0.00052828
I       13.14104322      17.90593220      10.73948679       34       0.00006432       0.00000475      -0.00002406
I       15.88805028      23.22611283       6.97549172       35      -0.00002086       0.00012958      -0.00015700
I       15.78949075      17.88149200       6.93234679       36      -0.00001640       0.00023885       0.00007713
I       13.23947119      23.25047379      10.78250904       37       0.00005768      -0.00020545      -0.00013940
I       11.28728653      20.58416488       7.41058149       38      -0.00000118      -0.00000570       0.00007386
I       17.74194704      20.54803372      10.30418863       39       0.00004182      -0.00006767       0.00002349
Cs      12.69430383       6.47180361       0.51132786       40       0.00007477      -0.00007596       0.00010852
Cs      20.40678065      14.14515825       2.76045890       41       0.00012437      -0.00006039       0.00001862
K       16.55068075      10.30843589       1.63617598       42       0.00004119       0.00000894      -0.00006590
In       8.78438791       2.58987134      -0.98728025       43      -0.00009577      -0.00013726       0.00014356
I       15.17716869       7.64825456       3.51813858       44       0.00004705       0.00002409       0.00000736
I       17.92412002      12.96855523      -0.24591992       45       0.00002429       0.00004370      -0.00020192
I       17.82561856       7.62393085      -0.28878869       46       0.00002924      -0.00006626      -0.00020883
I       15.27566627      12.99275732       3.56121094       47      -0.00000841      -0.00001758       0.00005488
I       13.32340029      10.32653118       0.18922872       48       0.00010586      -0.00016135       0.00011948
I       19.77806386      10.29034809       3.08277962       49      -0.00004753       0.00003744      -0.00000162
Cs      17.20879234      10.34266457       6.98930752       50       0.00001727       0.00000658       0.00004273
Cs      24.92174223      18.01640184       9.23836791       51       0.00006496      -0.00004067       0.00006614
K       21.06546851      14.17940842       8.11396508       52      -0.00012206       0.00005115      -0.00001750
In      13.29904840       6.46084878       5.49050202       53       0.00016708       0.00003985       0.00056433
I       19.69172682      11.51920833       9.99576125       54       0.00019622       0.00013683      -0.00008134
I       22.43901597      16.83984852       6.23223119       55      -0.00027428      -0.00015869       0.00007614
I       22.34050226      11.49523710       6.18860798       56      -0.00005260       0.00007139       0.00013888
I       19.79017428      16.86392352      10.03892923       57       0.00008527      -0.00006275       0.00005104
I       17.83803927      14.19757616       6.66717849       58       0.00005650      -0.00017555       0.00011140
I       24.29274185      14.16135967       9.56066796       59      -0.00005053       0.00024356      -0.00009946
Cs      14.92784202      15.44805033       0.26752191       60       0.00004577      -0.00003970       0.00010402
Cs      22.64048777      23.12155365       2.51675609       61       0.00014966      -0.00003225       0.00002905
K       18.78428716      19.28482359       1.39241310       62      -0.00002075      -0.00007243      -0.00006128
In      11.01800885      11.56609199      -1.23105262       63      -0.00014375       0.00037050      -0.00019203
I       17.41065550      16.62451718       3.27429462       64       0.00016350       0.00010125      -0.00015931
I       20.15783082      21.94496155      -0.48967189       65      -0.00031966      -0.00012402       0.00019184
I       20.05913622      16.60017963      -0.53254381       66       0.00006165       0.00014317      -0.00008222
I       17.50928412      21.96915186       3.31746265       67      -0.00000771      -0.00014269      -0.00015940
I       15.55692399      19.30277783      -0.05451618       68       0.00005879       0.00004069       0.00007963
I       22.01164435      19.26676016       2.83916938       69      -0.00008727      -0.00008313      -0.00003131
Cs      19.44243731      19.31897483       6.74549397       70      -0.00002125       0.00004569       0.00006664
Cs      27.15528675      26.99277541       8.99452807       71      -0.00001023      -0.00010037      -0.00000247
K       23.29897163      23.15575038       7.87014905       72      -0.00002510       0.00011844      -0.00004428
In      15.53266630      15.43712037       5.24676433       73      -0.00034341       0.00003725       0.00004564
I       21.92535371      20.49566431       9.75197759       74      -0.00003653      -0.00017248       0.00011374
I       24.67252186      25.81610365       5.98828195       75       0.00010385       0.00016282      -0.00018299
I       24.57416135      20.47139223       5.94504737       76      -0.00008144       0.00008692       0.00002184
I       22.02375370      25.84034138       9.79517067       77       0.00002599      -0.00019885      -0.00002005
I       20.07156405      23.17376782       6.42348821       78      -0.00019075       0.00015980      -0.00010117
I       26.52636933      23.13779481       9.31678341       79       0.00005166       0.00006234      -0.00002541
