80
Lattice="20.716434853911828 0.0 0.0 1.200469458611911 14.325819093196438 0.0 10.971801625671892 3.878538683267236 15.238059893306072" Properties=species:S:1:pos:R:3 pbc="T T T"
Cs       4.11101415       2.27552259       1.90478214
Cs      12.33333873       6.82665567       5.71424739
K        8.22217647       4.55108901       3.80951474
In       0.00000017       0.00000035       0.00000016
I        7.48295710       2.12756291       4.82065744
I        8.96139575       6.97461490       2.79837204
I       11.33708995       2.12406900       2.90185457
I        5.10726150       6.97810909       4.71717437
I        4.66472655       4.93224725       0.63936990
I       11.77962646       4.16993329       6.97966120
Cs       9.59691496       4.21479193       9.52381208
Cs      17.81923955       8.76592501      13.33327733
K       13.70807728       6.49035835      11.42854468
In       5.48590098       1.93926969       7.61903011
I       12.96885792       4.06683225      12.43968739
I       14.44729656       8.91388425      10.41740199
I       16.82299076       4.06333834      10.52088451
I       10.59316231       8.91737843      12.33620432
I       10.15062736       6.87151659       8.25839985
I       17.26552727       6.10920263      14.59869115
Cs       4.71124888       9.43843214       1.90478214
Cs      12.93357346      13.98956521       5.71424739
K        8.82241119      11.71399856       3.80951474
In       0.60023490       7.16290989       0.00000016
I        8.08319183       9.29047246       4.82065744
I        9.56163048      14.13752445       2.79837204
I       11.93732468       9.28697855       2.90185457
I        5.70749623      14.14101864       4.71717437
I        5.26496128      12.09515680       0.63936990
I       12.37986119      11.33284283       6.97966120
Cs      10.19714969      11.37770148       9.52381208
Cs      18.41947428      15.92883455      13.33327733
K       14.30831201      13.65326790      11.42854468
In       6.08613571       9.10217924       7.61903011
I       13.56909265      11.22974180      12.43968739
I       15.04753129      16.07679379      10.41740199
I       17.42322549      11.22624789      10.52088451
I       11.19339704      16.08028798      12.33620432
I       10.75086209      14.03442614       8.25839985
I       17.86576200      13.27211217      14.59869115
Cs      14.46923158       2.27552259       1.90478214
Cs      22.69155616       6.82665567       5.71424739
K       18.58039389       4.55108901       3.80951474
In      10.35821760       0.00000035       0.00000016
I       17.84117453       2.12756291       4.82065744
I       19.31961317       6.97461490       2.79837204
I       21.69530738       2.12406900       2.90185457
I       15.46547893       6.97810909       4.71717437
I       15.02294398       4.93224725       0.63936990
I       22.13784389       4.16993329       6.97966120
Cs      19.95513239       4.21479193       9.52381208
Cs      28.17745697       8.76592501      13.33327733
K       24.06629470       6.49035835      11.42854468
In      15.84411841       1.93926969       7.61903011
I       23.32707534       4.06683225      12.43968739
I       24.80551399       8.91388425      10.41740199
I       27.18120819       4.06333834      10.52088451
I       20.95137974       8.91737843      12.33620432
I       20.50884479       6.87151659       8.25839985
I       27.62374470       6.10920263      14.59869115
Cs      15.06946631       9.43843214       1.90478214
Cs      23.29179089      13.98956521       5.71424739
K       19.18062862      11.71399856       3.80951474
In      10.95845233       7.16290989       0.00000016
I       18.44140926       9.29047246       4.82065744
I       19.91984790      14.13752445       2.79837204
I       22.29554211       9.28697855       2.90185457
I       16.06571366      14.14101864       4.71717437
I       15.62317870      12.09515680       0.63936990
I       22.73807862      11.33284283       6.97966120
Cs      20.55536712      11.37770148       9.52381208
Cs      28.77769170      15.92883455      13.33327733
K       24.66652943      13.65326790      11.42854468
In      16.44435314       9.10217924       7.61903011
I       23.92731007      11.22974180      12.43968739
I       25.40574872      16.07679379      10.41740199
I       27.78144292      11.22624789      10.52088451
I       21.55161447      16.08028798      12.33620432
I       21.10907952      14.03442614       8.25839985
I       28.22397943      13.27211217      14.59869115
