160
Lattice="16.130904121764317 0.0 0.0 -5.373119203902578 16.057786108531037 0.0 -7.180811960828246 -5.376965514775477 20.953821334950533" Properties=species:S:1:pos:R:3 pbc="T T T"
Cs       0.90346035       7.08524463       2.61922764
Cs      -1.34508215       3.07094845       2.61922764
Cs       1.81749995      -1.03809932       7.85768297
Cs       4.06609552       2.97649755       7.85768297
Pb       0.46622902       0.35347465      -0.00000211
Pb       2.68944623       4.01444653       0.00000000
Pb      -1.32897397      -0.99076673       5.23845738
Pb       1.36048821       3.02360239       5.23846160
I        0.00025502       5.85279190       0.43535599
I        2.25471273       1.83833330       0.43549797
I        6.92559891      -0.24288614       2.61922764
I        2.72071874       0.19450372      10.04136087
I        0.46626515       4.20893818      10.04150285
I        2.91588066       3.77140646       2.61922764
I       -1.49649116       4.73203388       4.80309928
I        0.75796655       0.71757528       4.80295730
I       -4.20466504       6.29033621       7.85768297
I        4.21746492       1.31526174       5.67400507
I        1.96301133       5.32969620       5.67386309
I       -0.19493306       2.27573576       7.85768297
Cs      -2.68694563       4.39676187      13.09613830
Cs      -4.93548813       0.38246569      13.09613830
Cs      -1.77290603      -3.72658208      18.33459364
Cs       0.47568954       0.28801479      18.33459364
Pb      -3.12417696      -2.33500811      10.47690855
Pb      -0.90095975       1.32596377      10.47691067
Pb      -4.91937995      -3.67924948      15.71536805
Pb      -2.22991777       0.33511963      15.71537226
I       -3.59015096       3.16430914      10.91226666
I       -1.33569325      -0.85014945      10.91240864
I        3.33519293      -2.93136890      13.09613830
I       -0.86968724      -2.49397904      20.51827153
I       -3.12414083       1.52045542      20.51841352
I       -0.67452532       1.08292370      13.09613830
I       -5.08689714       2.04355112      15.28000995
I       -2.83243943      -1.97090747      15.27986797
I       -7.79507102       3.60185346      18.33459364
I        0.62705894      -1.37322102      16.15091574
I       -1.62739465       2.64121344      16.15077375
I       -3.78533904      -0.41274700      18.33459364
Cs      -1.78309925      15.11413769       2.61922764
Cs      -4.03164175      11.09984150       2.61922764
Cs      -0.86905965       6.99079373       7.85768297
Cs       1.37953592      11.00539060       7.85768297
Pb      -2.22033059       8.38236771      -0.00000211
Pb       0.00288663      12.04333958       0.00000000
Pb      -4.01553358       7.03812633       5.23845738
Pb      -1.32607140      11.05249544       5.23846160
I       -2.68630458      13.88168495       0.43535599
I       -0.43184687       9.86722636       0.43549797
I        4.23903931       7.78600691       2.61922764
I        0.03415914       8.22339678      10.04136087
I       -2.22029445      12.23783124      10.04150285
I        0.22932106      11.80029951       2.61922764
I       -4.18305076      12.76092693       4.80309928
I       -1.92859305       8.74646834       4.80295730
I       -6.89122464      14.31922927       7.85768297
I        1.53090532       9.34415479       5.67400507
I       -0.72354827      13.35858925       5.67386309
I       -2.88149266      10.30462881       7.85768297
Cs      -5.37350523      12.42565493      13.09613830
Cs      -7.62204773       8.41135875      13.09613830
Cs      -4.45946564       4.30231097      18.33459364
Cs      -2.21087006       8.31690785      18.33459364
Pb      -5.81073657       5.69388495      10.47690855
Pb      -3.58751935       9.35485682      10.47691067
Pb      -7.60593956       4.34964357      15.71536805
Pb      -4.91647738       8.36401269      15.71537226
I       -6.27671056      11.19320219      10.91226666
I       -4.02225285       7.17874360      10.91240864
I        0.64863333       5.09752416      13.09613830
I       -3.55624684       5.53491402      20.51827153
I       -5.81070043       9.54934848      20.51841352
I       -3.36108492       9.11181675      13.09613830
I       -7.77345674      10.07244418      15.28000995
I       -5.51899903       6.05798558      15.27986797
I      -10.48163062      11.63074651      18.33459364
I       -2.05950066       6.65567204      16.15091574
I       -4.31395425      10.67010650      16.15077375
I       -6.47189864       7.61614605      18.33459364
Cs       8.96891242       7.08524463       2.61922764
Cs       6.72036992       3.07094845       2.61922764
Cs       9.88295201      -1.03809932       7.85768297
Cs      12.13154758       2.97649755       7.85768297
Pb       8.53168108       0.35347465      -0.00000211
Pb      10.75489829       4.01444653       0.00000000
Pb       6.73647809      -0.99076673       5.23845738
Pb       9.42594027       3.02360239       5.23846160
I        8.06570708       5.85279190       0.43535599
I       10.32016479       1.83833330       0.43549797
I       14.99105097      -0.24288614       2.61922764
I       10.78617080       0.19450372      10.04136087
I        8.53171721       4.20893818      10.04150285
I       10.98133273       3.77140646       2.61922764
I        6.56896090       4.73203388       4.80309928
I        8.82341861       0.71757528       4.80295730
I        3.86078702       6.29033621       7.85768297
I       12.28291698       1.31526174       5.67400507
I       10.02846339       5.32969620       5.67386309
I        7.87051901       2.27573576       7.85768297
Cs       5.37850643       4.39676187      13.09613830
Cs       3.12996394       0.38246569      13.09613830
Cs       6.29254603      -3.72658208      18.33459364
Cs       8.54114160       0.28801479      18.33459364
Pb       4.94127510      -2.33500811      10.47690855
Pb       7.16449231       1.32596377      10.47691067
Pb       3.14607211      -3.67924948      15.71536805
Pb       5.83553429       0.33511963      15.71537226
I        4.47530110       3.16430914      10.91226666
I        6.72975881      -0.85014945      10.91240864
I       11.40064499      -2.93136890      13.09613830
I        7.19576482      -2.49397904      20.51827153
I        4.94131123       1.52045542      20.51841352
I        7.39092675       1.08292370      13.09613830
I        2.97855492       2.04355112      15.28000995
I        5.23301263      -1.97090747      15.27986797
I        0.27038104       3.60185346      18.33459364
I        8.69251100      -1.37322102      16.15091574
I        6.43805741       2.64121344      16.15077375
I        4.28011303      -0.41274700      18.33459364
Cs       6.28235281      15.11413769       2.61922764
Cs       4.03381031      11.09984150       2.61922764
Cs       7.19639241       6.99079373       7.85768297
Cs       9.44498798      11.00539060       7.85768297
Pb       5.84512147       8.38236771      -0.00000211
Pb       8.06833869      12.04333958       0.00000000
Pb       4.04991848       7.03812633       5.23845738
Pb       6.73938067      11.05249544       5.23846160
I        5.37914748      13.88168495       0.43535599
I        7.63360519       9.86722636       0.43549797
I       12.30449137       7.78600691       2.61922764
I        8.09961120       8.22339678      10.04136087
I        5.84515761      12.23783124      10.04150285
I        8.29477312      11.80029951       2.61922764
I        3.88240130      12.76092693       4.80309928
I        6.13685901       8.74646834       4.80295730
I        1.17422742      14.31922927       7.85768297
I        9.59635738       9.34415479       5.67400507
I        7.34190379      13.35858925       5.67386309
I        5.18395940      10.30462881       7.85768297
Cs       2.69194683      12.42565493      13.09613830
Cs       0.44340433       8.41135875      13.09613830
Cs       3.60598643       4.30231097      18.33459364
Cs       5.85458200       8.31690785      18.33459364
Pb       2.25471549       5.69388495      10.47690855
Pb       4.47793271       9.35485682      10.47691067
Pb       0.45951250       4.34964357      15.71536805
Pb       3.14897468       8.36401269      15.71537226
I        1.78874150      11.19320219      10.91226666
I        4.04319921       7.17874360      10.91240864
I        8.71408539       5.09752416      13.09613830
I        4.50920522       5.53491402      20.51827153
I        2.25475163       9.54934848      20.51841352
I        4.70436714       9.11181675      13.09613830
I        0.29199532      10.07244418      15.28000995
I        2.54645303       6.05798558      15.27986797
I       -2.41617856      11.63074651      18.33459364
I        6.00595140       6.65567204      16.15091574
I        3.75149781      10.67010650      16.15077375
I        1.59355342       7.61614605      18.33459364
