80
Lattice="17.943543114650048 0.0 0.0 8.971771557400576 15.539564171144885 0.0 8.971771557545592 5.179854723827694 14.650842004987448" Properties=species:S:1:pos:R:3 pbc="T T T"
Cs       4.48586753       2.58992189       1.83135558
Cs      13.45767553       7.76978741       5.49406533
K        8.97177162       5.17985470       3.66271052
In       0.00000009       0.00000015       0.00000005
I        6.75216929       3.53742573       5.30919477
I       11.19137397       6.82228357       2.01622623
I        9.33416212       2.66388142       1.70242383
I        8.60938093       7.69582785       5.62299714
I        6.57100949       6.56600519       1.70242765
I       11.37253389       3.79370457       5.62299354
Cs       8.97175330       5.17984925       9.15677658
Cs      17.94356131      10.35971477      12.81948633
K       13.45765740       7.76978206      10.98813152
In       4.48588587       2.58992751       7.32542106
I       11.23805507       6.12735310      12.63461577
I       15.67725975       9.41221094       9.34164723
I       13.82004790       5.25380878       9.02784483
I       13.09526671      10.28575521      12.94841814
I       11.05689527       9.15593255       9.02784865
I       15.85841967       6.38363193      12.94841454
Cs       8.97175330      10.35970397       1.83135558
Cs      17.94356131      15.53956950       5.49406533
K       13.45765740      12.94963678       3.66271052
In       4.48588587       7.76978224       0.00000005
I       11.23805507      11.30720782       5.30919477
I       15.67725975      14.59206566       2.01622623
I       13.82004790      10.43366351       1.70242383
I       13.09526671      15.46560993       5.62299714
I       11.05689527      14.33578728       1.70242765
I       15.85841967      11.56348665       5.62299354
Cs      13.45763908      12.94963133       9.15677658
Cs      22.42944709      18.12949686      12.81948633
K       17.94354318      15.53956415      10.98813152
In       8.97177165      10.35970960       7.32542106
I       15.72394085      13.89713518      12.63461577
I       20.16314553      17.18199302       9.34164723
I       18.30593368      13.02359087       9.02784483
I       17.58115248      18.05553730      12.94841814
I       15.54278105      16.92571464       9.02784865
I       20.34430545      14.15341401      12.94841454
Cs      13.45763908       2.58992189       1.83135558
Cs      22.42944709       7.76978741       5.49406533
K       17.94354317       5.17985470       3.66271052
In       8.97177165       0.00000015       0.00000005
I       15.72394085       3.53742573       5.30919477
I       20.16314553       6.82228357       2.01622623
I       18.30593368       2.66388142       1.70242383
I       17.58115248       7.69582785       5.62299714
I       15.54278104       6.56600519       1.70242765
I       20.34430545       3.79370457       5.62299354
Cs      17.94352486       5.17984925       9.15677658
Cs      26.91533286      10.35971477      12.81948633
K       22.42942895       7.76978206      10.98813152
In      13.45765743       2.58992751       7.32542106
I       20.20982663       6.12735310      12.63461577
I       24.64903131       9.41221094       9.34164723
I       22.79181946       5.25380878       9.02784483
I       22.06703826      10.28575521      12.94841814
I       20.02866682       9.15593255       9.02784865
I       24.83019123       6.38363193      12.94841454
Cs      17.94352486      10.35970397       1.83135558
Cs      26.91533286      15.53956950       5.49406533
K       22.42942895      12.94963678       3.66271052
In      13.45765743       7.76978224       0.00000005
I       20.20982663      11.30720782       5.30919477
I       24.64903131      14.59206566       2.01622623
I       22.79181946      10.43366351       1.70242383
I       22.06703826      15.46560993       5.62299714
I       20.02866682      14.33578728       1.70242765
I       24.83019123      11.56348665       5.62299354
Cs      22.42941064      12.94963133       9.15677658
Cs      31.40121864      18.12949686      12.81948633
K       26.91531473      15.53956415      10.98813152
In      17.94354321      10.35970960       7.32542106
I       24.69571241      13.89713518      12.63461577
I       29.13491708      17.18199302       9.34164723
I       27.27770524      13.02359087       9.02784483
I       26.55292404      18.05553730      12.94841814
I       24.51455260      16.92571464       9.02784865
I       29.31607701      14.15341401      12.94841454
