80
Lattice="18.445233776056266 0.086509415012827 0.028092274559307927 9.295478238302223 14.91439147101805 0.4082740820243067 9.289307209662073 5.382448599773282 15.036200888308501" Properties=species:S:1:pos:R:3:spacegroup_kinds:I:1:forces:R:3 spacegroup="P 1" unit_cell=conventional occupancy="_JSON {\"0\": {\"Cs\": 1.0}, \"1\": {\"Cs\": 1.0}, \"2\": {\"K\": 1.0}, \"3\": {\"In\": 1.0}, \"4\": {\"I\": 1.0}, \"5\": {\"I\": 1.0}, \"6\": {\"I\": 1.0}, \"7\": {\"I\": 1.0}, \"8\": {\"I\": 1.0}, \"9\": {\"I\": 1.0}, \"10\": {\"Cs\": 1.0}, \"11\": {\"Cs\": 1.0}, \"12\": {\"K\": 1.0}, \"13\": {\"In\": 1.0}, \"14\": {\"I\": 1.0}, \"15\": {\"I\": 1.0}, \"16\": {\"I\": 1.0}, \"17\": {\"I\": 1.0}, \"18\": {\"I\": 1.0}, \"19\": {\"I\": 1.0}, \"20\": {\"Cs\": 1.0}, \"21\": {\"Cs\": 1.0}, \"22\": {\"K\": 1.0}, \"23\": {\"In\": 1.0}, \"24\": {\"I\": 1.0}, \"25\": {\"I\": 1.0}, \"26\": {\"I\": 1.0}, \"27\": {\"I\": 1.0}, \"28\": {\"I\": 1.0}, \"29\": {\"I\": 1.0}, \"30\": {\"Cs\": 1.0}, \"31\": {\"Cs\": 1.0}, \"32\": {\"K\": 1.0}, \"33\": {\"In\": 1.0}, \"34\": {\"I\": 1.0}, \"35\": {\"I\": 1.0}, \"36\": {\"I\": 1.0}, \"37\": {\"I\": 1.0}, \"38\": {\"I\": 1.0}, \"39\": {\"I\": 1.0}, \"40\": {\"Cs\": 1.0}, \"41\": {\"Cs\": 1.0}, \"42\": {\"K\": 1.0}, \"43\": {\"In\": 1.0}, \"44\": {\"I\": 1.0}, \"45\": {\"I\": 1.0}, \"46\": {\"I\": 1.0}, \"47\": {\"I\": 1.0}, \"48\": {\"I\": 1.0}, \"49\": {\"I\": 1.0}, \"50\": {\"Cs\": 1.0}, \"51\": {\"Cs\": 1.0}, \"52\": {\"K\": 1.0}, \"53\": {\"In\": 1.0}, \"54\": {\"I\": 1.0}, \"55\": {\"I\": 1.0}, \"56\": {\"I\": 1.0}, \"57\": {\"I\": 1.0}, \"58\": {\"I\": 1.0}, \"59\": {\"I\": 1.0}, \"60\": {\"Cs\": 1.0}, \"61\": {\"Cs\": 1.0}, \"62\": {\"K\": 1.0}, \"63\": {\"In\": 1.0}, \"64\": {\"I\": 1.0}, \"65\": {\"I\": 1.0}, \"66\": {\"I\": 1.0}, \"67\": {\"I\": 1.0}, \"68\": {\"I\": 1.0}, \"69\": {\"I\": 1.0}, \"70\": {\"Cs\": 1.0}, \"71\": {\"Cs\": 1.0}, \"72\": {\"K\": 1.0}, \"73\": {\"In\": 1.0}, \"74\": {\"I\": 1.0}, \"75\": {\"I\": 1.0}, \"76\": {\"I\": 1.0}, \"77\": {\"I\": 1.0}, \"78\": {\"I\": 1.0}, \"79\": {\"I\": 1.0}}" energy=-205.19157233335824 free_energy=-205.19157233335824 stress="3.3068967271804363e-07 -1.0749257399268173e-06 5.203649480477387e-08 -1.0749257399268173e-06 -1.301463001722277e-07 -3.4508258358267223e-07 5.203649480477387e-08 -3.4508258358267223e-07 -9.644804861852153e-08" pbc="T T T"
Cs       4.63078880       2.73249259       1.88810374        0      -0.00020363      -0.00007151      -0.00017591
Cs      13.88172704       7.46062932       5.84824370        1      -0.00008599       0.00001233       0.00018595
K        9.25848127       5.09479139       3.86933959        2      -0.00028504      -0.00009427       0.00002772
In      18.44555331       0.08637289       0.02822692        3      -0.00028372       0.00000619       0.00053160
I        6.33523540       3.69226379       5.28272597        4       0.00038114      -0.00019771       0.00020527
I       12.17912209       6.49721800       2.45193858        5      -0.00000728      -0.00024023       0.00031349
I        9.95279243       2.42290683       1.65271131        6      -0.00018889       0.00003779       0.00032103
I        8.56411236       7.76672229       6.08595608        7      -0.00025306      -0.00013772      -0.00014771
I        6.99589439       6.00396674       1.30721792        8      -0.00034870       0.00067376      -0.00004468
I       11.51816141       4.18921669       6.43397831        9      -0.00008618       0.00002342       0.00002187
Cs       9.27638801       5.42409909       9.40996792       10      -0.00011901       0.00038152       0.00025398
Cs      18.52782001      10.14910184      13.36984123       11      -0.00031415       0.00032602      -0.00005981
K       13.90437478       7.78703898      11.38504621       12       0.00019919      -0.00001091       0.00016955
In      23.08956301       2.77763132       7.54651468       13       0.00017575      -0.00031852      -0.00027349
I       10.98595637       6.38309593      12.80468412       14      -0.00024081       0.00013857      -0.00056825
I       16.82639825       9.18961473       9.97304033       15       0.00053874       0.00013752      -0.00038132
I       14.59683578       5.11486015       9.17064443       16       0.00031241      -0.00003605      -0.00001030
I       13.21117381      10.45871735      13.60124245       17       0.00035710      -0.00014412      -0.00009737
I       11.64027249       8.69708865       8.82463613       18       0.00071390      -0.00049149       0.00021662
I       16.16267593       6.87802597      13.95160401       19       0.00029572       0.00013926       0.00010803
Cs       9.27763798      10.18865521       2.09225288       20      -0.00014939       0.00020401      -0.00008755
Cs      18.52889597      14.91567387       6.05429565       21      -0.00013221       0.00016461       0.00007965
K       13.90625168      12.55242226       4.07283260       22      -0.00026300       0.00011697       0.00022508
In      23.09350540       7.54319234       0.23238493       23      -0.00010811       0.00010826       0.00020874
I       10.98342567      11.14857185       5.48670636       24       0.00002431       0.00001814       0.00002291
I       16.82832616      13.95498160       2.65777568       25      -0.00006881      -0.00026828      -0.00020325
I       14.59945113       9.87966720       1.85854516       26      -0.00000789       0.00033036       0.00042595
I       13.21256410      15.22394431       6.28934741       27       0.00002715      -0.00026210       0.00007636
I       11.64120082      13.45931390       1.51218444       28       0.00030622       0.00028872       0.00013903
I       16.16349818      11.64292574       6.63841432       29       0.00055698       0.00006458       0.00016678
Cs      13.92378666      12.88186502       9.61265435       30      -0.00016520       0.00014791       0.00013268
Cs      23.17399082      17.60950088      13.57215938       31      -0.00007841       0.00005553       0.00012697
K       18.55135140      15.24369880      11.59041344       32       0.00007956      -0.00009680      -0.00007636
In      27.73714515      10.23520253       7.75062376       33      -0.00002852      -0.00005322      -0.00023481
I       15.63106449      13.84102316      13.00723945       34       0.00002898      -0.00013076       0.00019493
I       21.47141805      16.64782221      10.17569818       35       0.00062231      -0.00017050       0.00003334
I       19.24352902      12.57327087       9.37340784       36       0.00018228      -0.00060994      -0.00026376
I       17.85790461      17.91725748      13.80421466       37      -0.00005570      -0.00017722      -0.00008950
I       16.28879674      16.15471140       9.02886241       38      -0.00008986      -0.00021211      -0.00012712
I       20.81152963      14.33744150      14.15526536       39      -0.00020193      -0.00009102       0.00015024
Cs      13.85673529       2.77435856       1.89981413       40      -0.00009254       0.00005035      -0.00024058
Cs      23.10610972       7.49999506       5.86093233       41      -0.00006443       0.00017949      -0.00015514
K       18.47871731       5.13992666       3.88208576       42      -0.00015548      -0.00007716       0.00003605
In       9.22310751       0.04308186       0.01390092       43      -0.00031338      -0.00003033      -0.00023497
I       15.55743783       3.73700271       5.29652110       44      -0.00034198       0.00017442      -0.00015914
I       21.40004621       6.54118758       2.46562074       45      -0.00001644       0.00018163      -0.00017002
I       19.17285655       2.46587151       1.66865995       46      -0.00002377      -0.00003359      -0.00000676
I       17.78602243       7.81108235       6.09833147       47      -0.00037942      -0.00009745       0.00022317
I       16.21884151       6.04646167       1.31656267       48       0.00026168       0.00015617      -0.00000254
I       20.74003058       4.22787425       6.44460851       49       0.00045889       0.00052317      -0.00019890
Cs      18.50035411       5.46807267       9.41822729       50      -0.00005267       0.00002989       0.00023638
Cs      27.75403972      10.19346347      13.38093769       51      -0.00022681       0.00010398      -0.00016257
K       23.12378492       7.83129214      11.39969906       52       0.00016609      -0.00021433      -0.00016922
In      13.86666153       2.73510699       7.53183503       53       0.00059173      -0.00071137       0.00024196
I       20.20221290       6.42849669      12.81442176       54       0.00008254      -0.00000209       0.00021110
I       26.04613143       9.23511390       9.98654423       55      -0.00002114       0.00003614       0.00004022
I       23.81722366       5.15933160       9.18337573       56      -0.00007548       0.00015784       0.00004975
I       22.43075225      10.50449118      13.61347796       57       0.00024758      -0.00012786      -0.00002594
I       20.86523954       8.74069605       8.83432763       58      -0.00041007       0.00021951      -0.00044556
I       25.38940812       6.92348308      13.96026796       59      -0.00013863      -0.00015060      -0.00001936
Cs      18.50272451      10.23313873       2.10186817       60       0.00003252      -0.00011303      -0.00004084
Cs      27.75366862      14.95909021       6.06366287       61      -0.00012584      -0.00013217      -0.00019293
K       23.12568693      12.59635715       4.08740931       62      -0.00015174      -0.00006868      -0.00017197
In      13.87048711       7.50091365       0.21803414       63       0.00001332      -0.00030760      -0.00036211
I       20.20235084      11.19470651       5.49905025       64       0.00021250       0.00003494      -0.00009920
I       26.04501465      13.99989357       2.66849523       65       0.00026185      -0.00008782       0.00010657
I       23.81994468       9.92375881       1.87152838       66      -0.00044289      -0.00031372      -0.00009287
I       22.43253751      15.26970488       6.30101219       67      -0.00037439       0.00009480       0.00036992
I       20.86793387      13.50414955       1.52001607       68      -0.00033318       0.00022965       0.00002247
I       25.38841390      11.68674711       6.64893833       69       0.00019563       0.00020852      -0.00029831
Cs      23.14754588      12.92387298       9.62466590       70      -0.00000249       0.00021073       0.00002310
Cs      32.40069274      17.64859994      13.58448994       71      -0.00016733       0.00032973       0.00001097
K       27.77150472      15.28875756      11.60316506       72       0.00020292      -0.00000578      -0.00004592
In      18.51466651      10.19204694       7.73592338       73      -0.00008138      -0.00014163       0.00067435
I       24.85109073      13.88740650      13.02040035       74      -0.00029950      -0.00021020      -0.00016846
I       30.69432593      16.69060802      10.19027982       75      -0.00019688       0.00032670      -0.00005829
I       28.46545873      12.61721052       9.38678448       76       0.00017330       0.00003049       0.00017377
I       27.07788942      17.96031043      13.81926410       77       0.00027528      -0.00014924      -0.00001407
I       25.51054630      16.19515905       9.03879922       78      -0.00003275       0.00025943      -0.00042934
I       30.03487192      14.37749921      14.16504449       79       0.00030856      -0.00012392       0.00004865
