20
Lattice="18.20188842964528 0.0 0.0 0.8093272500316232 9.911749713753467 0.0 6.456803453157428 0.005841336456229473 5.222578509835" Properties=species:S:1:pos:R:3 pbc="T T T"
Cs       4.09166254       2.47936632       1.30565840
Cs      12.27541216       7.43822390       3.91691957
K        8.18353733       4.95879501       2.61128891
In       0.00000018       0.00000063       0.00000026
I        8.30767872       0.82540001       2.28351205
I        8.05939594       9.09218954       2.93906578
I       10.97595640       3.38707405       1.65879517
I        5.39111685       6.53051555       3.56378237
I        4.44249836       7.20965217       0.76849233
I       11.92457696       2.70794033       4.45408697
Cs      13.19260676       2.47936632       1.30565840
Cs      21.37635638       7.43822390       3.91691957
K       17.28448155       4.95879501       2.61128891
In       9.10094439       0.00000063       0.00000026
I       17.40862294       0.82540001       2.28351205
I       17.16034016       9.09218954       2.93906578
I       20.07690062       3.38707405       1.65879517
I       14.49206107       6.53051555       3.56378237
I       13.54344258       7.20965217       0.76849233
I       21.02552117       2.70794033       4.45408697
