10
Lattice="9.2066836425433 -0.05315293246497576 -1.2954987349318123 -4.437226696489496 8.036246146429756 1.4816784336225757 1.2151024073968195 -0.9331067235156962 8.694258204680045" Properties=species:S:1:pos:R:3:spacegroup_kinds:I:1:forces:R:3 spacegroup="P 1" unit_cell=conventional occupancy="_JSON {\"0\": {\"Cs\": 1.0}, \"1\": {\"Cs\": 1.0}, \"2\": {\"K\": 1.0}, \"3\": {\"In\": 1.0}, \"4\": {\"I\": 1.0}, \"5\": {\"I\": 1.0}, \"6\": {\"I\": 1.0}, \"7\": {\"I\": 1.0}, \"8\": {\"I\": 1.0}, \"9\": {\"I\": 1.0}}" energy=-25.793804072487582 free_energy=-25.793804072487582 stress="-2.3273453150009668e-06 3.794088703311567e-06 -1.9451556148636604e-06 3.794088703311567e-06 6.202576346907652e-06 -2.8318892340220636e-06 -1.9451556148636604e-06 -2.8318892340220636e-06 -1.2653229189900251e-06" pbc="T T T"
Cs       6.40607395       1.71521174       8.20442723        0       0.00032723      -0.00027906       0.00006787
Cs       0.65690239       5.33359934       0.52491658        1      -0.00014624       0.00022693      -0.00039489
K        1.14682565      -0.46715628       4.27142766        2       0.00003756      -0.00004569       0.00014409
In       0.53927631      -0.00062973      -0.07549379        3      -0.00010689       0.00007375      -0.00058236
I        7.57532824      -0.19737718       0.71035617        4       0.00016154      -0.00015350       0.00023259
I       -0.51231079       7.24614496       8.01888744        5      -0.00000553       0.00013336      -0.00019742
I        2.05740380       1.89089333       1.70842498        6      -0.00017849       0.00022069      -0.00001117
I        5.00573324       5.15791145       7.02074038        7       0.00012388      -0.00023981       0.00028197
I       -2.51583049       5.72796700       2.75871512        8       0.00015518       0.00014930       0.00016712
I        0.37240886       1.37387962       7.26583597        9      -0.00036824      -0.00008597       0.00029222
