20
Lattice="12.764974642468996 -0.46026862547887537 -0.142984838296909 0.41819217455915164 12.47423397157638 -2.717825832055141 0.11780640413081163 1.3554479569344906 6.240774640578233" Properties=species:S:1:pos:R:3:spacegroup_kinds:I:1:forces:R:3 spacegroup="P 1" unit_cell=conventional occupancy="_JSON {\"0\": {\"Cs\": 1.0}, \"1\": {\"Pb\": 1.0}, \"2\": {\"I\": 1.0}, \"3\": {\"I\": 1.0}, \"4\": {\"I\": 1.0}, \"5\": {\"Cs\": 1.0}, \"6\": {\"Pb\": 1.0}, \"7\": {\"I\": 1.0}, \"8\": {\"I\": 1.0}, \"9\": {\"I\": 1.0}, \"10\": {\"Cs\": 1.0}, \"11\": {\"Pb\": 1.0}, \"12\": {\"I\": 1.0}, \"13\": {\"I\": 1.0}, \"14\": {\"I\": 1.0}, \"15\": {\"Cs\": 1.0}, \"16\": {\"Pb\": 1.0}, \"17\": {\"I\": 1.0}, \"18\": {\"I\": 1.0}, \"19\": {\"I\": 1.0}}" energy=-55.92296906357265 free_energy=-55.92296906357265 stress="-5.703860838268702e-07 -2.723853939085644e-06 -2.631429241199689e-06 -2.723853939085644e-06 -4.544870016369223e-06 1.9272604263454835e-06 -2.631429241199689e-06 1.9272604263454835e-06 8.166775610611447e-06" pbc="T T T"
Cs       3.35475397       3.68098293       2.40538051        0       0.00000432      -0.00001990       0.00001394
Pb       0.00000333       0.00002195      -0.00004339        1      -0.00000648      -0.00003104       0.00003726
I        0.05888427       0.67780977       3.12035636        2      -0.00000440      -0.00000385      -0.00003237
I        3.19123638      -0.11496262      -0.03583584        3       0.00000873       0.00000020      -0.00000238
I        0.10452796       3.11856286      -0.67948522        4      -0.00000217       0.00005458      -0.00001645
Cs       3.56385005       9.91809991       1.04646760        5       0.00000432      -0.00001990       0.00001394
Pb      12.97407406       5.77687031      -1.50194115        6      -0.00000648      -0.00003104       0.00003726
I        0.26798036       6.91492675       1.76144345        7      -0.00000440      -0.00000385      -0.00003237
I        3.40033246       6.12215436      -1.39474876        8       0.00000873       0.00000020      -0.00000238
I       13.07859869       8.89541122      -2.18138298        9      -0.00000217       0.00005459      -0.00001645
Cs       9.73724129       3.45084861       2.33388809       10       0.00000432      -0.00001990       0.00001394
Pb       6.38249065      -0.23011237      -0.07153581       11      -0.00000648      -0.00003104       0.00003726
I        6.44137159       0.44767545       3.04886394       12      -0.00000440      -0.00000385      -0.00003237
I        9.57372370      -0.34509694      -0.10732826       13       0.00000873       0.00000020      -0.00000238
I        6.48701528       2.88842855      -0.75097764       14      -0.00000217       0.00005458      -0.00001645
Cs       9.94633738       9.68796560       0.97497518       15       0.00000432      -0.00001990       0.00001394
Pb       6.59158674       6.00700462      -1.43044873       16      -0.00000648      -0.00003104       0.00003726
I        6.65046768       6.68479244       1.68995103       17      -0.00000440      -0.00000385      -0.00003237
I        9.78281979       5.89202005      -1.46624118       18       0.00000873       0.00000020      -0.00000238
I        6.69611137       9.12554553      -2.10989056       19      -0.00000217       0.00005459      -0.00001645
