20
Lattice="14.074452200247528 0.0 0.0 0.9584874629877426 14.108408142161032 0.0 0.3130627496981047 2.94329262559723 6.471117021987955" Properties=species:S:1:pos:R:3:oxi_states:R:1 pbc="T T T"
Cs       3.91478343       4.99873121       3.23555851       1.00000000
Pb      -0.00000000      -0.00000000       0.00000000       2.00000000
I        0.15653137       1.47164631       3.23555851      -1.00000000
I        3.51861305       0.00000000      -0.00000000      -1.00000000
I        0.23962187       3.52710204       0.00000000      -1.00000000
Cs       4.39402716      12.05293528       3.23555851       1.00000000
Pb       0.47924373       7.05420407       0.00000000       2.00000000
I        0.63577511       8.52585038       3.23555851      -1.00000000
I        3.99785678       7.05420407      -0.00000000      -1.00000000
I        0.71886560      10.58130611       0.00000000      -1.00000000
Cs      10.95200953       4.99873121       3.23555851       1.00000000
Pb       7.03722610      -0.00000000       0.00000000       2.00000000
I        7.19375747       1.47164631       3.23555851      -1.00000000
I       10.55583915       0.00000000      -0.00000000      -1.00000000
I        7.27684797       3.52710204       0.00000000      -1.00000000
Cs      11.43125326      12.05293528       3.23555851       1.00000000
Pb       7.51646983       7.05420407       0.00000000       2.00000000
I        7.67300121       8.52585038       3.23555851      -1.00000000
I       11.03508288       7.05420407      -0.00000000      -1.00000000
I        7.75609170      10.58130611       0.00000000      -1.00000000
