40
Lattice="18.487079656391554 -1.8910018014519814 -0.7205163692355913 -7.556313045925086 16.903281851578726 1.743399732084405 0.26124720482657227 -0.7899098136080073 8.789034817649028" Properties=species:S:1:pos:R:3:spacegroup_kinds:I:1:forces:R:3 spacegroup="P 1" unit_cell=conventional occupancy="_JSON {\"0\": {\"Cs\": 1.0}, \"1\": {\"Cs\": 1.0}, \"2\": {\"K\": 1.0}, \"3\": {\"In\": 1.0}, \"4\": {\"I\": 1.0}, \"5\": {\"I\": 1.0}, \"6\": {\"I\": 1.0}, \"7\": {\"I\": 1.0}, \"8\": {\"I\": 1.0}, \"9\": {\"I\": 1.0}, \"10\": {\"Cs\": 1.0}, \"11\": {\"Cs\": 1.0}, \"12\": {\"K\": 1.0}, \"13\": {\"In\": 1.0}, \"14\": {\"I\": 1.0}, \"15\": {\"I\": 1.0}, \"16\": {\"I\": 1.0}, \"17\": {\"I\": 1.0}, \"18\": {\"I\": 1.0}, \"19\": {\"I\": 1.0}, \"20\": {\"Cs\": 1.0}, \"21\": {\"Cs\": 1.0}, \"22\": {\"K\": 1.0}, \"23\": {\"In\": 1.0}, \"24\": {\"I\": 1.0}, \"25\": {\"I\": 1.0}, \"26\": {\"I\": 1.0}, \"27\": {\"I\": 1.0}, \"28\": {\"I\": 1.0}, \"29\": {\"I\": 1.0}, \"30\": {\"Cs\": 1.0}, \"31\": {\"Cs\": 1.0}, \"32\": {\"K\": 1.0}, \"33\": {\"In\": 1.0}, \"34\": {\"I\": 1.0}, \"35\": {\"I\": 1.0}, \"36\": {\"I\": 1.0}, \"37\": {\"I\": 1.0}, \"38\": {\"I\": 1.0}, \"39\": {\"I\": 1.0}}" energy=-103.17525602224426 free_energy=-103.17525602224426 stress="-1.6819062641569295e-07 1.0467847678479837e-06 -2.4144753209335873e-07 1.0467847678479837e-06 1.844737464710425e-06 -1.3653114504353237e-07 -2.4144753209335873e-07 -1.3653114504353237e-07 -3.135148194947351e-06" pbc="T T T"
Cs       2.11809596       3.72770408       0.24140306        0       0.00016493       0.00018064       0.00065816
Cs      -1.95903653       6.06540797       9.49896380        1      -0.00033900      -0.00030792       0.00077614
K       15.83458079      -0.74665163       3.89518455        2      -0.00039842      -0.00059427       0.00021274
In      15.70293013      -0.35280724      -0.49877405        3       0.00036414       0.00004807       0.00001264
I       14.74772594       1.69809645       1.48781873        4      -0.00001149      -0.00002598      -0.00061119
I        3.89785427       6.20423360       7.53503954        5       0.00015793      -0.00004216      -0.00037648
I       -1.15706657       2.88518784       7.38762546        6      -0.00014217       0.00027112      -0.00009637
I        1.31628367       6.90704979       2.35576620        7      -0.00039709       0.00044888      -0.00004082
I       -4.08391818       9.60266166       2.75852964        8       0.00022553      -0.00011606      -0.00011084
I        4.24291333       0.19028148       6.98449132        9       0.00027569       0.00021088      -0.00042563
Cs      -1.66006195      12.17934588       1.11310327       10       0.00017500       0.00017638       0.00065752
Cs      -5.73719572      14.51704869      10.37066421       11      -0.00031628      -0.00030226       0.00077255
K       12.05642033       7.70499473       4.76688241       12      -0.00037122      -0.00063581       0.00023977
In      11.92474474       8.09887468       0.37295511       13       0.00053394      -0.00019732      -0.00016731
I       10.96958151      10.14971768       2.35950386       14      -0.00007229       0.00009245      -0.00051501
I        0.11970289      14.65586630       8.40673306       15       0.00013088       0.00000852      -0.00033481
I       -4.93522136      11.33682683       8.25932479       16      -0.00015308       0.00028435      -0.00009550
I       -2.46187014      15.35869245       3.22746475       17      -0.00041770       0.00043766      -0.00003183
I       -0.30576503       1.15102267       1.88682914       18       0.00025574      -0.00012882      -0.00009829
I        0.46475695       8.64192191       7.85619156       19       0.00028575       0.00021221      -0.00042481
Cs      11.36163370       2.78220414      -0.11885462       20       0.00018085       0.00017722       0.00065697
Cs       7.28450128       5.11990676       9.13870601       21      -0.00032219      -0.00030315       0.00077308
K        6.59103711       0.19885319       4.25544104       22      -0.00037152      -0.00062391       0.00023410
In       6.45936274       0.59272374      -0.13849265       23       0.00053189      -0.00012676      -0.00012862
I        5.50419573       2.64358254       1.84806574       24      -0.00006041       0.00006382      -0.00053630
I       13.14140170       5.25872006       7.17477222       25       0.00011927       0.00003603      -0.00031495
I        8.08647579       1.93968660       7.02736642       26      -0.00015995       0.00027176      -0.00009115
I       10.55982534       5.96154854       1.99550729       27      -0.00041037       0.00045116      -0.00003672
I        5.15962306       8.65716055       2.39827217       28       0.00022778      -0.00011818      -0.00011266
I       13.48644845      -0.75521766       6.62423204       29       0.00031292       0.00020178      -0.00041084
Cs       7.58347983      11.23384527       0.75284464       30       0.00015810       0.00017158       0.00066054
Cs       3.50634612      13.57154683      10.01040561       31      -0.00033235      -0.00029891       0.00077381
K        2.81288199       8.65049298       5.12714396       32      -0.00038519      -0.00061038       0.00021158
In       2.68121839       9.04435207       0.73318887       33       0.00044896      -0.00005449      -0.00001499
I        1.72603314      11.09523292       2.71977287       34      -0.00003126       0.00000960      -0.00058066
I        9.36323319      13.71038054       8.04648669       35       0.00017980      -0.00008191      -0.00041081
I        4.30831653      10.39132596       7.89906748       36      -0.00013996       0.00028181      -0.00009915
I        6.78166713      14.41319141       2.86720776       37      -0.00039950       0.00043791      -0.00003777
I        8.93777909       0.20552029       1.52657185       38       0.00021956      -0.00012014      -0.00011261
I        9.70829526       7.69642132       7.49593256       39       0.00028278       0.00021458      -0.00042350
