80
Lattice="18.444998538621412 0.0853839782575095 0.031134999456195106 9.300707632222718 14.91387638009462 0.4197576027911034 9.290441577787272 5.372832553582421 15.041145521372512" Properties=species:S:1:pos:R:3:spacegroup_kinds:I:1:forces:R:3 spacegroup="P 1" unit_cell=conventional occupancy="_JSON {\"0\": {\"Cs\": 1.0}, \"1\": {\"Cs\": 1.0}, \"2\": {\"K\": 1.0}, \"3\": {\"In\": 1.0}, \"4\": {\"I\": 1.0}, \"5\": {\"I\": 1.0}, \"6\": {\"I\": 1.0}, \"7\": {\"I\": 1.0}, \"8\": {\"I\": 1.0}, \"9\": {\"I\": 1.0}, \"10\": {\"Cs\": 1.0}, \"11\": {\"Cs\": 1.0}, \"12\": {\"K\": 1.0}, \"13\": {\"In\": 1.0}, \"14\": {\"I\": 1.0}, \"15\": {\"I\": 1.0}, \"16\": {\"I\": 1.0}, \"17\": {\"I\": 1.0}, \"18\": {\"I\": 1.0}, \"19\": {\"I\": 1.0}, \"20\": {\"Cs\": 1.0}, \"21\": {\"Cs\": 1.0}, \"22\": {\"K\": 1.0}, \"23\": {\"In\": 1.0}, \"24\": {\"I\": 1.0}, \"25\": {\"I\": 1.0}, \"26\": {\"I\": 1.0}, \"27\": {\"I\": 1.0}, \"28\": {\"I\": 1.0}, \"29\": {\"I\": 1.0}, \"30\": {\"Cs\": 1.0}, \"31\": {\"Cs\": 1.0}, \"32\": {\"K\": 1.0}, \"33\": {\"In\": 1.0}, \"34\": {\"I\": 1.0}, \"35\": {\"I\": 1.0}, \"36\": {\"I\": 1.0}, \"37\": {\"I\": 1.0}, \"38\": {\"I\": 1.0}, \"39\": {\"I\": 1.0}, \"40\": {\"Cs\": 1.0}, \"41\": {\"Cs\": 1.0}, \"42\": {\"K\": 1.0}, \"43\": {\"In\": 1.0}, \"44\": {\"I\": 1.0}, \"45\": {\"I\": 1.0}, \"46\": {\"I\": 1.0}, \"47\": {\"I\": 1.0}, \"48\": {\"I\": 1.0}, \"49\": {\"I\": 1.0}, \"50\": {\"Cs\": 1.0}, \"51\": {\"Cs\": 1.0}, \"52\": {\"K\": 1.0}, \"53\": {\"In\": 1.0}, \"54\": {\"I\": 1.0}, \"55\": {\"I\": 1.0}, \"56\": {\"I\": 1.0}, \"57\": {\"I\": 1.0}, \"58\": {\"I\": 1.0}, \"59\": {\"I\": 1.0}, \"60\": {\"Cs\": 1.0}, \"61\": {\"Cs\": 1.0}, \"62\": {\"K\": 1.0}, \"63\": {\"In\": 1.0}, \"64\": {\"I\": 1.0}, \"65\": {\"I\": 1.0}, \"66\": {\"I\": 1.0}, \"67\": {\"I\": 1.0}, \"68\": {\"I\": 1.0}, \"69\": {\"I\": 1.0}, \"70\": {\"Cs\": 1.0}, \"71\": {\"Cs\": 1.0}, \"72\": {\"K\": 1.0}, \"73\": {\"In\": 1.0}, \"74\": {\"I\": 1.0}, \"75\": {\"I\": 1.0}, \"76\": {\"I\": 1.0}, \"77\": {\"I\": 1.0}, \"78\": {\"I\": 1.0}, \"79\": {\"I\": 1.0}}" energy=-205.19157322050808 free_energy=-205.19157322050808 stress="-7.455548474721183e-07 1.958503934581943e-07 -4.074741980202944e-07 1.958503934581943e-07 -1.3545267846696094e-07 -1.2069988746808944e-07 -4.074741980202944e-07 -1.2069988746808944e-07 4.467342753820351e-08" pbc="T T T"
Cs       4.63285661       2.73150185       1.89061841        0      -0.00012860      -0.00007276       0.00010288
Cs      13.88526589       7.45505603       5.85524278        1       0.00008618      -0.00007475       0.00004452
K        9.25898374       5.09252355       3.87286228        2       0.00003448       0.00027646       0.00013644
In      18.44483444       0.08556052       0.03108228        3       0.00026889      -0.00068463      -0.00034580
I        6.33716435       3.68907082       5.28666958        4      -0.00002968       0.00005975       0.00012416
I       12.18068805       6.49747255       2.45950253        5      -0.00035745      -0.00021487       0.00005916
I        9.95206324       2.42172667       1.65573141        6       0.00027976       0.00028450       0.00009520
I        8.56670165       7.76444995       6.08982855        7       0.00003085      -0.00039085       0.00002923
I        6.99795918       6.00245096       1.31008717        8       0.00013140      -0.00011592      -0.00036295
I       11.52053597       4.18406181       6.43571229        9      -0.00004763      -0.00013402       0.00034667
Cs       9.27799071       5.41794225       9.41157208       10       0.00020858      -0.00002713      -0.00013745
Cs      18.53033894      10.14091223      13.37540906       11       0.00001547      -0.00003930       0.00008435
K       13.90462431       7.77940043      11.39358997       12      -0.00041553      -0.00014199       0.00018393
In      23.09010208       2.77132139       7.55169255       13       0.00008995       0.00063441       0.00027335
I       10.98258411       6.37603225      12.80756281       14       0.00032625      -0.00014877      -0.00040748
I       16.82501704       9.18376665       9.97969585       15       0.00028486       0.00011309      -0.00022843
I       14.59697897       5.10833378       9.17657404       16      -0.00021193      -0.00017799      -0.00002454
I       13.21169304      10.45051683      13.61063008       17       0.00003707       0.00007939       0.00006468
I       11.64362673       8.68949790       8.83027755       18      -0.00052040      -0.00006985       0.00006660
I       16.16563846       6.87010197      13.95716207       19      -0.00013306      -0.00022126      -0.00034408
Cs       9.28325814      10.18864750       2.10043290       20      -0.00012324      -0.00003456       0.00009288
Cs      18.53583869      14.91143963       6.06548904       21       0.00013035      -0.00005668      -0.00010599
K       13.90951461      12.54954280       4.08297257       22      -0.00010395       0.00041047      -0.00031301
In      23.09563400       7.54210448       0.24101202       23      -0.00066423       0.00037780       0.00004505
I       10.98769188      11.14657332       5.49668383       24      -0.00022504      -0.00004175      -0.00000842
I       16.83122544      13.95413454       2.66958131       25      -0.00005921      -0.00008153      -0.00012073
I       14.60231224       9.87886734       1.86614610       26      -0.00000332      -0.00021461      -0.00013881
I       13.21681125      15.22104784       6.29987339       27      -0.00022850      -0.00035077      -0.00006977
I       11.64811561      13.45910969       1.51933181       28      -0.00000085       0.00025682      -0.00009904
I       16.17099991      11.64088225       6.64604934       29      -0.00041862      -0.00011927      -0.00014532
Cs      13.92768842      12.87443560       9.62135166       30       0.00041153      -0.00007220      -0.00012961
Cs      23.18104343      17.59777685      13.58520600       31      -0.00012989       0.00007534       0.00015351
K       18.55448981      15.23600665      11.60300833       32       0.00011328       0.00018858       0.00049798
In      27.74050921      10.22877596       7.76156536       33       0.00020868      -0.00012355      -0.00012099
I       15.63313816      13.83201752      13.01696076       34       0.00012597       0.00005752       0.00023560
I       21.47557899      16.64084084      10.18934967       35      -0.00011525       0.00002382       0.00009748
I       19.24756541      12.56492305       9.38621282       36       0.00020779      -0.00014942       0.00001371
I       17.86164434      17.90779639      13.82004072       37       0.00026425       0.00036451       0.00017827
I       16.29368828      16.14584038       9.04022502       38      -0.00042837      -0.00012180      -0.00020211
I       20.81593853      14.32717716      14.16665906       39      -0.00030716       0.00019113      -0.00009984
Cs      13.85571143       2.77480563       1.90667044       40      -0.00009013      -0.00016947      -0.00022368
Cs      23.10767730       7.49741387       5.87120295       41      -0.00006632      -0.00008989      -0.00012751
K       18.48183665       5.13581008       3.88851079       42      -0.00019577      -0.00009056      -0.00011475
In       9.22265112       0.04257342       0.01571623       43       0.00002245      -0.00005079       0.00003506
I       15.56039175       3.73189439       5.30258139       44       0.00021681      -0.00011050      -0.00010988
I       21.40286875       6.53956229       2.47477152       45       0.00039596       0.00014839       0.00001429
I       19.17422980       2.46431155       1.67181963       46      -0.00007023       0.00011402       0.00006243
I       17.78882868       7.80667781       6.10560776       47      -0.00020621       0.00032546       0.00001227
I       16.22033240       6.04512048       1.32497418       48       0.00025730       0.00000052       0.00048777
I       20.74218041       4.22570274       6.45235137       49       0.00030064       0.00003314      -0.00025366
Cs      18.50015765       5.46066267       9.42682806       50      -0.00003529      -0.00006264       0.00010010
Cs      27.75314454      10.18370872      13.39118670       51      -0.00000615       0.00004762       0.00009948
K       23.12639027       7.82191202      11.40919461       52       0.00028968       0.00017573       0.00000572
In      13.86767472       2.72931125       7.53601863       53      -0.00027121      -0.00014183       0.00001675
I       20.20517156       6.41758918      12.82257708       54      -0.00000688       0.00012039       0.00011568
I       26.04833872       9.22609788       9.99538572       55      -0.00018170      -0.00038241       0.00018520
I       23.81935930       5.15032453       9.19232807       56      -0.00010096       0.00029202       0.00001987
I       22.43391995      10.49372346      13.62608024       57      -0.00002934      -0.00010918      -0.00001861
I       20.86477497       8.73111140       8.84648969       58       0.00045580      -0.00001880      -0.00029325
I       25.38788063       6.91299052      13.97209711       59       0.00002490      -0.00010579       0.00043879
Cs      18.50595563      10.23106887       2.11623570       60      -0.00000363       0.00000642      -0.00009339
Cs      27.75783005      14.95462819       6.08089000       61      -0.00001325      -0.00011662      -0.00002228
K       23.13188829      12.59278846       4.09814868       62       0.00010894      -0.00006256       0.00022029
In      13.87276257       7.49988983       0.22558768       63       0.00015696      -0.00026766      -0.00000123
I       20.21075797      11.18819105       5.51192473       64      -0.00021339      -0.00030356       0.00067187
I       26.05345912      13.99668741       2.68457186       65      -0.00026139      -0.00003199       0.00026836
I       23.82447003       9.92112185       1.88160279       66       0.00020443       0.00003769      -0.00024398
I       22.43929872      15.26393760       6.31540793       67       0.00007824       0.00033389       0.00000532
I       20.87105111      13.50217545       1.53526836       68      -0.00020013      -0.00001988      -0.00018621
I       25.39244650      11.68253422       6.66173579       69       0.00035575       0.00040263      -0.00013108
Cs      23.15131597      12.91777685       9.63687886       70      -0.00024817      -0.00002008       0.00019174
Cs      32.40310579      17.64072799      13.60081486       71       0.00014621      -0.00004785       0.00023940
K       27.77725303      15.27899963      11.61932740       72      -0.00017728       0.00004292      -0.00013100
In      18.51794202      10.18582235       7.74581432       73       0.00033334       0.00044687       0.00007400
I       24.85566093      13.87544325      13.03319460       74       0.00022619       0.00005732      -0.00064738
I       30.69863507      16.68251469      10.20552557       75       0.00014185      -0.00009079      -0.00036454
I       28.46953893      12.60772123       9.40219329       76      -0.00040468       0.00036044      -0.00003955
I       27.08451858      17.95013017      13.83642596       77      -0.00017270       0.00004394       0.00001238
I       25.51537023      16.18836161       9.05620157       78       0.00049139       0.00006623       0.00013013
I       30.03849425      14.36959785      14.18219006       79       0.00014427      -0.00027618       0.00007375
