20
Lattice="8.635351588121328 0.6782399109196121 -0.08898350714489978 -0.7101908960174282 9.108279120816299 0.5769576599411184 0.19015931286045543 -0.7819465285065291 12.614839715796089" Properties=species:S:1:pos:R:3:spacegroup_kinds:I:1:forces:R:3 spacegroup="P 1" unit_cell=conventional occupancy="_JSON {\"0\": {\"Cs\": 1.0}, \"1\": {\"Cs\": 1.0}, \"2\": {\"Cs\": 1.0}, \"3\": {\"Cs\": 1.0}, \"4\": {\"Pb\": 1.0}, \"5\": {\"Pb\": 1.0}, \"6\": {\"Pb\": 1.0}, \"7\": {\"Pb\": 1.0}, \"8\": {\"I\": 1.0}, \"9\": {\"I\": 1.0}, \"10\": {\"I\": 1.0}, \"11\": {\"I\": 1.0}, \"12\": {\"I\": 1.0}, \"13\": {\"I\": 1.0}, \"14\": {\"I\": 1.0}, \"15\": {\"I\": 1.0}, \"16\": {\"I\": 1.0}, \"17\": {\"I\": 1.0}, \"18\": {\"I\": 1.0}, \"19\": {\"I\": 1.0}}" energy=-56.508026645521014 free_energy=-56.508026645521014 stress="2.3435316344098185e-06 -3.2583646817352637e-06 -4.3896527427508705e-06 -3.2583646817352637e-06 -2.3707937329022328e-06 5.855552525040842e-06 -4.3896527427508705e-06 5.855552525040842e-06 1.116584034774199e-05" pbc="T T T"
Cs       3.96577243       8.68225815       3.64716606        0       0.00024621       0.00018979       0.00010887
Cs       0.47421214       3.82669843       3.39579817        1       0.00048031      -0.00041223       0.00021416
Cs       5.13272404       0.63725403       9.46241955        2       0.00025813      -0.00030084      -0.00012154
Cs      -0.01137129       4.81482409       9.79784856        3      -0.00037522       0.00015139       0.00019526
Pb       0.49327271       0.15779323       0.00216616        4      -0.00062120      -0.00025365      -0.00062976
Pb       4.45553407       5.05113976       0.24635448        5       0.00005961       0.00021121       0.00041057
Pb       0.58613243      -0.23398783       6.30938439        6      -0.00017181      -0.00001538       0.00047474
Pb       4.54851417       4.65934059       6.55420677        7       0.00025587       0.00030001      -0.00051627
I        1.67474735       6.62202710       0.91326003        8       0.00048258      -0.00055093      -0.00010670
I        3.00705372       2.14393029       0.61494590        9      -0.00006652      -0.00010726       0.00017918
I        8.43778786       0.66769443       3.07974839       10      -0.00057696       0.00024134      -0.00068811
I        7.42651033       2.69878280      12.19423117       11      -0.00053834       0.00030019       0.00000616
I        6.09415879       7.17548051      12.49256002       12       0.00012553       0.00007381      -0.00007936
I        5.22569077       4.99847628       3.39808978       13       0.00003024      -0.00020253       0.00038974
I        1.75143512       6.29438376       6.17085819       14       0.00046810      -0.00022463      -0.00017590
I        3.08352797       1.81831268       5.87195003       15       0.00055676       0.00010586      -0.00022402
I        1.37235862      -0.45704440       9.45006289       16      -0.00010072      -0.00017780       0.00095775
I        7.34458665       3.02251673       6.93703473       17      -0.00019932       0.00086830      -0.00006044
I        6.01242064       7.50152022       7.23578985       18      -0.00014210      -0.00026488      -0.00003082
I        3.87285461       4.32121734       9.70979488       19      -0.00017116       0.00006823      -0.00030350
