20
Lattice="8.74677161022559 0.0 0.0 -1.4032245931903475 8.349352484638286 0.0 0.4339111879292175 -1.534123373262927 12.707962280670035" Properties=species:S:1:pos:R:3 pbc="T T T"
Cs       3.49240106       7.43613814       3.17699057
Cs       0.29875635       3.26163719       3.17699057
Cs       5.37227281      -0.38060232       9.53097171
Cs       8.56593557       3.79424921       9.53097171
Pb       0.54359425       0.12028384       0.00000103
Pb       3.67177351       4.17467624       0.00000000
Pb       0.21695559      -0.76706169       6.35398114
Pb       4.43232878       3.52780814       6.35398502
I        1.27359918       5.89153099       0.52809074
I        2.96335853       1.71684068       0.52825629
I        8.64475309      -0.18446334       3.17699057
I        7.59107017       1.16419007      12.17968839
I        5.90131222       5.33885224      12.17985393
I        5.05145299       3.99003343       3.17699057
I        1.45448539       5.25199515       5.82589040
I        3.14424474       1.07730484       5.82572486
I        0.21987373       7.24035409       9.53097171
I        7.41018396       1.80372591       6.88225504
I        5.72042601       5.97838808       6.88208950
I        3.81317850       3.06549838       9.53097171
