10
Lattice="10.912840315916085 0.0 0.0 2.7523588544008555 6.086470363120004 0.0 3.3172640099202764 -3.5719158470371557 5.748748872359954" Properties=species:S:1:pos:R:3:oxi_states:R:1 pbc="T T T"
Cs       5.76322622       1.25707255       2.87437444       1.00000000
Pb      -0.00000000      -0.00000000       0.00000000       2.00000000
I        1.65863200      -1.78595792       2.87437444      -1.00000000
I        2.72821008       0.00000000      -0.00000000      -1.00000000
I       -1.22215892       3.04324731      -1.23620932      -1.00000000
Cs      11.21964637       1.25707255       2.87437444       1.00000000
Pb       5.45642016      -0.00000000       0.00000000       2.00000000
I        7.11505216      -1.78595792       2.87437444      -1.00000000
I        8.18463024       0.00000000      -0.00000000      -1.00000000
I        4.23426124       3.04324731      -1.23620932      -1.00000000
