80
Lattice="17.776874507678937 -1.7605839467027806 5.174979442095909 -7.648089376552222 16.894631630052835 -1.4008828794312094 12.768439105783564 -2.6269515751387633 22.084812322885533" Properties=species:S:1:pos:R:3:spacegroup_kinds:I:1:forces:R:3 spacegroup="P 1" unit_cell=conventional occupancy="_JSON {\"0\": {\"Cs\": 1.0}, \"1\": {\"Cs\": 1.0}, \"2\": {\"K\": 1.0}, \"3\": {\"In\": 1.0}, \"4\": {\"I\": 1.0}, \"5\": {\"I\": 1.0}, \"6\": {\"I\": 1.0}, \"7\": {\"I\": 1.0}, \"8\": {\"I\": 1.0}, \"9\": {\"I\": 1.0}, \"10\": {\"Cs\": 1.0}, \"11\": {\"Cs\": 1.0}, \"12\": {\"K\": 1.0}, \"13\": {\"In\": 1.0}, \"14\": {\"I\": 1.0}, \"15\": {\"I\": 1.0}, \"16\": {\"I\": 1.0}, \"17\": {\"I\": 1.0}, \"18\": {\"I\": 1.0}, \"19\": {\"I\": 1.0}, \"20\": {\"Cs\": 1.0}, \"21\": {\"Cs\": 1.0}, \"22\": {\"K\": 1.0}, \"23\": {\"In\": 1.0}, \"24\": {\"I\": 1.0}, \"25\": {\"I\": 1.0}, \"26\": {\"I\": 1.0}, \"27\": {\"I\": 1.0}, \"28\": {\"I\": 1.0}, \"29\": {\"I\": 1.0}, \"30\": {\"Cs\": 1.0}, \"31\": {\"Cs\": 1.0}, \"32\": {\"K\": 1.0}, \"33\": {\"In\": 1.0}, \"34\": {\"I\": 1.0}, \"35\": {\"I\": 1.0}, \"36\": {\"I\": 1.0}, \"37\": {\"I\": 1.0}, \"38\": {\"I\": 1.0}, \"39\": {\"I\": 1.0}, \"40\": {\"Cs\": 1.0}, \"41\": {\"Cs\": 1.0}, \"42\": {\"K\": 1.0}, \"43\": {\"In\": 1.0}, \"44\": {\"I\": 1.0}, \"45\": {\"I\": 1.0}, \"46\": {\"I\": 1.0}, \"47\": {\"I\": 1.0}, \"48\": {\"I\": 1.0}, \"49\": {\"I\": 1.0}, \"50\": {\"Cs\": 1.0}, \"51\": {\"Cs\": 1.0}, \"52\": {\"K\": 1.0}, \"53\": {\"In\": 1.0}, \"54\": {\"I\": 1.0}, \"55\": {\"I\": 1.0}, \"56\": {\"I\": 1.0}, \"57\": {\"I\": 1.0}, \"58\": {\"I\": 1.0}, \"59\": {\"I\": 1.0}, \"60\": {\"Cs\": 1.0}, \"61\": {\"Cs\": 1.0}, \"62\": {\"K\": 1.0}, \"63\": {\"In\": 1.0}, \"64\": {\"I\": 1.0}, \"65\": {\"I\": 1.0}, \"66\": {\"I\": 1.0}, \"67\": {\"I\": 1.0}, \"68\": {\"I\": 1.0}, \"69\": {\"I\": 1.0}, \"70\": {\"Cs\": 1.0}, \"71\": {\"Cs\": 1.0}, \"72\": {\"K\": 1.0}, \"73\": {\"In\": 1.0}, \"74\": {\"I\": 1.0}, \"75\": {\"I\": 1.0}, \"76\": {\"I\": 1.0}, \"77\": {\"I\": 1.0}, \"78\": {\"I\": 1.0}, \"79\": {\"I\": 1.0}}" energy=-206.3505080212924 free_energy=-206.3505080212924 stress="-2.1880118739107656e-07 1.89714386557004e-07 -9.197658300708429e-08 1.89714386557004e-07 -4.1263546128100643e-07 -9.008624111165874e-07 -9.197658300708429e-08 -9.008624111165874e-07 -8.471624958873132e-07" pbc="T T T"
Cs       1.41547140       2.58252215       0.53800255        0      -0.00006034      -0.00005086       0.00012729
Cs      21.33430768       2.61516102      15.67232560        1      -0.00028564       0.00014964      -0.00015745
K        4.39566998      -0.74519862       5.87321020        2       0.00034372       0.00011224      -0.00023838
In      14.53688020      -1.40655060       4.23446390        3      -0.00006853       0.00011517      -0.00011337
I       13.02654475       0.71858280       5.74048124        4       0.00046247       0.00007467      -0.00043002
I        9.71068008       4.47788350      10.48205861        5       0.00032512       0.00024694      -0.00036140
I       22.74979468      -0.65219366      14.07954236        6      -0.00023922      -0.00025523      -0.00011552
I        0.00306948       5.84527455       2.14230726        7      -0.00032210       0.00015998      -0.00022431
I       12.54200914       6.72915107       5.90449408        8      -0.00005858       0.00000125       0.00030643
I       10.20339384      -1.52055912      10.31915714        9      -0.00069867      -0.00043084      -0.00023368
Cs       7.79313218       1.26813327      11.59496787       10       0.00026685       0.00001892      -0.00007797
Cs      27.71530865       1.30351561      26.72492413       11       0.00042115       0.00031576      -0.00004153
K       10.78130535      -2.05542352      16.91666164       12      -0.00024405      -0.00023003      -0.00010148
In      20.92022953      -2.72302400      15.27561570       13       0.00041428       0.00023322      -0.00003644
I       19.41677450      -0.59465020      16.78346450       14      -0.00054519       0.00031932       0.00020215
I       16.10496828       3.16790112      21.52277604       15      -0.00027672      -0.00040590      -0.00010683
I       29.12876407      -1.95849128      25.12089681       16      -0.00007830      -0.00020261       0.00024843
I        6.37821590       4.53553678      13.18666517       17       0.00018254       0.00004060      -0.00027578
I       18.92862792       5.40966381      16.94338117       18      -0.00029991       0.00013477       0.00058781
I       16.58620979      -2.84596857      21.36013897       19       0.00034704       0.00035506       0.00000745
Cs      -2.40887746      11.02794076      -0.16272103       20      -0.00049295       0.00048232       0.00036875
Cs      17.51215494      11.06506856      14.96783952       21      -0.00018910      -0.00003736       0.00033767
K       18.35059893       5.94368298      10.34618517       22      -0.00006292      -0.00034863       0.00000963
In      10.71193522       7.03962824       3.53416404       23      -0.00009177      -0.00050609      -0.00002155
I        9.20188213       9.16456489       5.04036018       24      -0.00001886       0.00015215       0.00013843
I        5.88801035      12.92748300       9.78028787       25       0.00024655       0.00020151       0.00020069
I       18.92768467       7.79762821      13.37638749       26      -0.00016024       0.00017727       0.00020926
I       -3.82272185      14.29080434       1.44296082       27       0.00005405       0.00000705      -0.00000392
I       16.36685431      -1.71640215       6.60505974       28      -0.00016324      -0.00029167      -0.00037636
I        6.37719253       6.92243523       9.61931801       29       0.00055479       0.00058483      -0.00035894
Cs       3.97119435       9.71735553      10.89150291       30       0.00025751      -0.00004332      -0.00013161
Cs      23.88998612       9.74992862      26.02598710       31       0.00034713       0.00010801      -0.00011350
K        6.95522287       6.38971610      16.21639126       32      -0.00000366       0.00013353       0.00032054
In      17.09892634       5.72675419      14.57328433       33       0.00024905      -0.00029416       0.00001947
I       15.59568671       7.85530175      16.08128129       34      -0.00044169      -0.00024543       0.00044971
I       12.27897668      11.61383985      20.82327726       35      -0.00070901       0.00018717       0.00013345
I       25.30344299       6.48731629      24.42058678       36       0.00023919       0.00037361       0.00006326
I        2.55551265      12.98517634      12.48460096       37       0.00021699      -0.00001720      -0.00016022
I       22.74965328      -3.04122438      17.64551910       38       0.00051173       0.00040661       0.00007460
I       12.76466586       5.60274660      20.65784724       39      -0.00003689      -0.00003189       0.00025730
Cs      10.30136393       1.70198079       3.12788838       40       0.00012471      -0.00013890       0.00016493
Cs      12.44613587       3.49921390      13.08517985       41      -0.00013357      -0.00026072      -0.00012110
K       13.28413746      -1.62332804       8.46165003       42       0.00036522       0.00015712      -0.00038494
In       5.64824841      -0.52869117       1.64566362       43      -0.00021828      -0.00021929       0.00028344
I        4.13834030       1.59695424       3.15169697       44       0.00026659      -0.00045576       0.00003212
I       18.60340002       3.59861252      13.06572119       45      -0.00043205       0.00001142       0.00039793
I       13.86103350       0.23215173      11.49195431       46       0.00009471      -0.00002090       0.00001871
I        8.88833104       4.96469926       4.73203685       47       0.00000229       0.00008930       0.00037762
I        3.65585384       7.60998963       3.31477034       48       0.00006983       0.00003312      -0.00025759
I       19.09122278      -2.40487233      12.90539731       49      -0.00053169      -0.00041178      -0.00003802
Cs      16.68501225       0.38882854      14.17793380       50       0.00010116       0.00017384      -0.00012175
Cs      18.82710523       2.18249830      24.13725285       51       0.00000634      -0.00009707      -0.00016175
K       19.66842257      -2.93891806      19.50311543       52      -0.00009209      -0.00008012       0.00019327
In      12.03252811      -1.83852959      12.68938257       53       0.00022947      -0.00008292      -0.00027226
I       10.52897722       0.28973911      14.19758103       54      -0.00020280      -0.00038510       0.00001581
I       24.98978533       2.28705650      24.11284180       55       0.00014654      -0.00001219      -0.00005053
I       20.23972292      -1.08068220      22.53263062       56       0.00028356       0.00010562      -0.00035057
I       15.27064739       3.65602609      15.77082534       57      -0.00003180      -0.00003409       0.00020006
I       10.03669268       6.28987271      14.35940041       58       0.00007668      -0.00000909      -0.00017568
I       25.47581226      -3.72249209      23.94844201       59      -0.00022092      -0.00013439      -0.00010231
Cs       6.47941711      10.15053685       2.42603199       60      -0.00039085      -0.00006848       0.00016700
Cs       8.62059028      11.94503935      12.38458804       61      -0.00005100      -0.00012112       0.00012445
K        9.45884277       6.82207358       7.76203752       62       0.00046909       0.00014974      -0.00045694
In       1.82632882       7.91991237       0.94360762       63      -0.00037290      -0.00012542       0.00033834
I        0.31642137      10.04544429       2.44947380       64      -0.00016083       0.00004866       0.00012863
I       14.77495658      12.04318004      12.36620916       65       0.00081227       0.00039097      -0.00010887
I       10.03537648       8.67741043      10.79212334       66      -0.00024180      -0.00037624       0.00008159
I        5.06520454      13.41288321       4.03092819       67       0.00030007       0.00046675       0.00001746
I        7.47819296      -0.83922287       4.01621776       68      -0.00001897      -0.00015535       0.00016983
I       15.26877687       6.04339675      12.20375481       69       0.00002959       0.00011811       0.00009037
Cs      12.85900414       8.83396399      13.47955686       70       0.00007577       0.00004897      -0.00021016
Cs      15.00420770      10.63060735      23.43468444       71       0.00029272       0.00024956       0.00010977
K       15.84811146       5.51080774      18.80132280       72      -0.00068857      -0.00039660      -0.00001953
In       8.20679380       6.60653591      11.98945123       73       0.00027451      -0.00001604      -0.00024925
I        6.70280757       8.73489506      13.49699369       74       0.00014168      -0.00012023      -0.00027377
I       21.16749424      10.73618830      23.41202136       75      -0.00016568      -0.00006901       0.00008576
I       16.41812407       7.36786912      21.83045844       76       0.00023382       0.00037717       0.00036043
I       11.44317993      12.10110991      15.07191072       77       0.00000972      -0.00001467      -0.00042576
I       13.86266313      -2.15534484      15.05893650       78      -0.00020199      -0.00035956       0.00007936
I       21.65045085       4.72307081      23.24828172       79      -0.00014316       0.00004434      -0.00003813
