20
Lattice="15.383843290679907 0.0 0.0 -0.19703033658152835 8.938830732332265 0.0 -2.1593938981761363 1.428801276770375 7.22099201993813" Properties=species:S:1:pos:R:3 pbc="T T T"
Cs       5.17134248       7.63783237      -0.00006983
Cs       7.80099314       4.65822212      -0.00006983
K       -1.07969695       0.71440064       3.61049601
In       2.73875350       1.67862356       0.00006388
I        4.27189585       4.30823812       1.44473458
I        6.54111350       9.41662928       5.77636349
I        3.02817348       2.82152460       5.77635636
I        7.98179336       1.96443504       1.44472745
I       -0.57739218       6.88092202       1.44468156
I        0.95968379       5.16535978       5.77633016
Cs      12.86326413       7.63783237      -0.00006983
Cs      15.49291479       4.65822212      -0.00006983
K        6.61222470       0.71440064       3.61049601
In      10.43067515       1.67862356       0.00006388
I       11.96381750       4.30823812       1.44473458
I       14.23303514       9.41662928       5.77636349
I       10.72009513       2.82152460       5.77635636
I       15.67371501       1.96443504       1.44472745
I        7.11452947       6.88092202       1.44468156
I        8.65160543       5.16535978       5.77633016
