20
Lattice="16.14700384622677 -1.265163771358539 0.36917802126207055 -0.9140981804502745 9.853823507365782 -0.27801695677095223 -2.137310916888755 1.5724825205573538 7.781937462585369" Properties=species:S:1:pos:R:3:spacegroup_kinds:I:1:forces:R:3 spacegroup="P 1" unit_cell=conventional occupancy="_JSON {\"0\": {\"Cs\": 1.0}, \"1\": {\"Cs\": 1.0}, \"2\": {\"K\": 1.0}, \"3\": {\"In\": 1.0}, \"4\": {\"I\": 1.0}, \"5\": {\"I\": 1.0}, \"6\": {\"I\": 1.0}, \"7\": {\"I\": 1.0}, \"8\": {\"I\": 1.0}, \"9\": {\"I\": 1.0}, \"10\": {\"Cs\": 1.0}, \"11\": {\"Cs\": 1.0}, \"12\": {\"K\": 1.0}, \"13\": {\"In\": 1.0}, \"14\": {\"I\": 1.0}, \"15\": {\"I\": 1.0}, \"16\": {\"I\": 1.0}, \"17\": {\"I\": 1.0}, \"18\": {\"I\": 1.0}, \"19\": {\"I\": 1.0}}" energy=-50.841570119556124 free_energy=-50.841570119556124 stress="-1.5383750060833852e-06 -1.5026315121198403e-06 4.0488925324469775e-06 -1.5026315121198403e-06 -1.5027341061432488e-06 -1.6063493632846452e-06 4.0488925324469775e-06 -1.6063493632846452e-06 1.0213892848471964e-07" pbc="T T T"
Cs       0.46071483       9.08220346       8.86422855        0       0.00031731      -0.00035530       0.00035377
Cs       5.67507589       4.74578537       5.32669469        1      -0.00011271       0.00050991      -0.00025167
K       -0.73435711       1.13546671       1.94921865        2      -0.00021280      -0.00013830      -0.00000725
In       3.28572108       2.23795071       0.10066284        3      -0.00039123       0.00004601      -0.00029108
I        3.91891506       1.67874815       2.82236133        4      -0.00010139      -0.00006191      -0.00005686
I        6.42389286      11.23907435       6.64832311        5       0.00042277      -0.00000132      -0.00012029
I        3.31417693       2.05881994       6.95420594        6      -0.00002080       0.00016701       0.00027102
I        9.07285725       3.37021101       1.29245745        7      -0.00005130      -0.00012114      -0.00026421
I       -1.77960775       7.70738489       2.30695252        8       0.00051790       0.00001241       0.00014252
I        2.01883212       6.03447759       6.37063773        9       0.00056829       0.00001052      -0.00036753
Cs       8.53535784       8.44883863       9.04950818       10      -0.00056342       0.00049540      -0.00030016
Cs      -2.39857521       5.37888556       5.14178846       11       0.00008191      -0.00035292       0.00023278
K        7.33885258       0.50253855       2.13390257       12       0.00044183       0.00000930      -0.00009458
In      11.35884800       1.60560858       0.28501598       13       0.00011959      -0.00018781      -0.00003560
I       11.99208527       1.04638238       3.00665616       14       0.00030850      -0.00021367       0.00046092
I       -1.64904630      11.87132790       6.46376132       15      -0.00054658       0.00010869      -0.00002166
I       11.38756715       1.42646790       7.13916708       16       0.00009657      -0.00011593      -0.00037170
I        0.99919187       4.00263126       1.10759611       17       0.00027269       0.00009302       0.00026744
I        6.29508453       7.07449266       2.49207927       18      -0.00055150       0.00014163       0.00003594
I       10.09282018       5.40170323       6.55463955       19      -0.00059562      -0.00004560       0.00041821
