160
Lattice="14.706460438663918 0.0 0.0 0.0 15.248658647179452 0.0 0.0 4.101201348020476 23.661843258430356" Properties=species:S:1:pos:R:3 pbc="T T T"
Cs       4.26036964       7.84356860       2.95773039
Cs       0.98572248       4.03165698       2.95773039
Cs       4.66231506       2.43135505       8.87319121
Cs       7.93700728       6.24377275       8.87319121
Pb       0.78470953       0.30018278      -0.00000002
Pb       4.46133819       4.11221715      -0.00000711
Pb       0.78470953       1.32548311       5.91546081
Pb       4.46133819       5.13751749       5.91546790
I        2.20767880       5.71371425       0.49158831
I        3.03839478       1.90152928       0.49182728
I        7.51511155       0.88480278       2.95773039
I        6.71500814       4.56147248      11.33905037
I        5.88429566       8.37361683      11.33928934
I        5.08413321       4.69670836       2.95773039
I        2.20767880       6.56855594       5.42387248
I        3.03839478       2.75637097       5.42363351
I        1.40751227       9.39063341       8.87319121
I        6.71500814       3.70663078       6.40733205
I        5.88429566       7.51877514       6.40709308
I        3.83850227       5.57820967       8.87319121
Cs       4.26036964       9.89416928      14.78865202
Cs       0.98572248       6.08225766      14.78865202
Cs       4.66231506       4.48195572      20.70411284
Cs       7.93700728       8.29437343      20.70411284
Pb       0.78470953       2.35078345      11.83092160
Pb       4.46133819       6.16281782      11.83091451
Pb       0.78470953       3.37608379      17.74638244
Pb       4.46133819       7.18811816      17.74638953
I        2.20767880       7.76431493      12.32250994
I        3.03839478       3.95212995      12.32274891
I        7.51511155       2.93540345      14.78865202
I        6.71500814       6.61207315      23.16997199
I        5.88429566      10.42421750      23.17021096
I        5.08413321       6.74730904      14.78865202
I        2.20767880       8.61915662      17.25479411
I        3.03839478       4.80697165      17.25455514
I        1.40751227      11.44123408      20.70411284
I        6.71500814       5.75723146      18.23825368
I        5.88429566       9.56937581      18.23801471
I        3.83850227       7.62881035      20.70411284
Cs       4.26036964      15.46789793       2.95773039
Cs       0.98572248      11.65598631       2.95773039
Cs       4.66231506      10.05568437       8.87319121
Cs       7.93700728      13.86810208       8.87319121
Pb       0.78470953       7.92451210      -0.00000002
Pb       4.46133819      11.73654647      -0.00000711
Pb       0.78470953       8.94981244       5.91546081
Pb       4.46133819      12.76184681       5.91546790
I        2.20767880      13.33804358       0.49158831
I        3.03839478       9.52585860       0.49182728
I        7.51511155       8.50913210       2.95773039
I        6.71500814      12.18580180      11.33905037
I        5.88429566      15.99794615      11.33928934
I        5.08413321      12.32103769       2.95773039
I        2.20767880      14.19288527       5.42387248
I        3.03839478      10.38070030       5.42363351
I        1.40751227      17.01496273       8.87319121
I        6.71500814      11.33096011       6.40733205
I        5.88429566      15.14310446       6.40709308
I        3.83850227      13.20253899       8.87319121
Cs       4.26036964      17.51849860      14.78865202
Cs       0.98572248      13.70658698      14.78865202
Cs       4.66231506      12.10628505      20.70411284
Cs       7.93700728      15.91870275      20.70411284
Pb       0.78470953       9.97511277      11.83092160
Pb       4.46133819      13.78714715      11.83091451
Pb       0.78470953      11.00041311      17.74638244
Pb       4.46133819      14.81244748      17.74638953
I        2.20767880      15.38864425      12.32250994
I        3.03839478      11.57645928      12.32274891
I        7.51511155      10.55973278      14.78865202
I        6.71500814      14.23640247      23.16997199
I        5.88429566      18.04854682      23.17021096
I        5.08413321      14.37163836      14.78865202
I        2.20767880      16.24348594      17.25479411
I        3.03839478      12.43130097      17.25455514
I        1.40751227      19.06556341      20.70411284
I        6.71500814      13.38156078      18.23825368
I        5.88429566      17.19370513      18.23801471
I        3.83850227      15.25313967      20.70411284
Cs      11.61359986       7.84356860       2.95773039
Cs       8.33895270       4.03165698       2.95773039
Cs      12.01554527       2.43135505       8.87319121
Cs      15.29023750       6.24377275       8.87319121
Pb       8.13793975       0.30018278      -0.00000002
Pb      11.81456841       4.11221715      -0.00000711
Pb       8.13793975       1.32548311       5.91546081
Pb      11.81456841       5.13751749       5.91546790
I        9.56090902       5.71371425       0.49158831
I       10.39162500       1.90152928       0.49182728
I       14.86834176       0.88480278       2.95773039
I       14.06823836       4.56147248      11.33905037
I       13.23752588       8.37361683      11.33928934
I       12.43736343       4.69670836       2.95773039
I        9.56090902       6.56855594       5.42387248
I       10.39162500       2.75637097       5.42363351
I        8.76074249       9.39063341       8.87319121
I       14.06823836       3.70663078       6.40733205
I       13.23752588       7.51877514       6.40709308
I       11.19173249       5.57820967       8.87319121
Cs      11.61359986       9.89416928      14.78865202
Cs       8.33895270       6.08225766      14.78865202
Cs      12.01554527       4.48195572      20.70411284
Cs      15.29023750       8.29437343      20.70411284
Pb       8.13793975       2.35078345      11.83092160
Pb      11.81456841       6.16281782      11.83091451
Pb       8.13793975       3.37608379      17.74638244
Pb      11.81456841       7.18811816      17.74638953
I        9.56090902       7.76431493      12.32250994
I       10.39162500       3.95212995      12.32274891
I       14.86834176       2.93540345      14.78865202
I       14.06823836       6.61207315      23.16997199
I       13.23752588      10.42421750      23.17021096
I       12.43736343       6.74730904      14.78865202
I        9.56090902       8.61915662      17.25479411
I       10.39162500       4.80697165      17.25455514
I        8.76074249      11.44123408      20.70411284
I       14.06823836       5.75723146      18.23825368
I       13.23752588       9.56937581      18.23801471
I       11.19173249       7.62881035      20.70411284
Cs      11.61359986      15.46789793       2.95773039
Cs       8.33895270      11.65598631       2.95773039
Cs      12.01554527      10.05568437       8.87319121
Cs      15.29023750      13.86810208       8.87319121
Pb       8.13793975       7.92451210      -0.00000002
Pb      11.81456841      11.73654647      -0.00000711
Pb       8.13793975       8.94981244       5.91546081
Pb      11.81456841      12.76184681       5.91546790
I        9.56090902      13.33804358       0.49158831
I       10.39162500       9.52585860       0.49182728
I       14.86834176       8.50913210       2.95773039
I       14.06823836      12.18580180      11.33905037
I       13.23752588      15.99794615      11.33928934
I       12.43736343      12.32103769       2.95773039
I        9.56090902      14.19288527       5.42387248
I       10.39162500      10.38070030       5.42363351
I        8.76074249      17.01496273       8.87319121
I       14.06823836      11.33096011       6.40733205
I       13.23752588      15.14310446       6.40709308
I       11.19173249      13.20253899       8.87319121
Cs      11.61359986      17.51849860      14.78865202
Cs       8.33895270      13.70658698      14.78865202
Cs      12.01554527      12.10628505      20.70411284
Cs      15.29023750      15.91870275      20.70411284
Pb       8.13793975       9.97511277      11.83092160
Pb      11.81456841      13.78714715      11.83091451
Pb       8.13793975      11.00041311      17.74638244
Pb      11.81456841      14.81244748      17.74638953
I        9.56090902      15.38864425      12.32250994
I       10.39162500      11.57645928      12.32274891
I       14.86834176      10.55973278      14.78865202
I       14.06823836      14.23640247      23.16997199
I       13.23752588      18.04854682      23.17021096
I       12.43736343      14.37163836      14.78865202
I        9.56090902      16.24348594      17.25479411
I       10.39162500      12.43130097      17.25455514
I        8.76074249      19.06556341      20.70411284
I       14.06823836      13.38156078      18.23825368
I       13.23752588      17.19370513      18.23801471
I       11.19173249      15.25313967      20.70411284
