20
Lattice="23.366282019883762 -0.04763647890058354 5.362475603361534 1.5918872724242694 10.497314798897955 1.1422834431643658 6.534607820085697 5.812848558314246 6.126848440893781" Properties=species:S:1:pos:R:3:spacegroup_kinds:I:1:forces:R:3 spacegroup="P 1" unit_cell=conventional occupancy="_JSON {\"0\": {\"Cs\": 1.0}, \"1\": {\"Cs\": 1.0}, \"2\": {\"K\": 1.0}, \"3\": {\"In\": 1.0}, \"4\": {\"I\": 1.0}, \"5\": {\"I\": 1.0}, \"6\": {\"I\": 1.0}, \"7\": {\"I\": 1.0}, \"8\": {\"I\": 1.0}, \"9\": {\"I\": 1.0}, \"10\": {\"Cs\": 1.0}, \"11\": {\"Cs\": 1.0}, \"12\": {\"K\": 1.0}, \"13\": {\"In\": 1.0}, \"14\": {\"I\": 1.0}, \"15\": {\"I\": 1.0}, \"16\": {\"I\": 1.0}, \"17\": {\"I\": 1.0}, \"18\": {\"I\": 1.0}, \"19\": {\"I\": 1.0}}" energy=-51.44014501612929 free_energy=-51.44014501612929 stress="-4.1076617881247456e-07 -6.227659464505802e-07 -4.6392675969053185e-07 -6.227659464505802e-07 -4.503934038401987e-08 1.1609738059639157e-07 -4.6392675969053185e-07 1.1609738059639157e-07 -1.6986963464736399e-06" pbc="T T T"
Cs       3.51378751       5.86242848       2.02348105        0      -0.00000787      -0.00025685       0.00016234
Cs      16.29482978      10.42391861       7.92562324        1       0.00018620       0.00004067       0.00004550
K        9.90465346       8.14284936       4.97399658        2      -0.00010075       0.00020331       0.00021215
In      23.36625312      -0.04729522       5.36252271        3      -0.00038974      -0.00031545      -0.00004230
I       19.20218098       8.33463363      10.22645959        4      -0.00003739       0.00033266      -0.00012676
I        0.60746434       7.95052558      -0.27380180        5      -0.00002037      -0.00007160      -0.00030501
I       15.42906113       6.75985194       8.94825258        6      -0.00054654       0.00003371       0.00000253
I        4.38082685       9.52683162       1.00248610        7       0.00004357       0.00001465       0.00003158
I       13.41032244      12.97345356       9.64481681        8       0.00009646       0.00054665       0.00006224
I        6.39876275       3.31049601       0.30456107        9       0.00004354       0.00003778       0.00006500
Cs      15.19787269       5.83800819       4.70621845       10       0.00007083       0.00024351      -0.00011430
Cs      27.97911121      10.40060871      10.60718331       11      -0.00006835       0.00008735       0.00017778
K       21.58808302       8.11951198       7.65778569       12       0.00026677      -0.00004698      -0.00034914
In      11.68307814      -0.02403901       2.68133222       13       0.00068228       0.00018779      -0.00043858
I       30.88518012       8.31265262      12.90536753       14      -0.00004355      -0.00032854       0.00008973
I       12.29049773       7.92761679       2.40524709       15       0.00008045      -0.00015212       0.00025897
I       27.11183349       6.73606325      11.62946084       16       0.00054062      -0.00001354      -0.00008377
I       16.06377155       9.50240890       3.68349031       17      -0.00004247       0.00002517      -0.00009774
I       25.09411049      12.95204501      12.32723866       18      -0.00046253      -0.00057684       0.00016230
I       18.08272805       3.28870664       2.98644792       19      -0.00029117       0.00000867       0.00028748
