5
Lattice="5.931030388622454 0.0 0.0 -2.2632430573476223 6.164632134023399 0.0 -2.048808975334667 1.2048457484625723 4.82988227407068" Properties=species:S:1:pos:R:3:oxi_states:R:1 pbc="T T T"
Cs       0.80965640       3.68457172       2.41494114       1.00000000
Pb      -0.00000000      -0.00000000       0.00000000       2.00000000
I       -2.69113219       2.26914742       2.41494232      -1.00000000
I        2.96551519       0.00000000      -0.00000000      -1.00000000
I       -1.13162153       3.08231607       0.00000000      -1.00000000
