5
Lattice="6.193249857443503 1.207301062365593 1.0743077958014673 -1.1644988180370512 6.2380734550965595 -0.9015954426631557 -1.211866632841706 0.6772649154612205 6.241432240510738" Properties=species:S:1:pos:R:3:spacegroup_kinds:I:1:forces:R:3 spacegroup="P 1" unit_cell=conventional occupancy="_JSON {\"0\": {\"Cs\": 1.0}, \"1\": {\"Pb\": 1.0}, \"2\": {\"I\": 1.0}, \"3\": {\"I\": 1.0}, \"4\": {\"I\": 1.0}}" energy=-13.984405862133132 free_energy=-13.984405862133132 stress="7.58969529353914e-06 -2.242626868423183e-06 1.618158627577129e-05 -2.242626868423183e-06 -6.590321930057123e-06 6.203403155353505e-06 1.618158627577129e-05 6.203403155353505e-06 -9.724519223072784e-06" pbc="T T T"
Cs       1.37619931       4.62417050       3.04384006        0       0.00049123       0.00028816       0.00001258
Pb      -0.28023939       0.29470995      -0.08599262        1       0.00001888      -0.00010237      -0.00018284
I        5.35081030       1.72541535       4.12954101        2      -0.00028650      -0.00034641      -0.00000682
I        2.86899178       0.76385203       0.47648159        3      -0.00007666      -0.00024472      -0.00015027
I       -0.72178195       3.39351059      -0.51019838        4      -0.00014696       0.00040534       0.00032736
