40
Lattice="18.362186965609354 -0.03022009185940011 0.008976078508530312 9.174246093309659 15.999523482915292 -0.044609923672928965 4.574312304987401 2.628978551466906 6.934210908308309" Properties=species:S:1:pos:R:3:spacegroup_kinds:I:1:forces:R:3 spacegroup="P 1" unit_cell=conventional occupancy="_JSON {\"0\": {\"Cs\": 1.0}, \"1\": {\"Cs\": 1.0}, \"2\": {\"K\": 1.0}, \"3\": {\"In\": 1.0}, \"4\": {\"I\": 1.0}, \"5\": {\"I\": 1.0}, \"6\": {\"I\": 1.0}, \"7\": {\"I\": 1.0}, \"8\": {\"I\": 1.0}, \"9\": {\"I\": 1.0}, \"10\": {\"Cs\": 1.0}, \"11\": {\"Cs\": 1.0}, \"12\": {\"K\": 1.0}, \"13\": {\"In\": 1.0}, \"14\": {\"I\": 1.0}, \"15\": {\"I\": 1.0}, \"16\": {\"I\": 1.0}, \"17\": {\"I\": 1.0}, \"18\": {\"I\": 1.0}, \"19\": {\"I\": 1.0}, \"20\": {\"Cs\": 1.0}, \"21\": {\"Cs\": 1.0}, \"22\": {\"K\": 1.0}, \"23\": {\"In\": 1.0}, \"24\": {\"I\": 1.0}, \"25\": {\"I\": 1.0}, \"26\": {\"I\": 1.0}, \"27\": {\"I\": 1.0}, \"28\": {\"I\": 1.0}, \"29\": {\"I\": 1.0}, \"30\": {\"Cs\": 1.0}, \"31\": {\"Cs\": 1.0}, \"32\": {\"K\": 1.0}, \"33\": {\"In\": 1.0}, \"34\": {\"I\": 1.0}, \"35\": {\"I\": 1.0}, \"36\": {\"I\": 1.0}, \"37\": {\"I\": 1.0}, \"38\": {\"I\": 1.0}, \"39\": {\"I\": 1.0}}" energy=-102.59578375938295 free_energy=-102.59578375938295 stress="-1.5489687494617162e-07 -6.035343408342305e-08 -4.655980121597481e-07 -6.035343408342305e-08 -1.4954803765148398e-06 8.490131583579948e-07 -4.655980121597481e-07 8.490131583579948e-07 3.4561421147055794e-07" pbc="T T T"
Cs       4.59888482       2.64103917       1.91954917        0      -0.00003701       0.00007980      -0.00035590
Cs      13.74384843       7.97219489       4.99860790        1      -0.00017530       0.00006141      -0.00042749
K        9.17134483       5.30708100       3.45783286        2      -0.00020276      -0.00029745       0.00023345
In      18.36222736      -0.03017047       0.00884094        3       0.00007628       0.00000150      -0.00017408
I        6.95824497       3.20839235       5.24857567        4       0.00021841       0.00023100      -0.00031856
I       11.38482963       7.40468954       1.66779018        5      -0.00024586       0.00031899       0.00031761
I        9.87356660       2.29414904       1.74341305        6      -0.00002386      -0.00028595       0.00026097
I        8.46919323       8.31984267       5.17215894        7      -0.00039734       0.00014372       0.00020267
I        6.24512938       6.19825160       1.67647200        8       0.00051798       0.00027177       0.00028119
I       12.09689993       4.41533494       5.23978853        9       0.00013220      -0.00018376      -0.00004654
Cs       9.18596867      10.64069043       1.89712649       10      -0.00008799       0.00001846      -0.00026709
Cs      18.33073603      15.97180776       4.97638094       11       0.00001641      -0.00002621      -0.00046687
K       13.75839347      13.30695473       3.43541814       12      -0.00017859      -0.00032125       0.00023502
In      22.94950582       7.96965625      -0.01341536       13      -0.00027460      -0.00007649      -0.00053031
I       11.54563166      11.20817194       5.22603893       14      -0.00053666       0.00028803       0.00043624
I       15.97171890      15.40468891       1.64549328       15       0.00008624       0.00004403      -0.00012724
I       14.46097609      10.29385248       1.72106313       16      -0.00047653       0.00014716       0.00015601
I       13.05587705      16.31982319       5.14971793       17      -0.00002279      -0.00024871       0.00022095
I       10.83244883      14.19801204       1.65415604       18       0.00002255      -0.00005529      -0.00001554
I       16.68357710      12.41460619       5.21748849       19       0.00035981       0.00059809      -0.00006125
Cs      13.77989827       2.62587305       1.92395816       20       0.00010132       0.00034524      -0.00037406
Cs      22.92462807       7.95714864       5.00312084       21       0.00034981       0.00010530      -0.00040973
K       18.35238834       5.29187944       3.46215909       22       0.00002346      -0.00012163       0.00043087
In       9.18114416      -0.01510527       0.00418599       23       0.00008255       0.00026740       0.00047550
I       16.13945159       3.19338862       5.25297051       24      -0.00009338       0.00005218      -0.00002631
I       20.56581124       7.38978554       1.67241154       25      -0.00025759       0.00010886      -0.00010385
I       19.05473340       2.27894869       1.74786959       26       0.00007228       0.00006967       0.00056439
I       17.64955739       8.30493496       5.17666576       27       0.00080601      -0.00049928       0.00007962
I       15.42662281       6.18356306       1.68119298       28      -0.00014721      -0.00030631      -0.00046507
I       21.27803876       4.40028571       5.24432186       29      -0.00007180      -0.00008875      -0.00008908
Cs      18.36683375      10.62567347       1.90175228       30       0.00032717       0.00004720      -0.00038451
Cs      27.51177498      15.95659834       4.98078782       31       0.00012416       0.00020386      -0.00043540
K       22.93940108      13.29181341       3.43980907       32       0.00008912      -0.00022092       0.00043345
In      13.76835716       7.98475715      -0.01814409       33      -0.00002710      -0.00020593       0.00063389
I       20.72659302      11.19327898       5.23063946       34      -0.00031733       0.00002654      -0.00017024
I       25.15294503      15.38953048       1.64998221       35      -0.00036114       0.00009762       0.00016880
I       23.64132962      10.27903193       1.72555821       36       0.00071232      -0.00028762       0.00026897
I       22.23711625      16.30458064       5.15416100       37      -0.00004899      -0.00005327       0.00033443
I       20.01354109      14.18297568       1.65876484       38      -0.00023237       0.00015512      -0.00029437
I       25.86505667      12.39992705       5.22204165       39       0.00009812      -0.00040414      -0.00019055
