40
Lattice="19.737897426115033 0.0 0.0 9.868948713140583 17.093520588259512 0.0 4.934474356650074 2.8489200981051837 8.05796310274311" Properties=species:S:1:pos:R:3 pbc="T T T"
Cs       4.93445610       2.84891462       2.01449103
Cs      14.80344126       8.54676562       6.04347197
K        9.86894878       5.69784018       4.02898158
In       0.00000010       0.00000015       0.00000006
I        7.40926358       3.91679930       5.87149269
I       12.32863402       7.47888097       2.18647042
I       10.23133929       2.90464306       1.87266802
I        9.50655809       8.49103716       6.18529506
I        7.22810377       7.22260259       1.87267184
I       12.50979394       4.17307813       6.18529146
Cs       9.86893046      11.39567492       2.01449103
Cs      19.73791562      17.09352591       6.04347197
K       14.80342314      14.24460047       4.02898158
In       4.93447445       8.54676045       0.00000006
I       12.34373793      12.46355959       5.87149269
I       17.26310838      16.02564126       2.18647042
I       15.16581365      11.45140336       1.87266802
I       14.44103245      17.03779745       6.18529506
I       12.16257813      15.76936288       1.87267184
I       17.44426830      12.71983842       6.18529146
Cs      14.80340482       2.84891462       2.01449103
Cs      24.67238997       8.54676562       6.04347197
K       19.73789750       5.69784018       4.02898158
In       9.86894881       0.00000015       0.00000006
I       17.27821229       3.91679930       5.87149269
I       22.19758273       7.47888097       2.18647042
I       20.10028800       2.90464306       1.87266802
I       19.37550681       8.49103716       6.18529506
I       17.09705248       7.22260259       1.87267184
I       22.37874266       4.17307813       6.18529146
Cs      19.73787917      11.39567492       2.01449103
Cs      29.60686433      17.09352591       6.04347197
K       24.67237185      14.24460047       4.02898158
In      14.80342317       8.54676045       0.00000006
I       22.21268665      12.46355959       5.87149269
I       27.13205709      16.02564126       2.18647042
I       25.03476236      11.45140336       1.87266802
I       24.30998116      17.03779745       6.18529506
I       22.03152684      15.76936288       1.87267184
I       27.31321701      12.71983842       6.18529146
