10
Lattice="7.292360730166442 0.0 0.0 4.7090010489498795 6.963767407486292 0.0 6.8709144331801255 4.015706894483305 4.322241238339639" Properties=species:S:1:pos:R:3 pbc="T T T"
Cs       4.71804614       2.74486162       1.08056128
Cs      14.15423000       8.23461249       3.24167985
K        9.43613818       5.48973712       2.16112059
In       0.00000009       0.00000017       0.00000006
I        8.28805871       4.38287978       2.92969075
I       10.58421765       6.59659434       1.39255041
I        8.74111937       2.86416940       1.01046920
I       10.13115672       8.11530467       3.31177192
I        6.90903879       6.27328327       0.99848504
I       11.96323772       4.70619140       3.32375636
