40
Lattice="18.33833560388066 0.001635719095375006 -0.01195664987276075 9.168058594406176 14.823216244990558 0.34963554110655226 4.5853386961204405 2.6365719942079973 7.568263041844863" Properties=species:S:1:pos:R:3:spacegroup_kinds:I:1:forces:R:3 spacegroup="P 1" unit_cell=conventional occupancy="_JSON {\"0\": {\"Cs\": 1.0}, \"1\": {\"Cs\": 1.0}, \"2\": {\"K\": 1.0}, \"3\": {\"In\": 1.0}, \"4\": {\"I\": 1.0}, \"5\": {\"I\": 1.0}, \"6\": {\"I\": 1.0}, \"7\": {\"I\": 1.0}, \"8\": {\"I\": 1.0}, \"9\": {\"I\": 1.0}, \"10\": {\"Cs\": 1.0}, \"11\": {\"Cs\": 1.0}, \"12\": {\"K\": 1.0}, \"13\": {\"In\": 1.0}, \"14\": {\"I\": 1.0}, \"15\": {\"I\": 1.0}, \"16\": {\"I\": 1.0}, \"17\": {\"I\": 1.0}, \"18\": {\"I\": 1.0}, \"19\": {\"I\": 1.0}, \"20\": {\"Cs\": 1.0}, \"21\": {\"Cs\": 1.0}, \"22\": {\"K\": 1.0}, \"23\": {\"In\": 1.0}, \"24\": {\"I\": 1.0}, \"25\": {\"I\": 1.0}, \"26\": {\"I\": 1.0}, \"27\": {\"I\": 1.0}, \"28\": {\"I\": 1.0}, \"29\": {\"I\": 1.0}, \"30\": {\"Cs\": 1.0}, \"31\": {\"Cs\": 1.0}, \"32\": {\"K\": 1.0}, \"33\": {\"In\": 1.0}, \"34\": {\"I\": 1.0}, \"35\": {\"I\": 1.0}, \"36\": {\"I\": 1.0}, \"37\": {\"I\": 1.0}, \"38\": {\"I\": 1.0}, \"39\": {\"I\": 1.0}}" energy=-102.59573767519556 free_energy=-102.59573767519556 stress="-1.2272237214333554e-05 2.737084710459353e-06 1.0706679924675453e-05 2.737084710459353e-06 -1.5197457402371105e-07 -2.9023333681359574e-07 1.0706679924675453e-05 -2.9023333681359574e-07 1.3399218164020212e-05" pbc="T T T"
Cs       4.60460181       2.68792206       1.86170049        0      -0.00001737      -0.00011651      -0.00012713
Cs      13.73383059       7.36121658       5.87575952        1      -0.00008265      -0.00002970      -0.00018807
K        9.16925408       5.02440176       3.86857708        2       0.00006443      -0.00005694      -0.00000148
In      18.33831857       0.00157100      -0.01198292        3       0.00021521      -0.00003753       0.00017629
I        6.25017051       3.62765825       5.30216828        4       0.00021409       0.00020505      -0.00003494
I       12.08845495       6.42102906       2.43487630        5      -0.00008070       0.00017219       0.00004317
I        9.86689523       2.41212809       1.58605217        6       0.00012120       0.00033758       0.00046339
I        8.47178285       7.63691332       6.15034555        7      -0.00013591       0.00027674       0.00039030
I        6.96096008       6.01237526       1.29022038        8       0.00026416      -0.00027613       0.00016186
I       11.37742083       4.03676604       6.44705902        9       0.00022760       0.00004134      -0.00007049
Cs       9.18856594      10.09950865       2.03655655       10       0.00009454      -0.00002063      -0.00015441
Cs      18.31788055      14.77273672       6.05051851       11      -0.00009322       0.00007028      -0.00006693
K       13.75326875      12.43597595       4.04338427       12       0.00008518       0.00004244      -0.00008731
In      22.92251302       7.41317600       0.16290521       13      -0.00083537       0.00001341      -0.00025530
I       10.83423006      11.03927271       5.47696413       14       0.00012565       0.00017607       0.00000868
I       16.67247221      13.83273600       2.60976109       15      -0.00001792       0.00007976      -0.00008970
I       14.45096884       9.82385627       1.76090388       16      -0.00004159      -0.00021887       0.00021933
I       13.05580061      15.04853466       6.32514884       17      -0.00017938       0.00012016       0.00035470
I       11.54505528      13.42392815       1.46508116       18      -0.00022076      -0.00001988      -0.00012114
I       15.96145659      11.44841191       6.62183287       19       0.00016613      -0.00002965       0.00002204
Cs      13.77374832       2.68877840       1.85571521       20       0.00009779      -0.00007973      -0.00007325
Cs      22.90295205       7.36211511       5.86978011       21       0.00009882      -0.00003445      -0.00008255
K       18.33838723       5.02517005       3.86249671       22       0.00015107       0.00009998       0.00013192
In       9.16925682       0.00086066      -0.00605624       23      -0.00061561      -0.00022961       0.00009240
I       15.41955159       3.62845506       5.29619487       24      -0.00002056       0.00017624      -0.00010557
I       21.25752619       6.42188243       2.42903827       25       0.00029074       0.00017026      -0.00036613
I       19.03608382       2.41316316       1.58015894       26       0.00002228      -0.00039858       0.00012831
I       17.64077519       7.63780750       6.14465947       27      -0.00004128      -0.00015900      -0.00026176
I       16.13010898       6.01297890       1.28423476       28      -0.00016715       0.00013448      -0.00005644
I       20.54674988       4.03749529       6.44119970       29      -0.00038386       0.00020716      -0.00026844
Cs      18.35777142      10.10033701       2.03052295       30       0.00007743      -0.00004579      -0.00008244
Cs      27.48692350      14.77371288       6.04468046       31       0.00012027      -0.00005506      -0.00021540
K       22.92242738      12.43675555       4.03729062       32       0.00014751       0.00019268       0.00020147
In      13.75315219       7.41245113       0.16871884       33       0.00015332      -0.00003877       0.00031479
I       20.00360529      11.04014963       5.47104366       34      -0.00016437      -0.00001365       0.00000551
I       25.84160614      13.83351254       2.60380279       35       0.00010012       0.00002844      -0.00011293
I       23.62011942       9.82473414       1.75494968       36       0.00001305      -0.00018904       0.00026200
I       22.22480265      15.04951471       6.31947173       37      -0.00003979      -0.00032967      -0.00026960
I       20.71411045      13.42465529       1.45899735       38       0.00020999      -0.00013692       0.00020791
I       25.13069596      11.44910222       6.61598561       39       0.00007692      -0.00002817      -0.00009269
