40
Lattice="19.861447723840993 0.0 0.0 2.8420211585625252 18.769209932012686 0.0 6.15586015406555 4.406912325997217 7.327578796822131" Properties=species:S:1:pos:R:3 pbc="T T T"
Cs       4.37677632       3.44784258       1.83191864
Cs      13.13081807      10.34367372       5.49565951
K        8.75379716       6.89575805       3.66378899
In       0.00000022       0.00000067       0.00000028
I        8.56878202       3.85894527       3.72882571
I        8.93881226       9.93257031       3.59875230
I       12.23154333       4.05667765       2.65182093
I        5.27604910       9.73483812       4.67575656
I        5.26725871       7.37499801       0.75385049
I       12.24033618       6.41652132       6.57372953
Cs       5.79778690      12.83244755       1.83191864
Cs      14.55182865      19.72827869       5.49565951
K       10.17480774      16.28036301       3.66378899
In       1.42101080       9.38460564       0.00000028
I        9.98979260      13.24355023       3.72882571
I       10.35982284      19.31717528       3.59875230
I       13.65255391      13.44128262       2.65182093
I        6.69705968      19.11944308       4.67575656
I        6.68826929      16.75960298       0.75385049
I       13.66134675      15.80112628       6.57372953
Cs      14.30750018       3.44784258       1.83191864
Cs      23.06154193      10.34367372       5.49565951
K       18.68452102       6.89575805       3.66378899
In       9.93072408       0.00000067       0.00000028
I       18.49950588       3.85894527       3.72882571
I       18.86953612       9.93257031       3.59875230
I       22.16226719       4.05667765       2.65182093
I       15.20677296       9.73483812       4.67575656
I       15.19798258       7.37499801       0.75385049
I       22.17106004       6.41652132       6.57372953
Cs      15.72851076      12.83244755       1.83191864
Cs      24.48255251      19.72827869       5.49565951
K       20.10553160      16.28036301       3.66378899
In      11.35173466       9.38460564       0.00000028
I       19.92051646      13.24355023       3.72882571
I       20.29054670      19.31717528       3.59875230
I       23.58327777      13.44128262       2.65182093
I       16.62778354      19.11944308       4.67575656
I       16.61899316      16.75960298       0.75385049
I       23.59207062      15.80112628       6.57372953
