40
Lattice="17.80299193172325 4.03381110308361 -2.629284578638374 5.449745857906148 17.581005772662003 -1.636349200341844 4.85930252148702 3.979773534094776 6.148761768719536" Properties=species:S:1:pos:R:3:spacegroup_kinds:I:1:forces:R:3 spacegroup="P 1" unit_cell=conventional occupancy="_JSON {\"0\": {\"Cs\": 1.0}, \"1\": {\"Cs\": 1.0}, \"2\": {\"K\": 1.0}, \"3\": {\"In\": 1.0}, \"4\": {\"I\": 1.0}, \"5\": {\"I\": 1.0}, \"6\": {\"I\": 1.0}, \"7\": {\"I\": 1.0}, \"8\": {\"I\": 1.0}, \"9\": {\"I\": 1.0}, \"10\": {\"Cs\": 1.0}, \"11\": {\"Cs\": 1.0}, \"12\": {\"K\": 1.0}, \"13\": {\"In\": 1.0}, \"14\": {\"I\": 1.0}, \"15\": {\"I\": 1.0}, \"16\": {\"I\": 1.0}, \"17\": {\"I\": 1.0}, \"18\": {\"I\": 1.0}, \"19\": {\"I\": 1.0}, \"20\": {\"Cs\": 1.0}, \"21\": {\"Cs\": 1.0}, \"22\": {\"K\": 1.0}, \"23\": {\"In\": 1.0}, \"24\": {\"I\": 1.0}, \"25\": {\"I\": 1.0}, \"26\": {\"I\": 1.0}, \"27\": {\"I\": 1.0}, \"28\": {\"I\": 1.0}, \"29\": {\"I\": 1.0}, \"30\": {\"Cs\": 1.0}, \"31\": {\"Cs\": 1.0}, \"32\": {\"K\": 1.0}, \"33\": {\"In\": 1.0}, \"34\": {\"I\": 1.0}, \"35\": {\"I\": 1.0}, \"36\": {\"I\": 1.0}, \"37\": {\"I\": 1.0}, \"38\": {\"I\": 1.0}, \"39\": {\"I\": 1.0}}" energy=-102.59578131385146 free_energy=-102.59578131385146 stress="-6.397961081530113e-08 3.459871784286274e-07 3.453957872704842e-07 3.459871784286274e-07 -5.751694110117342e-08 -9.447428299992527e-07 3.453957872704842e-07 -9.447428299992527e-07 2.6114790198254575e-08" pbc="T T T"
Cs       4.14745373       3.72405875       1.19054828        0       0.00010268       0.00021211       0.00003131
Cs      12.33811593      11.06038647       2.82464529        1      -0.00014805       0.00066895       0.00042076
K        8.24267553       7.39328767       2.00813203        2      -0.00022398       0.00022771      -0.00051831
In      17.80246977       4.03395681      -2.62929886        3       0.00012788       0.00032591       0.00030010
I        6.76406800       4.93491596       4.07666439        4      -0.00061651       0.00000819      -0.00070987
I        9.72275099       9.85298140      -0.05885252        5      -0.00010403      -0.00045377      -0.00034673
I        9.32429717       4.54268369       0.20948441        6      -0.00047155      -0.00043013      -0.00014693
I        7.16212788      10.24440348       3.80611949        7      -0.00041046      -0.00020892      -0.00013392
I        4.98307096       7.51317303       0.64178010        8       0.00011905       0.00045242      -0.00006517
I       11.50159314       7.27225240       3.37538513        9      -0.00008036       0.00003169      -0.00004460
Cs       6.87244825      12.51658844       0.37242838       10       0.00016346      -0.00063621       0.00000350
Cs      15.06305569      19.85327494       2.00822758       11       0.00044784      -0.00052137      -0.00063263
K       10.96742130      16.18418725       1.18997268       12       0.00050925      -0.00030116       0.00019895
In      20.52813472      12.82397980      -3.44729878       13       0.00002860       0.00022309      -0.00033573
I        9.48883196      13.72528648       3.25787425       14       0.00035262      -0.00058115       0.00021149
I       12.44753220      18.64214915      -0.87777920       15      -0.00012348       0.00048894       0.00008084
I       12.04866792      13.33315232      -0.60788693       16       0.00045903       0.00062003       0.00014398
I        9.88655007      19.03498121       2.98803983       17       0.00003248       0.00048007       0.00040877
I        7.70800041      16.30509249      -0.17664808       18       0.00047071      -0.00025018      -0.00007667
I       14.22733783      16.06408401       2.55695747       19      -0.00069019       0.00031700      -0.00032219
Cs      13.04876042       5.74286725      -0.12362203       20       0.00010560      -0.00002553      -0.00019940
Cs      21.23927889      13.07942185       1.51164363       21       0.00033123      -0.00002742      -0.00029934
K       17.14444569       9.41064542       0.69333068       22      -0.00013872       0.00023976       0.00041191
In       8.90162235       2.01667728      -1.31483680       23       0.00041452      -0.00020115       0.00027711
I       15.66476094       6.95135997       2.76039572       24      -0.00015811       0.00026283       0.00012914
I       18.62344435      11.86912334      -1.37450138       25      -0.00007314       0.00027046      -0.00004507
I       18.22508883       6.55989544      -1.10498312       26       0.00001580       0.00032328      -0.00001356
I       16.06240356      12.26224224       2.49148868       27       0.00069432      -0.00036717       0.00002393
I       13.88605586       9.53151443      -0.67417163       28      -0.00080934      -0.00018112      -0.00044421
I       20.40326474       9.29012612       2.06017000       29       0.00064992      -0.00019172      -0.00012330
Cs      15.77343060      14.53195842      -0.94421910       30       0.00004503       0.00053084       0.00071529
Cs      23.96479534      21.86919149       0.69122284       31      -0.00040528       0.00000650       0.00069644
K       19.86927248      18.20076193      -0.12534627       32      -0.00000300       0.00022952      -0.00008754
In      11.62643939      10.80783838      -2.13266865       33      -0.00020508      -0.00028895      -0.00045291
I       18.39001594      15.74300640       1.94292666       34      -0.00036788      -0.00036315       0.00008047
I       21.34828120      20.66063098      -2.19222556       35      -0.00024906      -0.00044181      -0.00034203
I       20.95037254      15.34996063      -1.92326000       36       0.00017934      -0.00030112       0.00021790
I       18.78832229      21.05146395       1.67325951       37      -0.00034675      -0.00004752      -0.00015415
I       16.60995418      18.32138738      -1.49255440       38       0.00058393      -0.00019812       0.00078585
I       23.12882582      18.08010940       1.24155246       39      -0.00020834       0.00009836       0.00035653
