40
Lattice="18.495308433518304 -1.9181611285905509 0.26493896556918733 -7.585343076383768 16.98015111874912 -0.031153954853391726 -0.13188217313032888 -0.04138097220293697 8.827832830488914" Properties=species:S:1:pos:R:3:spacegroup_kinds:I:1:forces:R:3 spacegroup="P 1" unit_cell=conventional occupancy="_JSON {\"0\": {\"Cs\": 1.0}, \"1\": {\"Cs\": 1.0}, \"2\": {\"K\": 1.0}, \"3\": {\"In\": 1.0}, \"4\": {\"I\": 1.0}, \"5\": {\"I\": 1.0}, \"6\": {\"I\": 1.0}, \"7\": {\"I\": 1.0}, \"8\": {\"I\": 1.0}, \"9\": {\"I\": 1.0}, \"10\": {\"Cs\": 1.0}, \"11\": {\"Cs\": 1.0}, \"12\": {\"K\": 1.0}, \"13\": {\"In\": 1.0}, \"14\": {\"I\": 1.0}, \"15\": {\"I\": 1.0}, \"16\": {\"I\": 1.0}, \"17\": {\"I\": 1.0}, \"18\": {\"I\": 1.0}, \"19\": {\"I\": 1.0}, \"20\": {\"Cs\": 1.0}, \"21\": {\"Cs\": 1.0}, \"22\": {\"K\": 1.0}, \"23\": {\"In\": 1.0}, \"24\": {\"I\": 1.0}, \"25\": {\"I\": 1.0}, \"26\": {\"I\": 1.0}, \"27\": {\"I\": 1.0}, \"28\": {\"I\": 1.0}, \"29\": {\"I\": 1.0}, \"30\": {\"Cs\": 1.0}, \"31\": {\"Cs\": 1.0}, \"32\": {\"K\": 1.0}, \"33\": {\"In\": 1.0}, \"34\": {\"I\": 1.0}, \"35\": {\"I\": 1.0}, \"36\": {\"I\": 1.0}, \"37\": {\"I\": 1.0}, \"38\": {\"I\": 1.0}, \"39\": {\"I\": 1.0}}" energy=-103.17527015067624 free_energy=-103.17527015067624 stress="-4.693721600480326e-06 3.401553480439979e-06 -6.071386965944089e-07 3.401553480439979e-06 -7.476696320026123e-07 2.1734239277174457e-06 -6.071386965944089e-07 2.1734239277174457e-06 6.9903320209352324e-09" pbc="T T T"
Cs       1.18639093       5.73162268       8.87223059        0       0.00011002      -0.00014579       0.00030802
Cs       5.53311294       2.58214432       8.92695280        1      -0.00010372       0.00014397      -0.00010252
K        0.69826049       0.41212619       4.42746747        2      -0.00006463      -0.00005191      -0.00019006
In       0.76412815       0.43282113       0.01340973        3      -0.00006935      -0.00015028       0.00001792
I        2.16688756       2.39963023       1.81027759        4       0.00000874       0.00030287      -0.00001429
I        4.68455259       5.95538395       7.16129412        5      -0.00002929       0.00000682      -0.00010432
I       -4.50175583      17.12980670       7.07887634        6       0.00024895       0.00020455      -0.00020267
I        7.56047380      -0.28463874       1.87706786        7      -0.00031980      -0.00006043       0.00022819
I       -2.05897166       6.68909031       1.76827182        8       0.00020231      -0.00027867       0.00009899
I       -0.33736786       2.62529159       7.07075894        9      -0.00008354       0.00001029      -0.00005091
Cs      -2.60628178      14.22170054       8.85665739       10       0.00011820      -0.00016227       0.00028810
Cs       1.74044114      11.07221976       8.91137458       11      -0.00010482       0.00014435      -0.00009640
K       -3.09441141       8.90220143       4.41189480       12      -0.00005975      -0.00004916      -0.00021466
In      -3.02854558       8.92289324      -0.00218915       13      -0.00004610      -0.00012704       0.00014102
I       -1.62578194      10.88970836       1.79470602       14      -0.00001225       0.00027776      -0.00004186
I        0.89187818      14.44545153       7.14570156       15       0.00001051       0.00008205      -0.00002092
I       -0.70908515       8.63973192       7.09445661       16       0.00025693       0.00020019      -0.00022012
I        3.76778856       8.20544267       1.86151035       17      -0.00020797      -0.00008337       0.00012642
I       12.64366439      13.26100640       2.01763134       18       0.00020799      -0.00029535       0.00011486
I       -4.13003872      11.11536572       7.05518401       19      -0.00008875       0.00002618      -0.00006566
Cs      10.43404451       4.77254254       9.00470029       20       0.00011424      -0.00014962       0.00030620
Cs      14.78076636       1.62306551       9.05942458       21      -0.00010073       0.00013185      -0.00011437
K        9.94591216      -0.54695211       4.55993373       22      -0.00004909      -0.00006522      -0.00017288
In      10.01176282      -0.52624053       0.14589377       23       0.00005400      -0.00026162      -0.00006330
I       11.41454201       1.44054750       1.94274325       24       0.00001105       0.00032067       0.00000548
I       13.93220572       4.99630004       7.29375687       25      -0.00001241       0.00003961      -0.00006711
I        4.74590576      16.17072317       7.21133660       26       0.00019301       0.00021527      -0.00015794
I       16.80812058      -1.24371629       2.00954666       27      -0.00026361      -0.00007121       0.00018319
I        7.18868393       5.73000795       1.90074567       28       0.00019303      -0.00026285       0.00007413
I        8.91028963       1.66620605       7.20323455       29      -0.00009906       0.00004083      -0.00007646
Cs       6.64137323      13.26261819       8.98912461       30       0.00011521      -0.00015009       0.00029988
Cs      10.98809599      10.11313877       9.04384382       31      -0.00010891       0.00014820      -0.00009442
K        6.15324366       7.94312009       4.54437188       32      -0.00006401      -0.00004363      -0.00025763
In       6.21911310       7.96380648       0.13024326       33      -0.00007880      -0.00008726       0.00034992
I        7.62187352       9.93063144       1.92718230       34      -0.00002979       0.00024393      -0.00007950
I       10.13953217      13.48637313       7.27817480       35       0.00000825       0.00006433      -0.00004046
I        8.53856367       7.68065340       7.22693329       36       0.00030383       0.00019257      -0.00025932
I       13.01544817       7.24636008       1.99397297       37      -0.00025531      -0.00007568       0.00016532
I        3.39601340      14.22008202       1.88516794       38       0.00019255      -0.00026488       0.00008949
I        5.11761651      10.15628402       7.18765738       39      -0.00009712       0.00004003      -0.00008937
