20
Lattice="18.479915143935774 -0.07283378178909211 -0.026185067841007076 4.592037114933622 7.422463702199184 0.1978048363781606 4.598959691197237 2.65358490427694 7.487895916157517" Properties=species:S:1:pos:R:3:spacegroup_kinds:I:1:forces:R:3 spacegroup="P 1" unit_cell=conventional occupancy="_JSON {\"0\": {\"Cs\": 1.0}, \"1\": {\"Cs\": 1.0}, \"2\": {\"K\": 1.0}, \"3\": {\"In\": 1.0}, \"4\": {\"I\": 1.0}, \"5\": {\"I\": 1.0}, \"6\": {\"I\": 1.0}, \"7\": {\"I\": 1.0}, \"8\": {\"I\": 1.0}, \"9\": {\"I\": 1.0}, \"10\": {\"Cs\": 1.0}, \"11\": {\"Cs\": 1.0}, \"12\": {\"K\": 1.0}, \"13\": {\"In\": 1.0}, \"14\": {\"I\": 1.0}, \"15\": {\"I\": 1.0}, \"16\": {\"I\": 1.0}, \"17\": {\"I\": 1.0}, \"18\": {\"I\": 1.0}, \"19\": {\"I\": 1.0}}" energy=-51.29788893084197 free_energy=-51.29788893084197 stress="4.924890349102043e-07 1.503436704071419e-07 2.0853492739950712e-07 1.503436704071419e-07 -4.4538994537054246e-07 2.4180335927213656e-07 2.0853492739950712e-07 2.4180335927213656e-07 -1.5613949485096103e-06" pbc="T T T"
Cs       4.58965557       2.68554796       1.85032241        0      -0.00011653       0.00048242      -0.00040572
Cs      13.84122253       7.35236091       5.82454289        1       0.00025857       0.00020098      -0.00068264
K        9.21612091       5.01924506       3.83549827        2      -0.00055583       0.00028929       0.00056351
In      18.47981666      -0.07284428      -0.02670541        3      -0.00008523       0.00009976       0.00031577
I        6.25267967       3.70832642       5.25401525        4       0.00030436      -0.00087502       0.00008498
I       12.17754975       6.33364513       2.41829915        5       0.00031869      -0.00055991       0.00023343
I        9.92859541       2.33940586       1.64236118        6      -0.00032076       0.00016175       0.00004591
I        8.50304632       7.70007016       6.02969756        7       0.00022997       0.00017925       0.00001934
I        6.98122548       6.00115160       1.27154136        8       0.00007213      -0.00005600      -0.00006075
I       11.44910703       4.03869071       6.40117079        9       0.00021396      -0.00014699      -0.00021703
Cs      13.82943638       2.64925789       1.83745269       10       0.00029981       0.00027679      -0.00078623
Cs      23.08143088       7.31580887       5.81125085       11      -0.00014523       0.00035693      -0.00053533
K       18.45599456       4.98285552       3.82253763       12      -0.00048441       0.00024337       0.00028770
In       9.23980970      -0.03643337      -0.01357992       13       0.00022166       0.00016313       0.00019911
I       15.49260591       3.67167722       5.24080097       14       0.00012014      -0.00041876       0.00026743
I       21.41764350       6.29732590       2.40522333       15       0.00009140      -0.00077796       0.00016937
I       19.16834222       2.30296366       1.62931023       16       0.00001200       0.00028116       0.00006989
I       17.74342651       7.66363947       6.01658034       17      -0.00060547       0.00021450       0.00003230
I       16.22113887       5.96482325       1.25833223       18       0.00030207      -0.00020464       0.00020136
I       20.68923155       4.00216252       6.38771049       19      -0.00013128       0.00008993       0.00019757
