40
Lattice="17.303348023218508 0.0 0.0 -10.850395875054033 18.793436937829366 0.0 -1.299921857548897 3.663708893017836 9.285234759000037" Properties=species:S:1:pos:R:3 pbc="T T T"
Cs       3.34959707       6.16329898       9.27647961
Cs      -0.04521523       5.63871637       0.00869861
K       -0.64996093       1.83185445       4.64261738
In       0.68892135      -0.62921119       0.00000865
I        6.81111800       0.11017399       1.85734049
I       -3.50674147      11.69182022       7.42788501
I        1.27984741       2.56443677       1.85735061
I        2.02455059       9.23758537       7.42789513
I        5.07385390       7.03306283       1.85734822
I       -1.76947065       4.76895658       7.42789274
Cs      -2.07560087      15.56001744       9.27647961
Cs      -5.47041316      15.03543483       0.00869861
K       -6.07515887      11.22857292       4.64261738
In      -4.73627659       8.76750728       0.00000865
I        1.38592006       9.50689246       1.85734049
I       -8.93193940      21.08853869       7.42788501
I       -4.14535052      11.96115524       1.85735061
I       -3.40064734      18.63430384       7.42789513
I       -0.35134404      16.42978130       1.85734822
I       -7.19466859      14.16567505       7.42789274
Cs      12.00127108       6.16329898       9.27647961
Cs       8.60645879       5.63871637       0.00869861
K        8.00171308       1.83185445       4.64261738
In       9.34059536      -0.62921119       0.00000865
I       15.46279201       0.11017399       1.85734049
I        5.14493254      11.69182022       7.42788501
I        9.93152143       2.56443677       1.85735061
I       10.67622461       9.23758537       7.42789513
I       13.72552791       7.03306283       1.85734822
I        6.88220336       4.76895658       7.42789274
Cs       6.57607315      15.56001744       9.27647961
Cs       3.18126085      15.03543483       0.00869861
K        2.57651515      11.22857292       4.64261738
In       3.91539742       8.76750728       0.00000865
I       10.03759407       9.50689246       1.85734049
I       -0.28026539      21.08853869       7.42788501
I        4.50632349      11.96115524       1.85735061
I        5.25102667      18.63430384       7.42789513
I        8.30032997      16.42978130       1.85734822
I        1.45700542      14.16567505       7.42789274
