10
Lattice="12.25201867446905 -2.6970597168423525 2.5588923841147104 1.350213708797784 6.248520000840014 -0.40444216196000926 -1.161380889757071 0.6557648698183511 6.254948927952393" Properties=species:S:1:pos:R:3:spacegroup_kinds:I:1:forces:R:3 spacegroup="P 1" unit_cell=conventional occupancy="_JSON {\"0\": {\"Cs\": 1.0}, \"1\": {\"Pb\": 1.0}, \"2\": {\"I\": 1.0}, \"3\": {\"I\": 1.0}, \"4\": {\"I\": 1.0}, \"5\": {\"Cs\": 1.0}, \"6\": {\"Pb\": 1.0}, \"7\": {\"I\": 1.0}, \"8\": {\"I\": 1.0}, \"9\": {\"I\": 1.0}}" energy=-27.96866214308771 free_energy=-27.96866214308771 stress="4.835160290206287e-07 -2.432254603697768e-09 -3.134026724067319e-07 -2.432254603697768e-09 8.73482963685416e-07 4.108579252671552e-07 -3.134026724067319e-07 4.108579252671552e-07 8.28054168814403e-07" pbc="T T T"
Cs       2.97877960       3.09084353       3.49849084        0      -0.00001092       0.00004755      -0.00010684
Pb       0.00314586      -0.00207323      -0.00013323        1      -0.00067828      -0.00004716       0.00012861
I       -0.53081085       0.23876590       3.14562028        2      -0.00058127      -0.00012243       0.00027216
I        3.06740778      -0.82864970       0.65651231        3       0.00038272       0.00028902      -0.00006856
I        0.79656929       3.05654509      -0.17050276        4       0.00081483      -0.00016386      -0.00022947
Cs       9.10481550       1.74228807       4.77797210        5       0.00001514       0.00004318      -0.00010163
Pb       6.12912096      -1.35041338       1.27923573        6      -0.00040902      -0.00046540       0.00034195
I        5.59519974      -1.10971232       4.42515716        7      -0.00060409      -0.00022017       0.00010841
I        9.19345487      -2.17719463       1.93597121        8       0.00018409       0.00030688      -0.00010314
I        6.92262358       1.70774440       1.10899530        9       0.00088679       0.00033240      -0.00024150
