40
Lattice="18.551106062667007 -0.0696499253946815 -1.3189177297658234 -9.393220658069978 15.934603354602793 -1.9073262733824652 0.6254745199996816 1.4073463976790677 8.69357407428367" Properties=species:S:1:pos:R:3:spacegroup_kinds:I:1:forces:R:3 spacegroup="P 1" unit_cell=conventional occupancy="_JSON {\"0\": {\"Cs\": 1.0}, \"1\": {\"Cs\": 1.0}, \"2\": {\"K\": 1.0}, \"3\": {\"In\": 1.0}, \"4\": {\"I\": 1.0}, \"5\": {\"I\": 1.0}, \"6\": {\"I\": 1.0}, \"7\": {\"I\": 1.0}, \"8\": {\"I\": 1.0}, \"9\": {\"I\": 1.0}, \"10\": {\"Cs\": 1.0}, \"11\": {\"Cs\": 1.0}, \"12\": {\"K\": 1.0}, \"13\": {\"In\": 1.0}, \"14\": {\"I\": 1.0}, \"15\": {\"I\": 1.0}, \"16\": {\"I\": 1.0}, \"17\": {\"I\": 1.0}, \"18\": {\"I\": 1.0}, \"19\": {\"I\": 1.0}, \"20\": {\"Cs\": 1.0}, \"21\": {\"Cs\": 1.0}, \"22\": {\"K\": 1.0}, \"23\": {\"In\": 1.0}, \"24\": {\"I\": 1.0}, \"25\": {\"I\": 1.0}, \"26\": {\"I\": 1.0}, \"27\": {\"I\": 1.0}, \"28\": {\"I\": 1.0}, \"29\": {\"I\": 1.0}, \"30\": {\"Cs\": 1.0}, \"31\": {\"Cs\": 1.0}, \"32\": {\"K\": 1.0}, \"33\": {\"In\": 1.0}, \"34\": {\"I\": 1.0}, \"35\": {\"I\": 1.0}, \"36\": {\"I\": 1.0}, \"37\": {\"I\": 1.0}, \"38\": {\"I\": 1.0}, \"39\": {\"I\": 1.0}}" energy=-103.17526759014687 free_energy=-103.17526759014687 stress="1.8124023600921123e-07 5.443183216274642e-06 2.030226000080348e-06 5.443183216274642e-06 -5.187714099206115e-07 -9.830226607105842e-07 2.030226000080348e-06 -9.830226607105842e-07 2.299776562093989e-06" pbc="T T T"
Cs       3.83178827       2.64674581      -0.69543904        0      -0.00008017       0.00000228      -0.00013118
Cs      -0.20075651       6.71889625       7.88468256        1      -0.00005701      -0.00009321       0.00007697
K       -0.47383758       0.71633012       4.40103756        2      -0.00011860       0.00011899       0.00017964
In      17.76434099      -0.05674299      -1.26463681        3      -0.00018253       0.00003650      -0.00003293
I       16.66173027       2.31660124       0.22417947        4       0.00007235       0.00002332      -0.00009936
I        5.52036419       6.97931911       5.64609812        5      -0.00015214       0.00006998       0.00010486
I        0.91853561       3.21569593       6.58575820        6       0.00005859       0.00010482      -0.00024075
I        2.71228783       6.14989844       0.60332989        7      -0.00000764      -0.00017572       0.00025867
I       -2.92648133       8.24776479       0.66769226        8       0.00027546      -0.00009268      -0.00005841
I        6.55734697       1.11773935       6.52135763        9      -0.00018283       0.00017780       0.00001359
Cs      -0.86481798      10.61403896      -1.64909037       10      -0.00011062       0.00006921      -0.00014917
Cs      -4.89737205      14.68620349       6.93101309       11       0.00000028      -0.00013020       0.00011523
K       13.38066076       8.61395950       2.12849481       12      -0.00014211       0.00017755       0.00007885
In      13.06776540       7.91051728      -2.21828062       13      -0.00039354       0.00029407      -0.00007509
I       11.96508699      10.28395645      -0.72947608       14       0.00021522      -0.00028296      -0.00021033
I        0.82377006      14.94660568       4.69242230       15      -0.00020558       0.00020020       0.00017789
I       -3.77804525      11.18305582       5.63199934       16      -0.00005011      -0.00010917       0.00006692
I       -1.98436960      14.11711551      -0.35021257       17       0.00022825       0.00024235      -0.00024396
I       -7.62312527      16.21505815      -0.28597024       18       0.00042260      -0.00003391      -0.00002155
I        1.86073753       9.08505023       5.56769057       19      -0.00016222       0.00012804       0.00003129
Cs      13.10734553       2.61192798      -1.35491091       20      -0.00010004      -0.00004764      -0.00008106
Cs       9.07478796       6.68404860       7.22524709       21      -0.00001514       0.00000715       0.00002652
K        8.80169998       0.68150208       3.74161390       22      -0.00004462       0.00005909       0.00002275
In       8.48868339      -0.02183331      -0.60525889       23       0.00041885      -0.00039769       0.00047838
I        7.38616919       2.35146491       0.88362538       24       0.00009391      -0.00013435      -0.00010176
I       14.79589535       6.94451701       4.98664637       25      -0.00002824      -0.00007032       0.00003139
I       10.19413100       3.18093896       5.92619592       26      -0.00006497      -0.00006184      -0.00001055
I       11.98781493       6.11502734      -0.05606602       27       0.00014834       0.00003189       0.00000481
I        6.34910323       8.21291941       0.00827850       28       0.00005184      -0.00006365      -0.00024150
I       15.83288432       1.08291020       5.86191345       29      -0.00005836       0.00016399      -0.00000860
Cs       8.41073734      10.57924979      -2.30857850       30      -0.00011391      -0.00010305      -0.00010021
Cs       4.37819019      14.65136627       6.27157091       31      -0.00006557      -0.00007572       0.00005075
K        4.10509221       8.64879166       2.78794000       32      -0.00002848       0.00017608       0.00013306
In       3.79206233       7.94535777      -1.55878935       33       0.00049503       0.00026612      -0.00029786
I        2.68955450      10.31875922      -0.07003492       34       0.00011143      -0.00011896      -0.00009105
I       10.09928639      14.91180108       4.03303583       35      -0.00005536      -0.00003397      -0.00013261
I        5.49751913      11.14824520       4.97252097       36      -0.00013507      -0.00020725       0.00019049
I        7.29125167      14.08241595      -1.00985551       37      -0.00000053      -0.00019841       0.00035559
I        1.65252027      16.18022366      -0.94538195       38      -0.00011242      -0.00006126      -0.00032215
I       11.13626373       9.05023763       4.90818078       39       0.00007568       0.00014255       0.00025244
