10
Lattice="14.296558798386089 0.8511287742929344 4.284915469144843 9.870495339323634 7.392878899433939 2.7175952808602055 2.5131087020772407 5.507226110161586 5.705606388299396" Properties=species:S:1:pos:R:3:spacegroup_kinds:I:1:forces:R:3 spacegroup="P 1" unit_cell=conventional occupancy="_JSON {\"0\": {\"Cs\": 1.0}, \"1\": {\"Cs\": 1.0}, \"2\": {\"K\": 1.0}, \"3\": {\"In\": 1.0}, \"4\": {\"I\": 1.0}, \"5\": {\"I\": 1.0}, \"6\": {\"I\": 1.0}, \"7\": {\"I\": 1.0}, \"8\": {\"I\": 1.0}, \"9\": {\"I\": 1.0}}" energy=-25.448528633715117 free_energy=-25.448528633715117 stress="1.4635357983664898e-07 5.700640166455696e-07 -7.450143012930951e-07 5.700640166455696e-07 -8.713707776777739e-07 -1.473303080013862e-06 -7.450143012930951e-07 -1.473303080013862e-06 -1.7716230275208288e-06" pbc="T T T"
Cs       6.40540681       3.26872589       3.54642969        0      -0.00000331       0.00041889       0.00011609
Cs      20.27414379      10.48170651       9.16142901        1       0.00015835       0.00054684      -0.00005416
K       13.34050419       6.87582617       6.35409652        2      -0.00028801       0.00004737      -0.00002435
In       0.00001402       0.00040958       0.00016101        3       0.00006333      -0.00086055      -0.00012175
I        9.60496598       6.98329867       5.73197903        4      -0.00007974       0.00042505       0.00015410
I       17.07561683       6.76721955       6.97616044        5      -0.00002840       0.00057652      -0.00005129
I       13.94354549       3.80600291       4.56110462        6       0.00027616      -0.00014236      -0.00023494
I       12.73620736       9.94577048       8.14715426        7       0.00003900      -0.00050785      -0.00000189
I       12.76095555       7.83126181       3.09359126        8       0.00005728      -0.00028083       0.00026449
I       13.91937334       5.92033085       9.61442151        9      -0.00019465      -0.00022309      -0.00004629
