10
Lattice="10.342988113561523 0.0 0.0 6.9047018703397 7.710899197620855 0.0 0.5318055362412922 6.268381645113494 4.583883039060758" Properties=species:S:1:pos:R:3 pbc="T T T"
Cs       4.44486154       3.49481601       1.14597279
Cs      13.33463394      10.48446471       3.43791018
K        8.88974781       6.98964045       2.29194152
In       0.00000010       0.00000011       0.00000003
I        4.54319275       6.42459766       3.31818172
I       13.23630292       7.55468318       1.26570131
I        9.96358529       3.34407694       1.15844620
I        7.81591018      10.63520388       3.42543676
I        7.87035119       7.29194598       0.97213760
I        9.90914453       6.68733525       3.61174562
