80
Lattice="22.519115693378783 1.798859572183778 -1.2291137319518155 -4.574013316502509 14.881658023800806 0.8949113805491387 1.0882685675642747 10.635873914103053 14.081364591499373" Properties=species:S:1:pos:R:3:spacegroup_kinds:I:1:forces:R:3 spacegroup="P 1" unit_cell=conventional occupancy="_JSON {\"0\": {\"Cs\": 1.0}, \"1\": {\"Cs\": 1.0}, \"2\": {\"K\": 1.0}, \"3\": {\"In\": 1.0}, \"4\": {\"I\": 1.0}, \"5\": {\"I\": 1.0}, \"6\": {\"I\": 1.0}, \"7\": {\"I\": 1.0}, \"8\": {\"I\": 1.0}, \"9\": {\"I\": 1.0}, \"10\": {\"Cs\": 1.0}, \"11\": {\"Cs\": 1.0}, \"12\": {\"K\": 1.0}, \"13\": {\"In\": 1.0}, \"14\": {\"I\": 1.0}, \"15\": {\"I\": 1.0}, \"16\": {\"I\": 1.0}, \"17\": {\"I\": 1.0}, \"18\": {\"I\": 1.0}, \"19\": {\"I\": 1.0}, \"20\": {\"Cs\": 1.0}, \"21\": {\"Cs\": 1.0}, \"22\": {\"K\": 1.0}, \"23\": {\"In\": 1.0}, \"24\": {\"I\": 1.0}, \"25\": {\"I\": 1.0}, \"26\": {\"I\": 1.0}, \"27\": {\"I\": 1.0}, \"28\": {\"I\": 1.0}, \"29\": {\"I\": 1.0}, \"30\": {\"Cs\": 1.0}, \"31\": {\"Cs\": 1.0}, \"32\": {\"K\": 1.0}, \"33\": {\"In\": 1.0}, \"34\": {\"I\": 1.0}, \"35\": {\"I\": 1.0}, \"36\": {\"I\": 1.0}, \"37\": {\"I\": 1.0}, \"38\": {\"I\": 1.0}, \"39\": {\"I\": 1.0}, \"40\": {\"Cs\": 1.0}, \"41\": {\"Cs\": 1.0}, \"42\": {\"K\": 1.0}, \"43\": {\"In\": 1.0}, \"44\": {\"I\": 1.0}, \"45\": {\"I\": 1.0}, \"46\": {\"I\": 1.0}, \"47\": {\"I\": 1.0}, \"48\": {\"I\": 1.0}, \"49\": {\"I\": 1.0}, \"50\": {\"Cs\": 1.0}, \"51\": {\"Cs\": 1.0}, \"52\": {\"K\": 1.0}, \"53\": {\"In\": 1.0}, \"54\": {\"I\": 1.0}, \"55\": {\"I\": 1.0}, \"56\": {\"I\": 1.0}, \"57\": {\"I\": 1.0}, \"58\": {\"I\": 1.0}, \"59\": {\"I\": 1.0}, \"60\": {\"Cs\": 1.0}, \"61\": {\"Cs\": 1.0}, \"62\": {\"K\": 1.0}, \"63\": {\"In\": 1.0}, \"64\": {\"I\": 1.0}, \"65\": {\"I\": 1.0}, \"66\": {\"I\": 1.0}, \"67\": {\"I\": 1.0}, \"68\": {\"I\": 1.0}, \"69\": {\"I\": 1.0}, \"70\": {\"Cs\": 1.0}, \"71\": {\"Cs\": 1.0}, \"72\": {\"K\": 1.0}, \"73\": {\"In\": 1.0}, \"74\": {\"I\": 1.0}, \"75\": {\"I\": 1.0}, \"76\": {\"I\": 1.0}, \"77\": {\"I\": 1.0}, \"78\": {\"I\": 1.0}, \"79\": {\"I\": 1.0}}" energy=-203.88075107603723 free_energy=-203.88075107603723 stress="4.951833855943525e-06 6.116639396520381e-06 -2.9774940786838895e-06 6.116639396520381e-06 4.721550476914765e-06 2.5912427051130984e-07 -2.9774940786838895e-06 2.5912427051130984e-07 1.205174847366956e-05" pbc="T T T"
Cs       4.03811512      15.37417977      12.49547907        0      -0.00002739      -0.00031450      -0.00008027
Cs       8.79711847      12.84894296      13.37263875        1       0.00012363      -0.00027466      -0.00001533
K        0.56624673       3.75518864       4.11613276        2      -0.00022880       0.00027181       0.00015779
In       1.79952017       0.80693458       0.42943838        3       0.00016767       0.00011749       0.00022474
I        3.27560299       2.77919787       1.87436476        4       0.00060601       0.00006179       0.00001306
I        6.97898242      11.25572395       6.02886389        5       0.00029279      -0.00006599       0.00009448
I        4.57226075       6.27153934       5.37753032        6       0.00065051      -0.00033888      -0.00025526
I       10.93535941       1.67496539       1.82918723        7       0.00000674      -0.00005160       0.00044808
I       -0.23755205       5.43954570       0.83074393        8      -0.00012960       0.00064409       0.00031648
I        0.60713796       7.11396025       5.44926292        9      -0.00041349       0.00013978       0.00010329
Cs       3.49447515      10.05705048       5.45335762       10      -0.00038311       0.00011695       0.00021943
Cs       8.25407606       7.53174325       6.33026049       11      -0.00059510      -0.00006988       0.00021907
K        1.11455701       9.07271193      11.15832703       12       0.00008333      -0.00000085      -0.00041416
In       2.34469349       6.12628228       7.46823442       13       0.00026106      -0.00010942      -0.00002727
I        3.82239492       8.09762112       8.91297696       14       0.00027526       0.00000393       0.00049483
I        7.52313339      16.57270658      13.07139974       15      -0.00005694      -0.00000333       0.00008123
I        5.11690471      11.58778365      12.42116781       16       0.00016261       0.00019183      -0.00010817
I       11.47970346       6.99308590       8.87075675       17       0.00053851      -0.00002873      -0.00022340
I       22.82765917      12.55698170       6.64494259       18      -0.00040470      -0.00031284       0.00011568
I        1.15229247      12.43128798      12.49043251       19      -0.00029546      -0.00023107       0.00003114
Cs       1.75102162      22.81542382      12.94332137       20      -0.00020015      -0.00048950      -0.00015049
Cs       6.51239376      20.29065481      13.81995552       21      -0.00037573      -0.00019771       0.00010376
K       -1.71818326      11.19429697       4.56555714       22       0.00040801      -0.00010361      -0.00031008
In      -0.48510512       8.24804881       0.87540714       23      -0.00013413      -0.00000095       0.00012453
I        0.99113111      10.22008193       2.32134578       24      -0.00083872      -0.00008506      -0.00049337
I        4.69083770      18.69571634       6.47799123       25       0.00036263       0.00030232      -0.00015090
I        2.28663701      13.71201370       5.82771995       26      -0.00019048       0.00016091      -0.00025141
I        8.65056741       9.11474189       2.27692298       27      -0.00024366       0.00024681       0.00023600
I       -2.52521589      12.88034762       1.28157042       28       0.00030432       0.00025639      -0.00051321
I       -1.67893160      14.55300237       5.89782800       29      -0.00034007       0.00058907      -0.00038496
Cs       1.20560596      17.49775521       5.90264735       30       0.00024676      -0.00026688      -0.00041920
Cs       5.96660920      14.97223032       6.77866077       31       0.00037474       0.00005964       0.00003842
K       -1.17618263      16.51399912      11.60341399       32       0.00022288       0.00047599       0.00027832
In       0.05819938      13.56614193       7.91757727       33       0.00042707      -0.00024939      -0.00001236
I        1.53392273      15.53882141       9.36243667       34      -0.00000994       0.00013456      -0.00003709
I        5.23596825      24.01364944      13.51826176       35       0.00033187       0.00044465      -0.00012680
I        2.83192318      19.02942883      12.86801200       36      -0.00016270       0.00028692      -0.00026919
I        9.19399648      14.43320332       9.31727443       37      -0.00009716       0.00005062      -0.00003713
I       20.53782448      19.99840012       7.08946516       38       0.00007467      -0.00036153       0.00051776
I       -1.13385287      19.87214676      12.93724642       39       0.00006342       0.00003894       0.00030518
Cs      15.29733014      16.27347356      11.87896955       40      -0.00005418       0.00043101       0.00031169
Cs      20.05672723      13.74828026      12.75451096       41       0.00002578       0.00024531       0.00032512
K       11.82758128       4.65433740       3.50317803       42       0.00001654      -0.00017148      -0.00018817
In      13.05939230       1.70741938      -0.18637754       43      -0.00001472       0.00010614      -0.00012803
I       14.53633238       3.67932381       1.25822429       44       0.00016656      -0.00020992      -0.00000971
I       18.23872254      12.15425090       5.41675661       45      -0.00028620      -0.00030251       0.00007281
I       15.83256942       7.16930333       4.76509594       46       0.00002131       0.00022219       0.00021109
I       22.19363369       2.57367277       1.21476919       47       0.00019996      -0.00009839       0.00020502
I       11.02410128       6.33961117       0.21833334       48      -0.00021231       0.00040341      -0.00042415
I       11.86783921       8.01303454       4.83560602       49      -0.00007369      -0.00031668       0.00013963
Cs      14.75385196      10.95508798       4.84034267       50       0.00017665       0.00024416      -0.00012634
Cs      19.51299129       8.43049144       5.71779362       51       0.00007961      -0.00029045      -0.00002550
K       12.37210600       9.97327485      10.54268564       52      -0.00040346      -0.00013136       0.00016598
In      13.60413053       7.02476181       6.85558005       53      -0.00001141       0.00010253      -0.00021810
I       15.08125537       8.99676633       8.29995655       54      -0.00000849      -0.00000793       0.00017214
I       18.78171803      17.47279988      12.45499567       55      -0.00021720      -0.00025723       0.00033074
I       16.37556588      12.48808436      11.80400911       56      -0.00027491      -0.00039609       0.00014988
I       22.74072109       7.89257988       8.25554436       57      -0.00021743      -0.00019236      -0.00009056
I       11.56617001      11.65744889       7.25769890       58       0.00015837      -0.00084869       0.00035832
I       12.41029391      13.33137076      11.87572051       59       0.00053570      -0.00020772       0.00031074
Cs      13.01024187      23.71461664      12.32855832       60       0.00008511       0.00027794      -0.00005139
Cs      17.77097986      21.18973689      13.20520934       61       0.00045986       0.00008059      -0.00009351
K        9.54162647      12.09550686       3.94890355       62      -0.00026950       0.00016274       0.00037995
In      10.77489171       9.14788772       0.26149944       63       0.00038503      -0.00020764       0.00040900
I       12.25100147      11.12002296       1.70721758       64      -0.00018042      -0.00006310      -0.00091527
I       15.95044824      19.59501211       5.86371941       65      -0.00008553       0.00004855      -0.00004546
I       13.54566298      14.61012433       5.21100607       66       0.00025049       0.00048705      -0.00021486
I       19.90949035      10.01402945       1.66163789       67      -0.00005288       0.00002785       0.00018039
I        8.73442789      13.78071048       0.66528321       68       0.00019028       0.00017323      -0.00025700
I        9.58077656      15.45399727       5.28235719       69      -0.00035420       0.00003139       0.00003604
Cs      12.46547850      18.39649620       5.28719795       70       0.00019127      -0.00012486      -0.00028648
Cs      17.22604124      15.87147888       6.16399939       71      -0.00009098      -0.00009686       0.00006924
K       10.08536527      17.41266527      10.99133964       72       0.00041782      -0.00039015      -0.00041532
In      11.31804667      14.46565181       7.30148022       73      -0.00094904       0.00021243      -0.00001964
I       12.79484640      16.43765000       8.74603149       74      -0.00017800       0.00035064       0.00050597
I       16.49557544      24.91323606      12.90184916       75      -0.00022811      -0.00002578       0.00025639
I       14.09125323      19.92952102      12.25306796       76      -0.00056938      -0.00037449       0.00011168
I       20.45277683      15.33165085       8.70370320       77       0.00000754      -0.00005222      -0.00050363
I        9.27856223      19.09816404       7.70724901       78       0.00020335      -0.00004810      -0.00027935
I       10.12552681      20.77124780      12.32358889       79       0.00030364       0.00016874      -0.00025250
