80
Lattice="21.404261851207064 0.0 0.0 -5.460994611459836 14.802253773536005 0.0 0.983432976524821 9.645896741482279 14.923921352568824" Properties=species:S:1:pos:R:3 pbc="T T T"
Cs       2.82642140       5.10535624      -0.00003101
Cs       7.30396414       2.63831395      -0.00003101
K        1.32524000       2.58274438       3.73098616
In       1.07938831       0.17127284       0.00002169
I        3.26793063       3.07676270       1.49290882
I        7.35419805       9.48985705       5.96908667
I        4.27881718       4.02929400       5.96908004
I        9.07377901       1.13617038       1.49290218
I       -1.91618375       6.42546118       1.49289141
I        0.75677695       5.96989991       5.96907736
Cs       3.31813788       9.92830461       7.46192966
Cs       7.79568063       7.46126232       7.46192966
K        1.81695649       7.40569275      11.19294684
In       1.57110480       4.99422121       7.46198236
I        3.75964712       7.89971107       8.95486949
I        7.84591454      14.31280542      13.43104735
I        4.77053367       8.85224237      13.43104071
I        9.56549550       5.95911875       8.95486286
I       -1.42446726      11.24840955       8.95485209
I        1.24849343      10.79284828      13.43103804
Cs       0.09592409      12.50648313      -0.00003101
Cs       4.57346683      10.03944083      -0.00003101
K       -1.40525730       9.98387127       3.73098616
In      -1.65110899       7.57239973       0.00002169
I        0.53743332      10.47788959       1.49290882
I        4.62370074      16.89098393       5.96908667
I        1.54831988      11.43042089       5.96908004
I        6.34328170       8.53729727       1.49290218
I       -4.64668106      13.82658807       1.49289141
I       -1.97372036      13.37102679       5.96907736
Cs       0.58764058      17.32943150       7.46192966
Cs       5.06518332      14.86238920       7.46192966
K       -0.91354081      14.80681964      11.19294684
In      -1.15939251      12.39534810       7.46198236
I        1.02914981      15.30083796       8.95486949
I        5.11541723      21.71393230      13.43104735
I        2.04003637      16.25336926      13.43104071
I        6.83499819      13.36024564       8.95486286
I       -4.15496457      18.64953644       8.95485209
I       -1.48200387      18.19397517      13.43103804
Cs      13.52855232       5.10535624      -0.00003101
Cs      18.00609507       2.63831395      -0.00003101
K       12.02737093       2.58274438       3.73098616
In      11.78151924       0.17127284       0.00002169
I       13.97006156       3.07676270       1.49290882
I       18.05632897       9.48985705       5.96908667
I       14.98094811       4.02929400       5.96908004
I       19.77590993       1.13617038       1.49290218
I        8.78594717       6.42546118       1.49289141
I       11.45890787       5.96989991       5.96907736
Cs      14.02026881       9.92830461       7.46192966
Cs      18.49781155       7.46126232       7.46192966
K       12.51908742       7.40569275      11.19294684
In      12.27323573       4.99422121       7.46198236
I       14.46177804       7.89971107       8.95486949
I       18.54804546      14.31280542      13.43104735
I       15.47266460       8.85224237      13.43104071
I       20.26762642       5.95911875       8.95486286
I        9.27766366      11.24840955       8.95485209
I       11.95062436      10.79284828      13.43103804
Cs      10.79805502      12.50648313      -0.00003101
Cs      15.27559776      10.03944083      -0.00003101
K        9.29687362       9.98387127       3.73098616
In       9.05102193       7.57239973       0.00002169
I       11.23956425      10.47788959       1.49290882
I       15.32583167      16.89098393       5.96908667
I       12.25045080      11.43042089       5.96908004
I       17.04541263       8.53729727       1.49290218
I        6.05544987      13.82658807       1.49289141
I        8.72841056      13.37102679       5.96907736
Cs      11.28977150      17.32943150       7.46192966
Cs      15.76731425      14.86238920       7.46192966
K        9.78859011      14.80681964      11.19294684
In       9.54273842      12.39534810       7.46198236
I       11.73128074      15.30083796       8.95486949
I       15.81754816      21.71393230      13.43104735
I       12.74216729      16.25336926      13.43104071
I       17.53712912      13.36024564       8.95486286
I        6.54716636      18.64953644       8.95485209
I        9.22012705      18.19397517      13.43103804
