40
Lattice="20.901512689175913 -2.7283959525071446 -3.4256220644315576 14.742251093810331 12.658727542860653 -4.885071500699362 4.575664449704463 4.377666819472906 4.972479525587597" Properties=species:S:1:pos:R:3:spacegroup_kinds:I:1:forces:R:3 spacegroup="P 1" unit_cell=conventional occupancy="_JSON {\"0\": {\"Cs\": 1.0}, \"1\": {\"Cs\": 1.0}, \"2\": {\"K\": 1.0}, \"3\": {\"In\": 1.0}, \"4\": {\"I\": 1.0}, \"5\": {\"I\": 1.0}, \"6\": {\"I\": 1.0}, \"7\": {\"I\": 1.0}, \"8\": {\"I\": 1.0}, \"9\": {\"I\": 1.0}, \"10\": {\"Cs\": 1.0}, \"11\": {\"Cs\": 1.0}, \"12\": {\"K\": 1.0}, \"13\": {\"In\": 1.0}, \"14\": {\"I\": 1.0}, \"15\": {\"I\": 1.0}, \"16\": {\"I\": 1.0}, \"17\": {\"I\": 1.0}, \"18\": {\"I\": 1.0}, \"19\": {\"I\": 1.0}, \"20\": {\"Cs\": 1.0}, \"21\": {\"Cs\": 1.0}, \"22\": {\"K\": 1.0}, \"23\": {\"In\": 1.0}, \"24\": {\"I\": 1.0}, \"25\": {\"I\": 1.0}, \"26\": {\"I\": 1.0}, \"27\": {\"I\": 1.0}, \"28\": {\"I\": 1.0}, \"29\": {\"I\": 1.0}, \"30\": {\"Cs\": 1.0}, \"31\": {\"Cs\": 1.0}, \"32\": {\"K\": 1.0}, \"33\": {\"In\": 1.0}, \"34\": {\"I\": 1.0}, \"35\": {\"I\": 1.0}, \"36\": {\"I\": 1.0}, \"37\": {\"I\": 1.0}, \"38\": {\"I\": 1.0}, \"39\": {\"I\": 1.0}}" energy=-101.79411384815116 free_energy=-101.79411384815116 stress="2.520689456134315e-06 -5.369061070609556e-07 -1.6597966526739448e-06 -5.369061070609556e-07 2.507756564805793e-07 1.485439776397411e-07 -1.6597966526739448e-06 1.485439776397411e-07 -2.561464496554125e-06" pbc="T T T"
Cs       5.21987513       2.27859030       0.50074531        0      -0.00009528      -0.00009385       0.00001945
Cs      17.17768322       7.06476614       0.31619828        1      -0.00010955      -0.00035342       0.00001024
K       11.19889895       4.67116909       0.40820793        2      -0.00013748      -0.00002857       0.00013757
In      20.90151276      -2.72806454      -3.42592019        3      -0.00002004      -0.00000903       0.00004487
I        7.79956297       5.21974204       0.25476603        4       0.00037964      -0.00016573      -0.00030589
I       14.59802762       4.12279622       0.56298854        5       0.00013542       0.00000259      -0.00020507
I       14.00370197       0.32280799       2.45637574        6      -0.00036520       0.00011371       0.00008421
I       29.29507173       6.29118205      -5.06437750        7       0.00067320       0.00001877      -0.00014633
I       14.81544283       9.93212810       1.82498337        8      -0.00027379       0.00007893      -0.00009977
I        7.58210700      -0.58955916      -1.00738244        9       0.00032450      -0.00005002       0.00005774
Cs      12.59113219       8.60825502      -1.94168782       10      -0.00001967       0.00002268      -0.00005222
Cs      24.54869108      13.39298448      -2.12607585       11       0.00003009       0.00022911      -0.00014185
K       18.56990707      11.00099771      -2.03354567       12      -0.00029250       0.00015949      -0.00018457
In      28.27262388       3.60063867      -5.86780480       13       0.00016011       0.00004591      -0.00011655
I       15.17074277      11.54968528      -2.18829660       14       0.00006619       0.00020824       0.00001662
I       21.96879699      10.45198608      -1.88010974       15       0.00044393       0.00002506       0.00009679
I       21.37296029       6.65291896       0.01427172       16       0.00048976      -0.00002315      -0.00013975
I       36.66851573      12.62070361      -7.50812403       17      -0.00060709      -0.00012114       0.00008085
I       22.18539807      16.26036873      -0.61890254       18       0.00046775      -0.00006429       0.00041332
I       14.95420887       5.74151786      -3.44969745       19      -0.00007025      -0.00006927       0.00002541
Cs      15.67014537       0.91473020      -1.21230503       20       0.00015568       0.00012466       0.00016521
Cs      27.62856705       5.69954721      -1.39687226       21      -0.00002082       0.00017706       0.00026002
K       21.64940690       3.30758894      -1.30453290       22       0.00039008      -0.00022980       0.00009436
In      10.45051545      -1.36444449      -1.71256932       23       0.00025280       0.00012980       0.00006464
I       18.25041757       3.85612507      -1.45856971       24      -0.00009174       0.00006919       0.00037233
I       25.04873697       2.75882351      -1.15050650       25      -0.00059112      -0.00012347       0.00021081
I        3.55074462       1.68799199       4.16930934       26       0.00047212      -0.00012500       0.00015096
I       18.84656705       7.65546178      -3.35260680       27      -0.00034465      -0.00014738      -0.00018015
I       25.26558123       8.56661825       0.11102036       28      -0.00019268       0.00039980       0.00021135
I       18.03382277      -1.95190872      -2.71997361       29      -0.00027677      -0.00004701      -0.00004627
Cs      23.04197320       7.24354593      -3.65444377       30       0.00003748       0.00001811      -0.00005183
Cs      34.99912013      12.02974234      -3.83899131       31       0.00013327      -0.00011640      -0.00013608
K       29.02073775       9.63622838      -3.74655572       32       0.00002881       0.00015757       0.00000010
In      17.82226098       4.96536445      -4.15557093       33      -0.00062268      -0.00017393       0.00002359
I       25.62159263      10.18496260      -3.90066558       34      -0.00034304      -0.00010244      -0.00014847
I       32.41993612       9.08775106      -3.59228833       35       0.00004207       0.00011375      -0.00003362
I       10.92452504       8.01622796       1.72674914       36      -0.00056997       0.00005028      -0.00011724
I       26.21570157      13.98471363      -5.79441317       37       0.00026752       0.00024328       0.00020982
I       32.63708210      14.89742212      -2.33010383       38       0.00004999      -0.00040308      -0.00051905
I       25.40418942       4.37538954      -5.16252281       39       0.00004392       0.00005899      -0.00012555
