40
Lattice="18.681346226044017 0.0 0.0 14.353358175235709 10.023106347403596 0.0 5.404944791219893 4.220511798038982 4.683590773210973" Properties=species:S:1:pos:R:3 pbc="T T T"
Cs       5.48040335       2.30796475       1.17093669
Cs      16.44189338       6.92409884       3.51265317
K       10.96114828       4.61603156       2.34179474
In       0.00000031       0.00000086       0.00000038
I        9.67251128       2.02121343       0.99850903
I       12.24978522       7.21084900       3.68508052
I       14.19741646       3.09702219       2.68064607
I        7.72487730       6.13504061       2.00294266
I        9.67041861       3.39675935      -0.50399625
I       12.25187868       5.83530853       5.18758882
Cs      12.65708244       7.31951792       1.17093669
Cs      23.61857247      11.93565201       3.51265317
K       18.13782737       9.62758474       2.34179474
In       7.17667940       5.01155404       0.00000038
I       16.84919037       7.03276660       0.99850903
I       19.42646431      12.22240218       3.68508052
I       21.37409554       8.10857536       2.68064607
I       14.90155639      11.14659378       2.00294266
I       16.84709770       8.40831253      -0.50399625
I       19.42855777      10.84686170       5.18758882
Cs      14.82107646       2.30796475       1.17093669
Cs      25.78256649       6.92409884       3.51265317
K       20.30182139       4.61603156       2.34179474
In       9.34067342       0.00000086       0.00000038
I       19.01318440       2.02121343       0.99850903
I       21.59045833       7.21084900       3.68508052
I       23.53808957       3.09702219       2.68064607
I       17.06555041       6.13504061       2.00294266
I       19.01109173       3.39675935      -0.50399625
I       21.59255179       5.83530853       5.18758882
Cs      21.99775555       7.31951792       1.17093669
Cs      32.95924558      11.93565201       3.51265317
K       27.47850048       9.62758474       2.34179474
In      16.51735251       5.01155404       0.00000038
I       26.18986349       7.03276660       0.99850903
I       28.76713742      12.22240218       3.68508052
I       30.71476866       8.10857536       2.68064607
I       24.24222950      11.14659378       2.00294266
I       26.18777081       8.40831253      -0.50399625
I       28.76923088      10.84686170       5.18758882
