160
Lattice="20.88245004482668 -2.458623735169986 -1.6280892317433853 -11.139897548200317 15.939591561008548 0.6923497488287508 -9.637888372254327 -7.173677208138816 30.59283485484862" Properties=species:S:1:pos:R:3:spacegroup_kinds:I:1:forces:R:3 spacegroup="P 1" unit_cell=conventional occupancy="_JSON {\"0\": {\"Cs\": 1.0}, \"1\": {\"Cs\": 1.0}, \"2\": {\"Cs\": 1.0}, \"3\": {\"Cs\": 1.0}, \"4\": {\"Pb\": 1.0}, \"5\": {\"Pb\": 1.0}, \"6\": {\"Pb\": 1.0}, \"7\": {\"Pb\": 1.0}, \"8\": {\"I\": 1.0}, \"9\": {\"I\": 1.0}, \"10\": {\"I\": 1.0}, \"11\": {\"I\": 1.0}, \"12\": {\"I\": 1.0}, \"13\": {\"I\": 1.0}, \"14\": {\"I\": 1.0}, \"15\": {\"I\": 1.0}, \"16\": {\"I\": 1.0}, \"17\": {\"I\": 1.0}, \"18\": {\"I\": 1.0}, \"19\": {\"I\": 1.0}, \"20\": {\"Cs\": 1.0}, \"21\": {\"Cs\": 1.0}, \"22\": {\"Cs\": 1.0}, \"23\": {\"Cs\": 1.0}, \"24\": {\"Pb\": 1.0}, \"25\": {\"Pb\": 1.0}, \"26\": {\"Pb\": 1.0}, \"27\": {\"Pb\": 1.0}, \"28\": {\"I\": 1.0}, \"29\": {\"I\": 1.0}, \"30\": {\"I\": 1.0}, \"31\": {\"I\": 1.0}, \"32\": {\"I\": 1.0}, \"33\": {\"I\": 1.0}, \"34\": {\"I\": 1.0}, \"35\": {\"I\": 1.0}, \"36\": {\"I\": 1.0}, \"37\": {\"I\": 1.0}, \"38\": {\"I\": 1.0}, \"39\": {\"I\": 1.0}, \"40\": {\"Cs\": 1.0}, \"41\": {\"Cs\": 1.0}, \"42\": {\"Cs\": 1.0}, \"43\": {\"Cs\": 1.0}, \"44\": {\"Pb\": 1.0}, \"45\": {\"Pb\": 1.0}, \"46\": {\"Pb\": 1.0}, \"47\": {\"Pb\": 1.0}, \"48\": {\"I\": 1.0}, \"49\": {\"I\": 1.0}, \"50\": {\"I\": 1.0}, \"51\": {\"I\": 1.0}, \"52\": {\"I\": 1.0}, \"53\": {\"I\": 1.0}, \"54\": {\"I\": 1.0}, \"55\": {\"I\": 1.0}, \"56\": {\"I\": 1.0}, \"57\": {\"I\": 1.0}, \"58\": {\"I\": 1.0}, \"59\": {\"I\": 1.0}, \"60\": {\"Cs\": 1.0}, \"61\": {\"Cs\": 1.0}, \"62\": {\"Cs\": 1.0}, \"63\": {\"Cs\": 1.0}, \"64\": {\"Pb\": 1.0}, \"65\": {\"Pb\": 1.0}, \"66\": {\"Pb\": 1.0}, \"67\": {\"Pb\": 1.0}, \"68\": {\"I\": 1.0}, \"69\": {\"I\": 1.0}, \"70\": {\"I\": 1.0}, \"71\": {\"I\": 1.0}, \"72\": {\"I\": 1.0}, \"73\": {\"I\": 1.0}, \"74\": {\"I\": 1.0}, \"75\": {\"I\": 1.0}, \"76\": {\"I\": 1.0}, \"77\": {\"I\": 1.0}, \"78\": {\"I\": 1.0}, \"79\": {\"I\": 1.0}, \"80\": {\"Cs\": 1.0}, \"81\": {\"Cs\": 1.0}, \"82\": {\"Cs\": 1.0}, \"83\": {\"Cs\": 1.0}, \"84\": {\"Pb\": 1.0}, \"85\": {\"Pb\": 1.0}, \"86\": {\"Pb\": 1.0}, \"87\": {\"Pb\": 1.0}, \"88\": {\"I\": 1.0}, \"89\": {\"I\": 1.0}, \"90\": {\"I\": 1.0}, \"91\": {\"I\": 1.0}, \"92\": {\"I\": 1.0}, \"93\": {\"I\": 1.0}, \"94\": {\"I\": 1.0}, \"95\": {\"I\": 1.0}, \"96\": {\"I\": 1.0}, \"97\": {\"I\": 1.0}, \"98\": {\"I\": 1.0}, \"99\": {\"I\": 1.0}, \"100\": {\"Cs\": 1.0}, \"101\": {\"Cs\": 1.0}, \"102\": {\"Cs\": 1.0}, \"103\": {\"Cs\": 1.0}, \"104\": {\"Pb\": 1.0}, \"105\": {\"Pb\": 1.0}, \"106\": {\"Pb\": 1.0}, \"107\": {\"Pb\": 1.0}, \"108\": {\"I\": 1.0}, \"109\": {\"I\": 1.0}, \"110\": {\"I\": 1.0}, \"111\": {\"I\": 1.0}, \"112\": {\"I\": 1.0}, \"113\": {\"I\": 1.0}, \"114\": {\"I\": 1.0}, \"115\": {\"I\": 1.0}, \"116\": {\"I\": 1.0}, \"117\": {\"I\": 1.0}, \"118\": {\"I\": 1.0}, \"119\": {\"I\": 1.0}, \"120\": {\"Cs\": 1.0}, \"121\": {\"Cs\": 1.0}, \"122\": {\"Cs\": 1.0}, \"123\": {\"Cs\": 1.0}, \"124\": {\"Pb\": 1.0}, \"125\": {\"Pb\": 1.0}, \"126\": {\"Pb\": 1.0}, \"127\": {\"Pb\": 1.0}, \"128\": {\"I\": 1.0}, \"129\": {\"I\": 1.0}, \"130\": {\"I\": 1.0}, \"131\": {\"I\": 1.0}, \"132\": {\"I\": 1.0}, \"133\": {\"I\": 1.0}, \"134\": {\"I\": 1.0}, \"135\": {\"I\": 1.0}, \"136\": {\"I\": 1.0}, \"137\": {\"I\": 1.0}, \"138\": {\"I\": 1.0}, \"139\": {\"I\": 1.0}, \"140\": {\"Cs\": 1.0}, \"141\": {\"Cs\": 1.0}, \"142\": {\"Cs\": 1.0}, \"143\": {\"Cs\": 1.0}, \"144\": {\"Pb\": 1.0}, \"145\": {\"Pb\": 1.0}, \"146\": {\"Pb\": 1.0}, \"147\": {\"Pb\": 1.0}, \"148\": {\"I\": 1.0}, \"149\": {\"I\": 1.0}, \"150\": {\"I\": 1.0}, \"151\": {\"I\": 1.0}, \"152\": {\"I\": 1.0}, \"153\": {\"I\": 1.0}, \"154\": {\"I\": 1.0}, \"155\": {\"I\": 1.0}, \"156\": {\"I\": 1.0}, \"157\": {\"I\": 1.0}, \"158\": {\"I\": 1.0}, \"159\": {\"I\": 1.0}}" energy=-445.7764290557059 free_energy=-445.7764290557059 stress="8.464400228693871e-06 2.940861770054856e-06 -5.043251093896552e-06 2.940861770054856e-06 -4.249364893109428e-06 2.415206955812158e-06 -5.043251093896552e-06 2.415206955812158e-06 -5.354825114264775e-06" pbc="T T T"
Cs      -0.65226472       7.99596814       2.80862035        0      -0.00030036      -0.00019275       0.00003062
Cs      -1.35978014       3.62423983       4.49060328        1       0.00001417       0.00016741       0.00019092
Cs       2.69937160      -5.40843470       9.48895962        2       0.00036601       0.00038365      -0.00024912
Cs       2.40923035       0.67362820      12.64586025        3       0.00019042       0.00014735       0.00012468
Pb      -0.50356971       1.51879381      -0.43861936        4       0.00045087      -0.00025598       0.00000117
Pb       3.06626112       4.13189170       1.02463644        5       0.00008919       0.00025830      -0.00019751
Pb      -1.50885663      -2.62427241       7.45474992        6      -0.00069080       0.00030254      -0.00029940
Pb       0.91825841       0.62349923       7.28673806        7      -0.00081484      -0.00030650       0.00008321
I       -0.24815602       4.55119494       0.82121302        8      -0.00010067       0.00008572       0.00006835
I        2.60934203       1.14224056      -0.50025919        9       0.00032553      -0.00008695       0.00022000
I        8.69403634      -0.81441742       1.61496494       10       0.00009890      -0.00040500      -0.00012112
I        1.32115381      -0.14763012      16.50441647       11       0.00009099       0.00003855       0.00028497
I       -1.30066495       1.66191256      13.43355919       12       0.00011991      -0.00002017      -0.00013677
I        2.47708580       2.51201487       4.30317343       13       0.00000423       0.00009402      -0.00020881
I       -2.36147098       0.39687136       6.44757617       14       0.00021128      -0.00035855       0.00026870
I        1.54854082      -2.47662358       6.38990339       15      -0.00002026      -0.00003945      -0.00016378
I      -11.66394027       6.91824751      12.43288968       16      -0.00013288       0.00010615       0.00004493
I        3.71906450       1.36592909       8.68056438       17       0.00010275      -0.00044676       0.00044823
I        0.27064251       3.72189212       7.93582022       18       0.00004149       0.00020995       0.00007481
I       -0.23676408      -0.59465349       9.87078698       19       0.00022428       0.00009501       0.00016433
Cs      -5.46966305       4.40505855      18.10630087       20       0.00016036       0.00009870       0.00015660
Cs      -6.17723491       0.03756427      19.78402724       21       0.00015141      -0.00031145       0.00015027
Cs      -2.12329329      -9.00185933      24.78693700       22      -0.00012132       0.00010110       0.00004978
Cs      -2.41476598      -2.90846913      27.94189478       23      -0.00014723      -0.00023096      -0.00013516
Pb      -5.31611804      -2.07115686      14.85734898       24       0.00023732       0.00044617       0.00016772
Pb      -1.74812634       0.54171705      16.32396606       25      -0.00016726      -0.00012337       0.00004430
Pb      -6.33168799      -6.20767037      22.75055102       26      -0.00016697      -0.00015247       0.00008283
Pb      -3.90503706      -2.96075201      22.58173454       27      -0.00002423      -0.00009709       0.00014764
I       -5.06209494       0.96167873      16.11606905       28      -0.00037522      -0.00036297      -0.00029546
I       -2.20350165      -2.44830819      14.79789618       29      -0.00045153      -0.00013831      -0.00006230
I        3.88021874      -4.40609414      16.91374232       30       0.00000492      -0.00002339       0.00005693
I       -3.50231460      -3.72982838      31.80031215       31       0.00015235      -0.00021474      -0.00004773
I       -6.12606885      -1.92166184      28.72817309       32       0.00001123      -0.00016404       0.00004390
I       -2.33874416      -1.07088842      19.59562612       33       0.00012716      -0.00015498       0.00013446
I       -7.18677116      -3.18705650      21.74136397       34       0.00002917      -0.00009216       0.00008397
I       -3.27378606      -6.06035488      21.68648624       35      -0.00029162      -0.00017468      -0.00025930
I      -16.48594447       3.33680554      27.72682733       36       0.00025483      -0.00009965      -0.00024004
I       -1.10470735      -2.21936969      23.97543094       37       0.00004014      -0.00022076       0.00001979
I       -4.55018770       0.13927153      23.22864897       38       0.00022492      -0.00023763       0.00030404
I       -5.06160466      -4.17411273      25.16565536       39      -0.00012657       0.00012780       0.00029621
Cs      -6.23011284      15.96452894       3.14939587       40      -0.00001596       0.00020732      -0.00007032
Cs      -6.92790017      11.59377383       4.83741866       41      -0.00014192       0.00015070       0.00012865
Cs      -2.86936499       2.56125819       9.83470600       42      -0.00024943      -0.00001849      -0.00015163
Cs      -3.16125159       8.64379434      12.99395090       43       0.00000413       0.00022600       0.00002696
Pb      -6.07198865       9.48795016      -0.09217429       44       0.00000796      -0.00027257       0.00034734
Pb      -2.50286735      12.10026398       1.37685129       45      -0.00020965      -0.00008002       0.00001100
Pb      -7.08039375       5.34564760       7.80091211       46      -0.00025417       0.00017655      -0.00011828
Pb      -4.65352782       8.59289360       7.63459178       47      -0.00000212       0.00037812      -0.00021486
I       -5.81751025      12.51907839       1.16720253       48       0.00017515      -0.00019046      -0.00023331
I       -2.95911456       9.11021118      -0.14677515       49       0.00039509      -0.00020643       0.00007434
I        3.12954521       7.15497084       1.95975087       50      -0.00007596      -0.00025376       0.00030531
I       -4.24910750       7.82380175      16.85335672       51      -0.00020551      -0.00004039      -0.00006192
I       -6.87264387       9.62929733      13.78239109       52      -0.00001628      -0.00001166       0.00019996
I       -3.09059886      10.48529200       4.64784759       53       0.00020107      -0.00019472       0.00003729
I       -7.93292486       8.36720337       6.79389850       54      -0.00007085       0.00007439       0.00014420
I       -4.02287700       5.49410329       6.73534038       55      -0.00018653      -0.00027949       0.00005945
I       -6.09397020      -1.04856412      12.08448105       56      -0.00012422      -0.00014717      -0.00027298
I       -1.85202754       9.33396923       9.02734427       57      -0.00024888       0.00005179       0.00020790
I       -5.29904888      11.69200988       8.28283385       58       0.00001400       0.00013026      -0.00008521
I       -5.80839881       7.37606419      10.21819796       59       0.00013461      -0.00017322       0.00001287
Cs     -11.04486207      12.37373048      18.44852638       60       0.00035473       0.00035302       0.00016935
Cs     -11.74862764       8.00504191      20.13601577       61       0.00018805       0.00000756      -0.00002861
Cs      -7.69352674      -1.01490365      25.12510425       62      -0.00009172      -0.00041354       0.00022749
Cs      -7.98415152       5.05971311      28.28954317       63      -0.00002308      -0.00004833      -0.00011009
Pb     -10.88741306       5.89567850      15.20662006       64      -0.00064066      -0.00005793      -0.00001321
Pb      -7.31948244       8.51000486      16.67227210       65      -0.00019053       0.00017745      -0.00006836
Pb     -11.90236928       1.75510813      23.09679434       66      -0.00010369       0.00035534      -0.00002705
Pb      -9.47538397       5.00285145      22.93067305       67      -0.00028293      -0.00017393       0.00018567
I      -10.63342237       8.92788441      16.46545781       68       0.00003474       0.00037071      -0.00006527
I       -7.77461582       5.51887608      15.15005859       69       0.00027015       0.00014272      -0.00016676
I       -1.68526689       3.56505262      17.25751766       70      -0.00013839       0.00006292       0.00007010
I       -9.07018709       4.24255306      32.15106864       71       0.00005555       0.00003107      -0.00022878
I      -11.69392482       6.04447175      29.07829978       72       0.00010110       0.00023345      -0.00001264
I       -7.91172593       6.89169162      19.94792684       73       0.00002518       0.00021441      -0.00018148
I      -12.75642503       4.77762171      22.09180608       74       0.00055406       0.00017006      -0.00006987
I       -8.84428858       1.90316295      22.03139924       75       0.00000446       0.00005825      -0.00012014
I      -10.92062731      -4.63267752      27.38205079       76       0.00010437      -0.00010229      -0.00019684
I       -6.67492586       5.74520848      24.32397720       77       0.00039831      -0.00001550       0.00014917
I      -10.12229838       8.10073341      23.58200628       78       0.00027032       0.00038583      -0.00013966
I      -10.62854441       3.78350832      25.51472166       79      -0.00000242       0.00016259      -0.00054433
Cs       9.78643976       6.76703187       1.99109459       80      -0.00019352      -0.00012418       0.00015691
Cs       9.08086818       2.39482335       3.67628915       81       0.00015773       0.00017993       0.00044626
Cs      13.14025377      -6.63804955       8.67325101       82       0.00028203       0.00031254      -0.00008354
Cs      -8.03262734       1.90346794      13.46114136       83       0.00003389       0.00013331      -0.00002249
Pb       9.93658467       0.28812427      -1.25225803       84       0.00005564       0.00005898      -0.00041975
Pb      13.50685411       2.90120595       0.21371807       85      -0.00019292       0.00047667      -0.00010607
Pb       8.93226275      -3.85379978       6.64126556       86      -0.00066633      -0.00010501      -0.00018174
Pb      11.35905582      -0.60611227       6.47358606       87      -0.00051852      -0.00025982       0.00020879
I       10.19270542       3.32064892       0.00643466       88      -0.00015643      -0.00001342       0.00001064
I       13.04985511      -0.08811911      -1.31042432       89       0.00020654      -0.00026513      -0.00008011
I       19.13624577      -2.04372992       0.80059933       90       0.00014054      -0.00011413       0.00020232
I       11.76235908      -1.37694208      15.69198636       91       0.00011894       0.00004972       0.00031227
I        9.13889549       0.42889663      12.62293676       92       0.00001591       0.00022146      -0.00005039
I       12.91871274       1.28429667       3.48915351       93      -0.00006296       0.00002137      -0.00000703
I        8.08050356      -0.83272520       5.63430481       94      -0.00015217      -0.00001549      -0.00019749
I       11.98936458      -3.70629459       5.57582455       95       0.00009150       0.00008851      -0.00027216
I       -1.22107251       5.69278352      11.61721128       96      -0.00012452      -0.00019937       0.00022967
I       14.15984562       0.13691704       7.86765470       97       0.00018845      -0.00029429       0.00037209
I       10.71108229       2.49229519       7.12208504       98       0.00014081      -0.00000268      -0.00013532
I       10.20487923      -1.82470956       9.05771510       99       0.00029353       0.00025415       0.00009388
Cs       4.96983269       3.17636925      17.29023601      100       0.00034889      -0.00000355       0.00014209
Cs       4.26088100      -1.19424203      18.97400857      101       0.00031654      -0.00027287      -0.00019159
Cs       8.31810608     -10.22126759      23.96883404      102      -0.00022471      -0.00032249       0.00014362
Cs     -12.85585057      -1.67913787      28.75853039      103      -0.00010596      -0.00021361      -0.00030297
Pb       5.12355372      -3.30199856      14.04717435      104       0.00002622       0.00061669      -0.00013147
Pb       8.69220862      -0.68956452      15.51399075      105      -0.00015418       0.00001884      -0.00020853
Pb       4.10826045      -7.44334405      21.93823267      106      -0.00032535       0.00006028      -0.00004353
Pb       6.53424900      -4.19607272      21.77081630      107       0.00013010       0.00009847      -0.00027139
I        5.37846708      -0.26952413      15.30566872      108      -0.00034438      -0.00030282      -0.00027340
I        8.23599318      -3.68048303      13.99180280      109      -0.00026742      -0.00009053      -0.00018134
I       14.32584726      -5.63404299      16.09697789      110       0.00005469       0.00003535       0.00026468
I        6.93852358      -4.95958615      30.98830399      111       0.00049697      -0.00023463       0.00005403
I        4.31541575      -3.15290038      27.91648666      112       0.00008391       0.00004284      -0.00017219
I        8.09943944      -2.30577007      18.78451516      113       0.00030585       0.00013293       0.00016784
I        3.25394600      -4.42134336      20.93154478      114       0.00016007      -0.00007161      -0.00003612
I        7.16572109      -7.29511568      20.87241893      115      -0.00018977       0.00001262      -0.00016949
I       -6.04279650       2.10970315      26.91232654      116       0.00023566       0.00009072      -0.00011116
I        9.33567829      -3.45392369      23.16321064      117       0.00014782      -0.00007373      -0.00010046
I        5.88942242      -1.09613062      22.41851865      118       0.00017865      -0.00032294       0.00032113
I        5.38099876      -5.41226055      24.35511678      119      -0.00026973       0.00028333      -0.00002529
Cs       4.21296201      14.73514421       2.33836464      120      -0.00000033      -0.00002546      -0.00017379
Cs       3.51414095      10.36456852       4.02319086      121      -0.00022976       0.00018507      -0.00012778
Cs       7.57222732       1.32806005       9.02254932      122      -0.00031888       0.00020234      -0.00013770
Cs     -13.60218245       9.87225831      13.80547987      123       0.00011098       0.00006938       0.00005474
Pb       4.37080053       8.25957371      -0.90740598      124       0.00020715      -0.00034865       0.00007310
Pb       7.93847899      10.87232671       0.56034850      125       0.00021310      -0.00020928      -0.00004352
Pb       3.36110698       4.11591575       6.98528885      126       0.00006156       0.00045301       0.00015185
Pb       5.78796874       7.36369188       6.81892040      127      -0.00006911       0.00000254       0.00017646
I        4.62391205      11.29054491       0.35291452      128      -0.00005871       0.00002729      -0.00004387
I        7.48351895       7.88218498      -0.96541384      129       0.00024835      -0.00007446       0.00025185
I       13.56854529       5.92551359       1.14674536      130       0.00006048      -0.00036887      -0.00002533
I        6.19363191       6.59578156      16.03856133      131      -0.00032803      -0.00007412       0.00010331
I        3.57014234       8.40119451      12.96611729      132      -0.00001601      -0.00006807       0.00003878
I        7.35091467       9.25613314       3.83314044      133       0.00013448      -0.00011618       0.00037058
I        2.50769062       7.13750695       5.97815576      134       0.00010548       0.00018491       0.00013548
I        6.41843188       4.26514123       5.91955771      135      -0.00028784      -0.00016614       0.00031723
I        4.34935926      -2.27916218      11.27293260      136      -0.00014180      -0.00011827      -0.00004552
I        8.58948356       8.10407487       8.21207500      137      -0.00046314       0.00013127      -0.00006007
I        5.14236171      10.46253619       7.46832664      138       0.00028322       0.00025715       0.00007220
I        4.63255319       6.14711298       9.40246288      139       0.00035546      -0.00012638      -0.00031073
Cs      -0.59777636      11.14470579      17.64017152      140      -0.00005287       0.00036230       0.00000924
Cs      -1.30615792       6.77737290      19.31819731      141       0.00010596       0.00012030       0.00022920
Cs       2.74812207      -2.25397668      24.31635360      142      -0.00004299      -0.00003500       0.00000831
Cs     -18.42638914       6.28844078      29.10241300      143      -0.00012267       0.00018046       0.00002174
Pb      -0.44388080       4.66923107      14.39028658      144      -0.00031436      -0.00013554      -0.00037240
Pb       3.12368311       7.28244033      15.85620142      145      -0.00019087       0.00006503       0.00004953
Pb      -1.45893821       0.53210448      22.28064626      146      -0.00000100       0.00022034       0.00010540
Pb       0.96741131       3.78020907      22.11521459      147       0.00005169      -0.00019733       0.00011129
I       -0.19053164       7.70149605      15.65014198      148      -0.00007570       0.00022725      -0.00018147
I        2.66887384       4.29124531      14.33255437      149      -0.00016128       0.00016555      -0.00003589
I        8.75426575       2.33447354      16.44665698      150      -0.00010077       0.00022134      -0.00021885
I        1.37111876       3.01429398      31.33578155      151      -0.00006122      -0.00004386      -0.00021841
I       -1.25330969       4.81778605      28.26256133      152       0.00005232      -0.00001230      -0.00012020
I        2.53175514       5.66581824      19.13287881      153      -0.00009448       0.00024634      -0.00027282
I       -2.31389479       3.55314786      21.27445193      154       0.00030232       0.00010633      -0.00013091
I        1.59958006       0.68063189      21.21814015      155      -0.00016449      -0.00001733      -0.00006235
I       -0.48206552      -5.86509191      26.56754472      156       0.00034991      -0.00010560       0.00038520
I        3.76618177       4.52334688      23.51141272      157       0.00024919      -0.00025484      -0.00003522
I        0.31968098       6.87884987      22.76407311      158       0.00023147       0.00002901      -0.00010355
I       -0.18944121       2.56212330      24.69818025      159       0.00010097      -0.00003825       0.00020138
