160
Lattice="18.976711571292242 0.0 0.0 -8.354072227224027 14.728624576280135 0.0 -8.069781929740929 -8.22118773315991 22.87853069897419" Properties=species:S:1:pos:R:3 pbc="T T T"
Cs       0.08394154       5.84253866       2.85981634
Cs      -2.05305579       2.16053076       2.85981634
Cs       2.11198454      -2.43072980       8.57944902
Cs       4.24899375       1.25157459       8.57944902
Pb       0.45973686       0.07915600       0.00000115
Pb       2.65565984       3.68215614       0.00000000
Pb      -1.55770862      -1.97614093       5.71963154
Pb       1.09795479       1.70593888       5.71963570
I       -0.79100340       5.05491536       0.47537555
I        2.36944024       1.37274732       0.47551555
I        8.09631091      -0.87900569       2.85981634
I        2.98692409      -1.64294907      10.96373822
I       -0.17351863       2.03919518      10.96387822
I        2.87093589       2.80299866       2.85981634
I       -2.47304372       3.34131648       5.24425714
I        0.68739992      -0.34085156       5.24411713
I       -5.90042589       4.29111470       8.57944902
I        4.66896441       0.07064981       6.19515982
I        1.50852170       3.75279406       6.19501981
I       -0.67504780       0.60880677       8.57944902
Cs      -3.95094943       1.73194479      14.29908169
Cs      -6.08794676      -1.95006310      14.29908169
Cs      -1.92290643      -6.54132367      20.01871437
Cs       0.21410278      -2.85901927      20.01871437
Pb      -3.57515410      -4.03143787      11.43926649
Pb      -1.37923113      -0.42843772      11.43926535
Pb      -5.59259958      -6.08673480      17.15889689
Pb      -2.93693618      -2.40465499      17.15890104
I       -4.82589436       0.94432150      11.91464090
I       -1.66545073      -2.73784655      11.91478090
I        4.06141995      -4.98959956      14.29908169
I       -1.04796688      -5.75354293      22.40300357
I       -4.20840959      -2.07139869      22.40314357
I       -1.16395507      -1.30759520      14.29908169
I       -6.50793468      -0.76927738      16.68352249
I       -3.34749105      -4.45144543      16.68338248
I       -9.93531685       0.18052083      20.01871437
I        0.63407345      -4.03994405      17.63442517
I       -2.52636927      -0.35779981      17.63428516
I       -4.70993876      -3.50178710      20.01871437
Cs      -4.09309458      13.20685095       2.85981634
Cs      -6.23009191       9.52484305       2.85981634
Cs      -2.06505158       4.93358249       8.57944902
Cs       0.07195763       8.61588688       8.57944902
Pb      -3.71729925       7.44346829       0.00000115
Pb      -1.52137628      11.04646843       0.00000000
Pb      -5.73474473       5.38817136       5.71963154
Pb      -3.07908133       9.07025117       5.71963570
I       -4.96803951      12.41922765       0.47537555
I       -1.80759587       8.73705961       0.47551555
I        3.91927480       6.48530659       2.85981634
I       -1.19011203       5.72136322      10.96373822
I       -4.35055474       9.40350747      10.96387822
I       -1.30610022      10.16731095       2.85981634
I       -6.65007983      10.70562877       5.24425714
I       -3.48963620       7.02346073       5.24411713
I      -10.07746200      11.65542698       8.57944902
I        0.49192830       7.43496210       6.19515982
I       -2.66851442      11.11710634       6.19501981
I       -4.85208391       7.97311905       8.57944902
Cs      -8.12798554       9.09625708      14.29908169
Cs     -10.26498287       5.41424919      14.29908169
Cs      -6.09994254       0.82298862      20.01871437
Cs      -3.96293333       4.50529301      20.01871437
Pb      -7.75219021       3.33287442      11.43926649
Pb      -5.55626724       6.93587457      11.43926535
Pb      -9.76963570       1.27757749      17.15889689
Pb      -7.11397229       4.95965730      17.15890104
I       -9.00293048       8.30863378      11.91464090
I       -5.84248684       4.62646574      11.91478090
I       -0.11561617       2.37471273      14.29908169
I       -5.22500299       1.61076935      22.40300357
I       -8.38544571       5.29291360      22.40314357
I       -5.34099118       6.05671709      14.29908169
I      -10.68497080       6.59503491      16.68352249
I       -7.52452716       2.91286686      16.68338248
I      -14.11235296       7.54483312      20.01871437
I       -3.54296267       3.32436823      17.63442517
I       -6.70340538       7.00651248      17.63428516
I       -8.88697487       3.86252519      20.01871437
Cs       9.57229732       5.84253866       2.85981634
Cs       7.43529999       2.16053076       2.85981634
Cs      11.60034032      -2.43072980       8.57944902
Cs      13.73734953       1.25157459       8.57944902
Pb       9.94809265       0.07915600       0.00000115
Pb      12.14401562       3.68215614       0.00000000
Pb       7.93064717      -1.97614093       5.71963154
Pb      10.58631057       1.70593888       5.71963570
I        8.69735239       5.05491536       0.47537555
I       11.85779602       1.37274732       0.47551555
I       17.58466670      -0.87900569       2.85981634
I       12.47527987      -1.64294907      10.96373822
I        9.31483716       2.03919518      10.96387822
I       12.35929168       2.80299866       2.85981634
I        7.01531207       3.34131648       5.24425714
I       10.17575570      -0.34085156       5.24411713
I        3.58792990       4.29111470       8.57944902
I       14.15732020       0.07064981       6.19515982
I       10.99687748       3.75279406       6.19501981
I        8.81330799       0.60880677       8.57944902
Cs       5.53740636       1.73194479      14.29908169
Cs       3.40040903      -1.95006310      14.29908169
Cs       7.56544936      -6.54132367      20.01871437
Cs       9.70245857      -2.85901927      20.01871437
Pb       5.91320168      -4.03143787      11.43926649
Pb       8.10912466      -0.42843772      11.43926535
Pb       3.89575620      -6.08673480      17.15889689
Pb       6.55141961      -2.40465499      17.15890104
I        4.66246142       0.94432150      11.91464090
I        7.82290506      -2.73784655      11.91478090
I       13.54977573      -4.98959956      14.29908169
I        8.44038891      -5.75354293      22.40300357
I        5.27994619      -2.07139869      22.40314357
I        8.32440071      -1.30759520      14.29908169
I        2.98042110      -0.76927738      16.68352249
I        6.14086474      -4.45144543      16.68338248
I       -0.44696107       0.18052083      20.01871437
I       10.12242923      -4.03994405      17.63442517
I        6.96198652      -0.35779981      17.63428516
I        4.77841703      -3.50178710      20.01871437
Cs       5.39526121      13.20685095       2.85981634
Cs       3.25826388       9.52484305       2.85981634
Cs       7.42330421       4.93358249       8.57944902
Cs       9.56031342       8.61588688       8.57944902
Pb       5.77105654       7.44346829       0.00000115
Pb       7.96697951      11.04646843       0.00000000
Pb       3.75361105       5.38817136       5.71963154
Pb       6.40927446       9.07025117       5.71963570
I        4.52031628      12.41922765       0.47537555
I        7.68075991       8.73705961       0.47551555
I       13.40763058       6.48530659       2.85981634
I        8.29824376       5.72136322      10.96373822
I        5.13780105       9.40350747      10.96387822
I        8.18225557      10.16731095       2.85981634
I        2.83827595      10.70562877       5.24425714
I        5.99871959       7.02346073       5.24411713
I       -0.58910621      11.65542698       8.57944902
I        9.98028408       7.43496210       6.19515982
I        6.81984137      11.11710634       6.19501981
I        4.63627188       7.97311905       8.57944902
Cs       1.36037024       9.09625708      14.29908169
Cs      -0.77662709       5.41424919      14.29908169
Cs       3.38841324       0.82298862      20.01871437
Cs       5.52542245       4.50529301      20.01871437
Pb       1.73616557       3.33287442      11.43926649
Pb       3.93208854       6.93587457      11.43926535
Pb      -0.28127991       1.27757749      17.15889689
Pb       2.37438349       4.95965730      17.15890104
I        0.48542531       8.30863378      11.91464090
I        3.64586895       4.62646574      11.91478090
I        9.37273962       2.37471273      14.29908169
I        4.26335279       1.61076935      22.40300357
I        1.10291008       5.29291360      22.40314357
I        4.14736460       6.05671709      14.29908169
I       -1.19661501       6.59503491      16.68352249
I        1.96382862       2.91286686      16.68338248
I       -4.62399718       7.54483312      20.01871437
I        5.94539312       3.32436823      17.63442517
I        2.78495040       7.00651248      17.63428516
I        0.60138091       3.86252519      20.01871437
