10
Lattice="10.048070161553136 -1.2820574444564594 -0.8217401926065176 4.087521610136453 6.639207843056347 -0.05879245631718799 4.253815919898264 -0.8001092517623113 8.24555140332743" Properties=species:S:1:pos:R:3:spacegroup_kinds:I:1:forces:R:3 spacegroup="P 1" unit_cell=conventional occupancy="_JSON {\"0\": {\"Cs\": 1.0}, \"1\": {\"Cs\": 1.0}, \"2\": {\"K\": 1.0}, \"3\": {\"In\": 1.0}, \"4\": {\"I\": 1.0}, \"5\": {\"I\": 1.0}, \"6\": {\"I\": 1.0}, \"7\": {\"I\": 1.0}, \"8\": {\"I\": 1.0}, \"9\": {\"I\": 1.0}}" energy=-24.24780511388169 free_energy=-24.24780511388169 stress="-3.590249664490044e-06 1.942920879033375e-06 -4.311819239415163e-06 1.942920879033375e-06 -1.1582959168243452e-06 -2.903120497595627e-06 -4.311819239415163e-06 -2.903120497595627e-06 3.571984950600218e-07" pbc="T T T"
Cs       4.59659406       1.96238625       0.72814006        0      -0.00003778      -0.00009268      -0.00014226
Cs      14.19620515       2.78366697       6.40504223        1      -0.00011841      -0.00000677      -0.00011376
K        9.69290773       1.92068198       4.16457517        2       0.00014529       0.00015388      -0.00023019
In       9.14060023      -1.16135190       0.17216277        3       0.00005031       0.00022273       0.00042363
I        8.00560863      -1.38703614       3.90097107        4       0.00039522      -0.00002685       0.00037362
I        9.55032706       5.13360677       2.29106980        5      -0.00013557       0.00040582      -0.00011482
I       11.04098955       1.22250276       1.00595826        6      -0.00000866       0.00002271      -0.00017956
I        7.95187082       3.83594198       6.49436478        7       0.00005556       0.00004162       0.00006388
I        7.09310728       5.00022509       0.68550540        8      -0.00013330      -0.00038120      -0.00022986
I       11.53219226      -0.08599738       6.47305327        9      -0.00021267      -0.00033926       0.00014933
