40
Lattice="21.224771171367514 0.0 0.0 -9.930270252111164 14.612120074664956 0.0 -2.594967717946806 -1.7635175869786859 7.778420918902967" Properties=species:S:1:pos:R:3 pbc="T T T"
Cs       5.73699946       0.68713193       7.77101181
Cs       3.13458243       4.88268792       0.00721225
K       -1.29748386      -0.88175879       3.88921046
In       2.90968004       0.01363491       0.00005529
I       10.22036383      -0.33408433       1.55595484
I       -1.34879961       5.90382234       6.22250782
I        3.87686489       1.57418750       1.55597459
I        4.99478460       3.99567906       6.22252758
I        9.33415004       5.04858795       1.55594688
I       -0.46256885       0.52125788       6.22249987
Cs       0.77186433       7.99319197       7.77101181
Cs      -1.83055270      12.18874796       0.00721225
K       -6.26261899       6.42430124       3.88921046
In      -2.05545509       7.31969495       0.00005529
I        5.25522871       6.97197571       1.55595484
I       -6.31393474      13.20988238       6.22250782
I       -1.08827023       8.88024753       1.55597459
I        0.02964947      11.30173909       6.22252758
I        4.36901491      12.35464799       1.55594688
I       -5.42770397       7.82731792       6.22249987
Cs      16.34938505       0.68713193       7.77101181
Cs      13.74696801       4.88268792       0.00721225
K        9.31490173      -0.88175879       3.88921046
In      13.52206562       0.01363491       0.00005529
I       20.83274942      -0.33408433       1.55595484
I        9.26358597       5.90382234       6.22250782
I       14.48925048       1.57418750       1.55597459
I       15.60717019       3.99567906       6.22252758
I       19.94653562       5.04858795       1.55594688
I       10.14981674       0.52125788       6.22249987
Cs      11.38424992       7.99319197       7.77101181
Cs       8.78183289      12.18874796       0.00721225
K        4.34976660       6.42430124       3.88921046
In       8.55693050       7.31969495       0.00005529
I       15.86761429       6.97197571       1.55595484
I        4.29845085      13.20988238       6.22250782
I        9.52411535       8.88024753       1.55597459
I       10.64203506      11.30173909       6.22252758
I       14.98140050      12.35464799       1.55594688
I        5.18468161       7.82731792       6.22249987
