40
Lattice="17.13202399640949 -0.415823243061862 -3.0114732398629003 -8.318668691631114 15.2610367931138 0.8214450266894759 -2.8381397777381956 -2.0485799358929184 9.271969252765768" Properties=species:S:1:pos:R:3:spacegroup_kinds:I:1:forces:R:3 spacegroup="P 1" unit_cell=conventional occupancy="_JSON {\"0\": {\"Cs\": 1.0}, \"1\": {\"Cs\": 1.0}, \"2\": {\"K\": 1.0}, \"3\": {\"In\": 1.0}, \"4\": {\"I\": 1.0}, \"5\": {\"I\": 1.0}, \"6\": {\"I\": 1.0}, \"7\": {\"I\": 1.0}, \"8\": {\"I\": 1.0}, \"9\": {\"I\": 1.0}, \"10\": {\"Cs\": 1.0}, \"11\": {\"Cs\": 1.0}, \"12\": {\"K\": 1.0}, \"13\": {\"In\": 1.0}, \"14\": {\"I\": 1.0}, \"15\": {\"I\": 1.0}, \"16\": {\"I\": 1.0}, \"17\": {\"I\": 1.0}, \"18\": {\"I\": 1.0}, \"19\": {\"I\": 1.0}, \"20\": {\"Cs\": 1.0}, \"21\": {\"Cs\": 1.0}, \"22\": {\"K\": 1.0}, \"23\": {\"In\": 1.0}, \"24\": {\"I\": 1.0}, \"25\": {\"I\": 1.0}, \"26\": {\"I\": 1.0}, \"27\": {\"I\": 1.0}, \"28\": {\"I\": 1.0}, \"29\": {\"I\": 1.0}, \"30\": {\"Cs\": 1.0}, \"31\": {\"Cs\": 1.0}, \"32\": {\"K\": 1.0}, \"33\": {\"In\": 1.0}, \"34\": {\"I\": 1.0}, \"35\": {\"I\": 1.0}, \"36\": {\"I\": 1.0}, \"37\": {\"I\": 1.0}, \"38\": {\"I\": 1.0}, \"39\": {\"I\": 1.0}}" energy=-102.51927470927765 free_energy=-102.51927470927765 stress="1.253625457747399e-06 1.3100732819439739e-06 -5.5855190501969883e-08 1.3100732819439739e-06 5.187372015783604e-06 -3.67756664762268e-06 -5.5855190501969883e-08 -3.67756664762268e-06 -1.1666098330810303e-06" pbc="T T T"
Cs       4.01786067       0.48691101       9.13206812        0      -0.00006329      -0.00013687      -0.00001723
Cs       2.21385365       5.05104976      -1.76541458        1      -0.00002936       0.00010579       0.00007314
K       -1.26846010      -2.14865000       4.55793989        2       0.00009915      -0.00042310      -0.00050626
In       2.33110362       0.08192752      -0.40671276        3       0.00040518      -0.00009995       0.00011088
I        8.92700394      -0.80293042       0.23785656        4       0.00025928      -0.00002904       0.00001601
I       -2.72034571       6.36915078       7.13400850        5       0.00009459       0.00000228      -0.00007270
I        3.11687988       2.53235673       1.12392342        6      -0.00036017      -0.00044626      -0.00052505
I        3.15148466       3.01344782       6.23782928        7       0.00012031       0.00072873       0.00027596
I        8.83237561       5.94979803      -0.03235386        8       0.00021003       0.00002447      -0.00011845
I       -2.61214144      -0.44769199       7.40423753        9       0.00011636       0.00013056       0.00084414
Cs      -0.14148312       8.11752213       9.54282528       10      -0.00000570      -0.00024129      -0.00006449
Cs      -1.94546255      12.68168686      -1.35471389       11      -0.00018227      -0.00003021       0.00008960
K       11.70435578       5.06595028       1.95667028       12      -0.00004083      -0.00013345       0.00028471
In      -1.82813833       7.71241258       0.00404488       13      -0.00009113       0.00006339       0.00012225
I        4.76774341       6.82759991       0.64860520       14      -0.00010296      -0.00010296       0.00005100
I        1.43912294      -1.26133771       6.72311208       15      -0.00034894      -0.00010452       0.00043323
I       -1.04246779      10.16273362       1.53458674       16      -0.00018150       0.00002730      -0.00016682
I       -1.00783929      10.64428373       6.64873183       17      -0.00012726      -0.00046737      -0.00035124
I        4.67308885      13.58015698       0.37824065       18       0.00007909       0.00044888       0.00001858
I       -6.77159782       7.18283124       7.81519234       19       0.00053391      -0.00006177       0.00036293
Cs      12.58381232       0.27901679       7.62643120       20       0.00012535      -0.00017895      -0.00014770
Cs      10.77990161       4.84310608      -3.27111456       21      -0.00021173       0.00023428      -0.00000873
K        7.29763197      -2.35662745       3.05200010       22      -0.00003987      -0.00023360      -0.00032792
In      10.89725609      -0.12600154      -1.91252897       23      -0.00011516       0.00008626       0.00080356
I        0.36100543      -0.59509727       1.74373994       24       0.00021129       0.00014701      -0.00041272
I        5.84568590       6.16141142       5.62824004       25      -0.00019707      -0.00040204       0.00014982
I       11.68287409       2.32448469      -0.38190307       26      -0.00021275      -0.00038984      -0.00029388
I       -5.41450657       3.22162420       7.74363606       27      -0.00006383      -0.00003912      -0.00000931
I        0.26648384       6.15751607       1.47347364       28      -0.00023252       0.00041721      -0.00037719
I        5.95385189      -0.65578519       5.89878511       29       0.00005207       0.00047986       0.00021767
Cs       8.42454091       7.90949704       8.03704260       30      -0.00000835      -0.00008837      -0.00000016
Cs       6.62049356      12.47376015      -2.86036989       31       0.00003636      -0.00009759      -0.00002190
K        3.13826929       5.27395013       3.46263380       32       0.00010792      -0.00033046       0.00005448
In       6.73781905       7.50447665      -1.50157277       33       0.00018979      -0.00016803      -0.00075809
I       -3.79830503       7.03550905       2.15438672       34       0.00014277      -0.00009742      -0.00009541
I       10.00503266      -1.46930842       5.21747412       35       0.00023343       0.00017975      -0.00010481
I        7.52360774       9.95484505       0.02874225       36      -0.00027880       0.00021969       0.00006178
I       -9.57378861      10.85196623       8.15433473       37      -0.00012147       0.00044570       0.00016848
I       -3.89293060      13.78812737       1.88405759       38      -0.00001696       0.00038619      -0.00019408
I        1.79456262       6.97481870       6.30943132       39       0.00001506       0.00017488       0.00043592
