10
Lattice="7.758042922914888 0.0 4.479108130211255 2.586014330569683 7.314353004598425 4.479108130211255 0.0 0.0 8.95821638" Properties=species:S:1:pos:R:3:forces:R:3 energy=-25.45028801640386 stress="-0.0003677783059975383 -4.132058287406588e-10 1.0098776865249651e-09 -4.132058287406588e-10 -0.0003677780138168592 7.140913699261104e-10 1.0098776865249651e-09 7.140913699261104e-10 -0.0003677794694944625" free_energy=-25.45028801640386 pbc="T T T"
Cs       2.58601462       1.82858847       4.47910762       0.00000000       0.00000000      -0.00000002
Cs       7.75804263       5.48576453      13.43732502      -0.00000001      -0.00000001       0.00000001
K        5.17202863       3.65717650       8.95821632       0.00000004       0.00000003       0.00000020
In       0.00000000       0.00000000       0.00000000       0.00000024       0.00000017       0.00000078
I        2.40394122       1.69984313       8.95821653       0.01219559       0.00862358       0.00000005
I        7.94011614       5.61450995       8.95821638      -0.01219581      -0.00862374       0.00000002
I        6.55607243       1.69984320       6.56098239      -0.00609769       0.00862342       0.01056152
I        3.78798496       5.61450995      11.35545057       0.00609800      -0.00862393      -0.01056204
I        3.78798503       5.61450995       6.56098239       0.00609768      -0.00862343       0.01056152
I        6.55607240       1.69984313      11.35545057      -0.00609805       0.00862389      -0.01056204
10
Lattice="7.758250122652203 5.21122401934773e-13 4.4792277570334615 2.5860833971498924 7.314548354383789 4.4792277570334615 -6.569645380245509e-10 -4.645440861059148e-10 8.958455634785501" Properties=species:S:1:pos:R:3:forces:R:3 energy=-25.45032072030051 stress="-0.0003523911452019732 -4.125500748043071e-10 1.0082922243988224e-09 -4.125500748043071e-10 -0.0003523908534849538 7.129702547903842e-10 1.0082922243988224e-09 7.129702547903842e-10 -0.0003523923069024322" free_energy=-25.45032072030051 pbc="T T T"
Cs       2.58608369       1.82863731       4.47922725       0.00000000       0.00000000      -0.00000002
Cs       7.75824983       5.48591105      13.43768390      -0.00000001      -0.00000001       0.00000001
K        5.17216676       3.65727418       8.95845558       0.00000004       0.00000003       0.00000019
In       0.00000000       0.00000000       0.00000001       0.00000022       0.00000016       0.00000069
I        2.40417965       1.70001173       8.95845579       0.01081086       0.00764443       0.00000005
I        7.94015397       5.61453670       8.95845563      -0.01081105      -0.00764457       0.00000002
I        6.55616041       1.70001180       6.56130850      -0.00540533       0.00764428       0.00936232
I        3.78817324       5.61453670      11.35560295       0.00540561      -0.00764474      -0.00936279
I        3.78817332       5.61453670       6.56130850       0.00540532      -0.00764429       0.00936232
I        6.55616038       1.70001173      11.35560295      -0.00540566       0.00764470      -0.00936279
10
Lattice="7.760710063212769 6.915511816734215e-12 4.480648004355332 2.5869033773500525 7.316867608581316 4.4806480043553325 -8.779040899731719e-09 -6.207719245112491e-09 8.961296143534996" Properties=species:S:1:pos:R:3:forces:R:3 energy=-25.45050300151647 stress="-0.00017860070337688118 -4.0478505697776067e-10 9.895134050104223e-10 -4.0478505697776067e-10 -0.00017860041715084496 6.996915824943277e-10 9.895134050104223e-10 6.996915824943277e-10 -0.00017860184380306905" free_energy=-25.45050300151647 pbc="T T T"
Cs       2.58690367       1.82921712       4.48064750       0.00000000       0.00000000      -0.00000003
Cs       7.76070976       5.48765048      13.44194465      -0.00000002      -0.00000001       0.00000001
K        5.17380672       3.65843381       8.96129611       0.00000003       0.00000002       0.00000008
In       0.00000004       0.00000003       0.00000013      -0.00000004      -0.00000003      -0.00000025
I        2.40685864       1.70190606       8.96129630      -0.00452736      -0.00320132      -0.00000000
I        7.94075485       5.61496159       8.96129613       0.00452746       0.00320140      -0.00000004
I        6.55728087       1.70190611       6.56504881       0.00226364      -0.00320130      -0.00392080
I        3.79033275       5.61496155      11.35754357      -0.00226377       0.00320139       0.00392091
I        3.79033278       5.61496164       6.56504881      -0.00226366       0.00320128      -0.00392080
I        6.55728077       1.70190612      11.35754357       0.00226371      -0.00320144       0.00392091
10
Lattice="7.760909245444157 7.63402851110028e-12 4.4807630022681 2.586969771428449 7.317055399389544 4.480763002268101 -9.750589379518125e-09 -6.8947077244908966e-09 8.961526141046376" Properties=species:S:1:pos:R:3:forces:R:3 energy=-25.450509399784874 stress="-0.000171659843172636 -4.041671125015748e-10 9.880230674738821e-10 -4.041671125015748e-10 -0.00017165955738350912 6.986377445553991e-10 9.880230674738821e-10 6.986377445553991e-10 -0.00017166098191837993" free_energy=-25.450509399784874 pbc="T T T"
Cs       2.58697006       1.82926407       4.48076249       0.00000000       0.00000000      -0.00000003
Cs       7.76090894       5.48779132      13.44228965      -0.00000002      -0.00000001       0.00000001
K        5.17393951       3.65852770       8.96152611       0.00000003       0.00000002       0.00000007
In       0.00000004       0.00000003       0.00000013      -0.00000004      -0.00000003      -0.00000026
I        2.40693145       1.70195754       8.96152630      -0.00481230      -0.00340281      -0.00000000
I        7.94094763       5.61509790       8.96152613       0.00481241       0.00340288      -0.00000004
I        6.55744365       1.70195759       6.56522685       0.00240611      -0.00340278      -0.00416757
I        3.79043554       5.61509786      11.35782551      -0.00240625       0.00340289       0.00416769
I        3.79043557       5.61509795       6.56522685      -0.00240613       0.00340277      -0.00416757
I        6.55744355       1.70195759      11.35782551       0.00240619      -0.00340293       0.00416769
10
Lattice="7.7666059217945325 2.9521728311586685e-11 4.48405197982943 2.588868663582741 7.322426277346489 4.484051979829431 -3.972580270256946e-08 -2.8090382888645484e-08 8.968104148175437" Properties=species:S:1:pos:R:3:forces:R:3 energy=-25.450647208589302 stress="-1.84091281416898e-05 -3.8664930391005167e-10 9.457850543175887e-10 -3.8664930391005167e-10 -1.840885473824885e-05 6.687712341149841e-10 9.457850543175887e-10 6.687712341149841e-10 -1.8410219304422612e-05" free_energy=-25.450647208589302 pbc="T T T"
Cs       2.58886895       1.83060679       4.48405147       0.00000001       0.00000001      -0.00000003
Cs       7.76660559       5.49181946      13.45215663      -0.00000002      -0.00000001       0.00000002
K        5.17773730       3.66121314       8.96810416       0.00000002       0.00000002      -0.00000007
In       0.00000006       0.00000004       0.00000012      -0.00000007      -0.00000005      -0.00000018
I        2.40810545       1.70278769       8.96810430      -0.00697400      -0.00493136      -0.00000001
I        7.94736918       5.61963862       8.96810408       0.00697407       0.00493141      -0.00000006
I        6.56255330       1.70278774       6.56953256       0.00348695      -0.00493128      -0.00603962
I        3.79292141       5.61963855      11.36667576      -0.00348710       0.00493146       0.00603978
I        3.79292146       5.61963866       6.56953256      -0.00348694       0.00493128      -0.00603962
I        6.56255317       1.70278773      11.36667576       0.00348706      -0.00493149       0.00603978
10
Lattice="7.769068093137814 3.994448081742146e-11 4.485473515088816 2.5896893873809526 7.324747634744871 4.485473515088817 -5.437183078721313e-08 -3.844668817339092e-08 8.970947244099827" Properties=species:S:1:pos:R:3:forces:R:3 energy=-25.4506888397138 stress="1.8979384950270695e-05 -3.7921201693059396e-10 9.278742150084153e-10 -3.7921201693059396e-10 1.8979653095536198e-05 6.561062697791723e-10 9.278742150084153e-10 6.561062697791723e-10 1.8978313932756195e-05" free_energy=-25.4506888397138 pbc="T T T"
Cs       2.58968967       1.83118712       4.48547300       0.00000001       0.00000001      -0.00000004
Cs       7.76906774       5.49356047      13.45642125      -0.00000002      -0.00000001       0.00000002
K        5.17937875       3.66237382       8.97094727       0.00000003       0.00000002      -0.00000011
In       0.00000006       0.00000004       0.00000008      -0.00000002      -0.00000001       0.00000008
I        2.40802955       1.70273402       8.97094739      -0.00409247      -0.00289381      -0.00000001
I        7.95072798       5.62201365       8.97094715       0.00409246       0.00289380      -0.00000005
I        6.56505341       1.70273408       6.57088837       0.00204621      -0.00289374      -0.00354416
I        3.79370416       5.62201357      11.37100612      -0.00204627       0.00289384       0.00354421
I        3.79370424       5.62201367       6.57088837      -0.00204618       0.00289377      -0.00354416
I        6.56505328       1.70273404      11.37100612       0.00204625      -0.00289385       0.00354421
10
Lattice="7.769782102847941 4.3767963784411486e-11 4.485885748778043 2.589927390623383 7.325420809553367 4.485885748778045 -6.0191896981324e-08 -4.256209635088994e-08 8.971771721569942" Properties=species:S:1:pos:R:3:forces:R:3 energy=-25.45070042373782 stress="1.072724174526437e-05 -3.772768583469517e-10 9.232395229995768e-10 -3.772768583469517e-10 1.0727508522572496e-05 6.528290912311147e-10 9.232395229995768e-10 6.528290912311147e-10 1.0726175910289853e-05" free_energy=-25.45070042373782 pbc="T T T"
Cs       2.58992768       1.83135542       4.48588523       0.00000002       0.00000001      -0.00000004
Cs       7.76978174       5.49406534      13.45765796      -0.00000002      -0.00000001       0.00000003
K        5.17985476       3.66271041       8.97177175       0.00000003       0.00000002      -0.00000011
In       0.00000005       0.00000004       0.00000006       0.00000003       0.00000002       0.00000029
I        2.40761636       1.70244185       8.97177186      -0.00069741      -0.00049314       0.00000000
I        7.95209319       5.62297900       8.97177161       0.00069733       0.00049308      -0.00000004
I        6.56597400       1.70244191       6.57094278       0.00034870      -0.00049310      -0.00060398
I        3.79373555       5.62297891      11.37260067      -0.00034867       0.00049309       0.00060391
I        3.79373565       5.62297901       6.57094278      -0.00034866       0.00049313      -0.00060398
I        6.56597388       1.70244185      11.37260067       0.00034866      -0.00049310       0.00060391
