80
Lattice="21.404261851207064 0.0 0.0 -12.998426354247272 8.942599802952396 0.0 0.0 5.208375742923617 14.431269712415794" Properties=species:S:1:pos:R:3 pbc="T T T"
Cs       0.31394412       3.18091709      -0.00003081
Cs       6.04772549       1.69048379      -0.00003081
K        1.07938173       1.50214272       3.60782346
In       1.07938828       0.20005188       0.00002189
I        2.18139577       1.89343941       1.44362738
I        4.18030049       5.58215072       5.77204270
I        2.80610250       2.08317605       5.77202509
I        7.89602842       0.52101182       1.44360976
I       -3.71574324       4.02000002       1.44361784
I       -1.70409599       3.25555246       5.77202509
Cs       0.31394412       5.78510496       7.21560405
Cs       6.04772549       4.29467166       7.21560405
K        1.07938173       4.10633059      10.82345831
In       1.07938828       2.80423975       7.21565675
I        2.18139577       4.49762728       8.65926223
I        4.18030049       8.18633859      12.98767756
I        2.80610250       4.68736392      12.98765995
I        7.89602842       3.12519969       8.65924462
I       -3.71574324       6.62418789       8.65925270
I       -1.70409599       5.85974034      12.98765995
Cs      -6.18526906       7.65221699      -0.00003081
Cs      -0.45148769       6.16178369      -0.00003081
K       -5.41983145       5.97344262       3.60782346
In      -5.41982489       4.67135178       0.00002189
I       -4.31781740       6.36473931       1.44362738
I       -2.31891269      10.05345062       5.77204270
I       -3.69311067       6.55447595       5.77202509
I        1.39681524       4.99231172       1.44360976
I      -10.21495641       8.49129992       1.44361784
I       -8.20330917       7.72685237       5.77202509
Cs      -6.18526906      10.25640486       7.21560405
Cs      -0.45148769       8.76597156       7.21560405
K       -5.41983145       8.57763049      10.82345831
In      -5.41982489       7.27553965       7.21565675
I       -4.31781740       8.96892718       8.65926223
I       -2.31891269      12.65763849      12.98767756
I       -3.69311067       9.15866383      12.98765995
I        1.39681524       7.59649959       8.65924462
I      -10.21495641      11.09548779       8.65925270
I       -8.20330917      10.33104024      12.98765995
Cs      11.01607505       3.18091709      -0.00003081
Cs      16.74985641       1.69048379      -0.00003081
K       11.78151266       1.50214272       3.60782346
In      11.78151921       0.20005188       0.00002189
I       12.88352670       1.89343941       1.44362738
I       14.88243141       5.58215072       5.77204270
I       13.50823343       2.08317605       5.77202509
I       18.59815935       0.52101182       1.44360976
I        6.98638769       4.02000002       1.44361784
I        8.99803494       3.25555246       5.77202509
Cs      11.01607505       5.78510496       7.21560405
Cs      16.74985641       4.29467166       7.21560405
K       11.78151266       4.10633059      10.82345831
In      11.78151921       2.80423975       7.21565675
I       12.88352670       4.49762728       8.65926223
I       14.88243141       8.18633859      12.98767756
I       13.50823343       4.68736392      12.98765995
I       18.59815935       3.12519969       8.65924462
I        6.98638769       6.62418789       8.65925270
I        8.99803494       5.85974034      12.98765995
Cs       4.51686187       7.65221699      -0.00003081
Cs      10.25064324       6.16178369      -0.00003081
K        5.28229948       5.97344262       3.60782346
In       5.28230603       4.67135178       0.00002189
I        6.38431352       6.36473931       1.44362738
I        8.38321824      10.05345062       5.77204270
I        7.00902025       6.55447595       5.77202509
I       12.09894617       4.99231172       1.44360976
I        0.48717451       8.49129992       1.44361784
I        2.49882176       7.72685237       5.77202509
Cs       4.51686187      10.25640486       7.21560405
Cs      10.25064324       8.76597156       7.21560405
K        5.28229948       8.57763049      10.82345831
In       5.28230603       7.27553965       7.21565675
I        6.38431352       8.96892718       8.65926223
I        8.38321824      12.65763849      12.98767756
I        7.00902025       9.15866383      12.98765995
I       12.09894617       7.59649959       8.65924462
I        0.48717451      11.09548779       8.65925270
I        2.49882176      10.33104024      12.98765995
