80
Lattice="19.929199473765554 -3.857197867968128 0.07023280244997931 -13.430830210634706 16.53378260433296 -1.2473157039904397 -1.0220734720195863 6.090033437686166 18.27655538622679" Properties=species:S:1:pos:R:3:spacegroup_kinds:I:1:forces:R:3 spacegroup="P 1" unit_cell=conventional occupancy="_JSON {\"0\": {\"Cs\": 1.0}, \"1\": {\"Cs\": 1.0}, \"2\": {\"K\": 1.0}, \"3\": {\"In\": 1.0}, \"4\": {\"I\": 1.0}, \"5\": {\"I\": 1.0}, \"6\": {\"I\": 1.0}, \"7\": {\"I\": 1.0}, \"8\": {\"I\": 1.0}, \"9\": {\"I\": 1.0}, \"10\": {\"Cs\": 1.0}, \"11\": {\"Cs\": 1.0}, \"12\": {\"K\": 1.0}, \"13\": {\"In\": 1.0}, \"14\": {\"I\": 1.0}, \"15\": {\"I\": 1.0}, \"16\": {\"I\": 1.0}, \"17\": {\"I\": 1.0}, \"18\": {\"I\": 1.0}, \"19\": {\"I\": 1.0}, \"20\": {\"Cs\": 1.0}, \"21\": {\"Cs\": 1.0}, \"22\": {\"K\": 1.0}, \"23\": {\"In\": 1.0}, \"24\": {\"I\": 1.0}, \"25\": {\"I\": 1.0}, \"26\": {\"I\": 1.0}, \"27\": {\"I\": 1.0}, \"28\": {\"I\": 1.0}, \"29\": {\"I\": 1.0}, \"30\": {\"Cs\": 1.0}, \"31\": {\"Cs\": 1.0}, \"32\": {\"K\": 1.0}, \"33\": {\"In\": 1.0}, \"34\": {\"I\": 1.0}, \"35\": {\"I\": 1.0}, \"36\": {\"I\": 1.0}, \"37\": {\"I\": 1.0}, \"38\": {\"I\": 1.0}, \"39\": {\"I\": 1.0}, \"40\": {\"Cs\": 1.0}, \"41\": {\"Cs\": 1.0}, \"42\": {\"K\": 1.0}, \"43\": {\"In\": 1.0}, \"44\": {\"I\": 1.0}, \"45\": {\"I\": 1.0}, \"46\": {\"I\": 1.0}, \"47\": {\"I\": 1.0}, \"48\": {\"I\": 1.0}, \"49\": {\"I\": 1.0}, \"50\": {\"Cs\": 1.0}, \"51\": {\"Cs\": 1.0}, \"52\": {\"K\": 1.0}, \"53\": {\"In\": 1.0}, \"54\": {\"I\": 1.0}, \"55\": {\"I\": 1.0}, \"56\": {\"I\": 1.0}, \"57\": {\"I\": 1.0}, \"58\": {\"I\": 1.0}, \"59\": {\"I\": 1.0}, \"60\": {\"Cs\": 1.0}, \"61\": {\"Cs\": 1.0}, \"62\": {\"K\": 1.0}, \"63\": {\"In\": 1.0}, \"64\": {\"I\": 1.0}, \"65\": {\"I\": 1.0}, \"66\": {\"I\": 1.0}, \"67\": {\"I\": 1.0}, \"68\": {\"I\": 1.0}, \"69\": {\"I\": 1.0}, \"70\": {\"Cs\": 1.0}, \"71\": {\"Cs\": 1.0}, \"72\": {\"K\": 1.0}, \"73\": {\"In\": 1.0}, \"74\": {\"I\": 1.0}, \"75\": {\"I\": 1.0}, \"76\": {\"I\": 1.0}, \"77\": {\"I\": 1.0}, \"78\": {\"I\": 1.0}, \"79\": {\"I\": 1.0}}" energy=-204.14829570758502 free_energy=-204.14829570758502 stress="-3.080454869111758e-08 1.9110780971389002e-08 -1.9858195014936802e-07 1.9110780971389002e-08 -1.650272657386679e-07 -2.625966218391638e-09 -1.9858195014936802e-07 -2.625966218391638e-09 -2.5781713115201537e-08" pbc="T T T"
Cs      -0.85018522      10.55612897      15.41959132        0      -0.00005322       0.00001676       0.00019686
Cs       3.37045332       7.62319103      17.67298083        1       0.00021104       0.00003245      -0.00031351
K        1.13948767       1.89273273       5.37272248        2      -0.00015242       0.00010756       0.00022341
In      -0.50157106       0.17548919       1.54619818        3       0.00016676      -0.00016485      -0.00027567
I        1.54640862       4.04249857       0.87190633        4      -0.00029165      -0.00002633      -0.00015431
I        2.38346113       5.22316483       5.12858808        5       0.00015475      -0.00032606      -0.00000134
I        3.18729904       0.83900910       7.93882245        6       0.00029676       0.00055708      -0.00012538
I        7.98158345       0.19140339       2.87231910        7      -0.00029957      -0.00029529       0.00019988
I       -4.61447530       8.27982587       1.83490724        8       0.00013336      -0.00001993      -0.00027983
I       19.02497064       0.03947223       8.01812464        9       0.00012089       0.00005662       0.00012461
Cs      -0.33659021       7.51168062       6.28165798       10       0.00009814       0.00025919       0.00018615
Cs       3.87931356       4.57403038       8.53288030       11      -0.00005057       0.00006980       0.00019287
K        0.62770193       4.94117814      14.51318392       12      -0.00007669       0.00013034       0.00006553
In      -1.01112064       3.22223567      10.68404633       13      -0.00004636       0.00014493      -0.00018003
I        1.03802975       7.08884289      10.01071605       14      -0.00013149      -0.00003117      -0.00028302
I        1.87295737       8.27082287      14.26883964       15      -0.00005435      -0.00012823       0.00028637
I        2.67897248       3.88798894      17.07679776       16       0.00015679      -0.00005370      -0.00005829
I        7.46933708       3.23492831      12.01033651       17      -0.00025896      -0.00011638      -0.00003136
I       -5.12653061      11.32144283      10.97007688       18      -0.00000191       0.00016870       0.00008713
I       18.50953213       3.08395761      17.15687463       19       0.00023868       0.00006309       0.00025371
Cs      -7.56338013      18.82406189      14.79836958       20       0.00003047       0.00011830      -0.00000732
Cs      -3.34907166      15.88754208      17.04949568       21       0.00003516       0.00001887       0.00004413
K       -5.57572583      10.16299556       4.75358672       22       0.00012366      -0.00016546       0.00004086
In      -7.21654961       8.44383963       0.92428083       23      -0.00008635      -0.00006530       0.00021003
I       -5.16926077      12.31179560       0.25163974       24       0.00032657      -0.00010867      -0.00011429
I       -4.33010718      13.49209762       4.50938767       25      -0.00011153       0.00025441      -0.00036341
I       -3.52339436       9.11081411       7.31671602       26      -0.00007618       0.00005470      -0.00006596
I        1.26423655       8.45577855       2.24758046       27       0.00006152       0.00019816      -0.00029125
I      -11.32943978      16.54364266       1.20685319       28      -0.00010913       0.00010211       0.00017674
I       -7.62441202      12.16298611       7.32547497       29      -0.00000746      -0.00030319      -0.00005745
Cs      -7.05418532      15.77747481       5.65830435       30       0.00053857      -0.00004019      -0.00012817
Cs      -2.83296292      12.84695362       7.91357353       31       0.00027746      -0.00031263       0.00010152
K       -6.08866255      13.20451356      13.88906652       32       0.00007361       0.00013119      -0.00035175
In      -7.72916584      11.48712113      10.06139309       33      -0.00025561      -0.00027626       0.00027000
I       -5.68248268      15.35493176       9.38800977       34       0.00020378       0.00014569      -0.00016136
I       -4.84460343      16.53471273      13.64455818       35       0.00031698       0.00012240       0.00027201
I       -4.03912747      12.15236260      16.45404873       36       0.00022107      -0.00041852       0.00026995
I        0.75329515      11.50217611      11.38350625       37      -0.00012432       0.00007876       0.00005554
I      -11.83997599      19.59261426      10.34791426       38      -0.00020559      -0.00041919      -0.00040064
I       11.79745219      11.35151146      16.53504066       39      -0.00014666       0.00012202      -0.00007050
Cs       9.11899967       8.62603338      15.45672298       40      -0.00010300      -0.00014398      -0.00006440
Cs      13.33573611       5.68738280      17.70779143       41      -0.00018798       0.00045206      -0.00023848
K       11.10550964      -0.03340907       5.41083958       42      -0.00017672      -0.00016867       0.00004636
In       9.46273425      -1.75070031       1.58336857       43       0.00007395       0.00012067      -0.00012165
I       11.51693040       2.11277389       0.90851241       44       0.00013145      -0.00006994       0.00013309
I       12.35261936       3.29504275       5.16781209       45      -0.00024031       0.00018881      -0.00001990
I       13.15865926      -1.08716462       7.97297038       46      -0.00052539      -0.00014323       0.00008068
I       17.94394209      -1.74207735       2.90624884       47      -0.00024561       0.00011051       0.00008894
I        5.34858393       6.34593085       1.86409279       48      -0.00008803       0.00004841       0.00030748
I        9.05597385       1.96627906       7.98395000       49       0.00000795       0.00024936      -0.00007454
Cs       9.62774758       5.57954412       6.31670875       50       0.00009506      -0.00001882       0.00018939
Cs      13.85047783       2.64725077       8.57188644       51      -0.00003481      -0.00019283      -0.00009778
K       10.59208888       3.00824408      14.54649967       52       0.00004671       0.00006830      -0.00005643
In       8.94914597       1.29257748      10.72030886       53       0.00011215      -0.00029557      -0.00003803
I       11.00344026       5.15648883      10.04548999       54       0.00009128       0.00005703      -0.00006443
I       11.83886779       6.33750279      14.30352354       55       0.00009785      -0.00029577       0.00041065
I       12.64182161       1.95383060      17.11131221       56      -0.00005386       0.00006038      -0.00014557
I       17.43188020       1.30387828      12.04237356       57       0.00008520      -0.00001891       0.00006411
I        4.83836724       9.39445893      11.00553734       58       0.00031879      -0.00018430      -0.00023822
I        8.54860885       5.01239446      17.12354190       59      -0.00021507      -0.00003709      -0.00017690
Cs       2.40132818      16.89263957      14.83299039       60      -0.00026537      -0.00014824      -0.00038301
Cs       6.62277152      13.95778707      17.08342639       61       0.00007679      -0.00008108       0.00023437
K        4.38841855       8.23053271       4.78335902       62       0.00019768      -0.00012875       0.00017467
In       2.74546172       6.51476511       0.95706420       63       0.00006160      -0.00006792      -0.00003829
I        4.80058290      10.37842425       0.28358707       64      -0.00024854       0.00008207       0.00002304
I        5.63567037      11.55930271       4.54040408       65      -0.00003732       0.00037191      -0.00009244
I        6.43777765       7.17534705       7.34840010       66       0.00017625      -0.00000600      -0.00027076
I       11.22634093       6.52519563       2.28298785       67       0.00048298       0.00003896       0.00002966
I       -1.36567474      14.61429500       1.24507855       68      -0.00011934       0.00000639      -0.00006496
I        2.34486912      10.23446732       7.35862785       69      -0.00034517      -0.00015557       0.00020543
Cs       2.91547010      13.84827238       5.69268476       70      -0.00010511      -0.00008680       0.00007555
Cs       7.13203619      10.90881056       7.94444207       71      -0.00037998      -0.00000219       0.00013585
K        3.87721608      11.27872479      13.92393227       72      -0.00006170       0.00010049      -0.00016927
In       2.23645667       9.56138763      10.09491554       73       0.00008906       0.00017233       0.00002117
I        4.29193795      13.42480883       9.42101660       74      -0.00006040      -0.00007238       0.00036242
I        5.12436570      14.60783025      13.68056666       75      -0.00026351      -0.00015588      -0.00025946
I        5.92997229      10.22357695      16.48585513       76      -0.00023747       0.00002316       0.00025409
I       10.71558413       9.56878968      11.42172264       77       0.00015477       0.00032777      -0.00014392
I       -1.87881494      17.65602152      10.38041148       78       0.00021248       0.00034527       0.00026088
I        1.82884910      13.27905263      16.49731670       79       0.00023667      -0.00003173       0.00011816
