80
Lattice="18.356907033050273 -0.00833393964079116 -0.021014443331706538 9.160691788160761 14.821999784707632 0.347547420042984 9.170206494699878 5.275300256755369 15.11425705090515" Properties=species:S:1:pos:R:3:spacegroup_kinds:I:1:forces:R:3 spacegroup="P 1" unit_cell=conventional occupancy="_JSON {\"0\": {\"Cs\": 1.0}, \"1\": {\"Cs\": 1.0}, \"2\": {\"K\": 1.0}, \"3\": {\"In\": 1.0}, \"4\": {\"I\": 1.0}, \"5\": {\"I\": 1.0}, \"6\": {\"I\": 1.0}, \"7\": {\"I\": 1.0}, \"8\": {\"I\": 1.0}, \"9\": {\"I\": 1.0}, \"10\": {\"Cs\": 1.0}, \"11\": {\"Cs\": 1.0}, \"12\": {\"K\": 1.0}, \"13\": {\"In\": 1.0}, \"14\": {\"I\": 1.0}, \"15\": {\"I\": 1.0}, \"16\": {\"I\": 1.0}, \"17\": {\"I\": 1.0}, \"18\": {\"I\": 1.0}, \"19\": {\"I\": 1.0}, \"20\": {\"Cs\": 1.0}, \"21\": {\"Cs\": 1.0}, \"22\": {\"K\": 1.0}, \"23\": {\"In\": 1.0}, \"24\": {\"I\": 1.0}, \"25\": {\"I\": 1.0}, \"26\": {\"I\": 1.0}, \"27\": {\"I\": 1.0}, \"28\": {\"I\": 1.0}, \"29\": {\"I\": 1.0}, \"30\": {\"Cs\": 1.0}, \"31\": {\"Cs\": 1.0}, \"32\": {\"K\": 1.0}, \"33\": {\"In\": 1.0}, \"34\": {\"I\": 1.0}, \"35\": {\"I\": 1.0}, \"36\": {\"I\": 1.0}, \"37\": {\"I\": 1.0}, \"38\": {\"I\": 1.0}, \"39\": {\"I\": 1.0}, \"40\": {\"Cs\": 1.0}, \"41\": {\"Cs\": 1.0}, \"42\": {\"K\": 1.0}, \"43\": {\"In\": 1.0}, \"44\": {\"I\": 1.0}, \"45\": {\"I\": 1.0}, \"46\": {\"I\": 1.0}, \"47\": {\"I\": 1.0}, \"48\": {\"I\": 1.0}, \"49\": {\"I\": 1.0}, \"50\": {\"Cs\": 1.0}, \"51\": {\"Cs\": 1.0}, \"52\": {\"K\": 1.0}, \"53\": {\"In\": 1.0}, \"54\": {\"I\": 1.0}, \"55\": {\"I\": 1.0}, \"56\": {\"I\": 1.0}, \"57\": {\"I\": 1.0}, \"58\": {\"I\": 1.0}, \"59\": {\"I\": 1.0}, \"60\": {\"Cs\": 1.0}, \"61\": {\"Cs\": 1.0}, \"62\": {\"K\": 1.0}, \"63\": {\"In\": 1.0}, \"64\": {\"I\": 1.0}, \"65\": {\"I\": 1.0}, \"66\": {\"I\": 1.0}, \"67\": {\"I\": 1.0}, \"68\": {\"I\": 1.0}, \"69\": {\"I\": 1.0}, \"70\": {\"Cs\": 1.0}, \"71\": {\"Cs\": 1.0}, \"72\": {\"K\": 1.0}, \"73\": {\"In\": 1.0}, \"74\": {\"I\": 1.0}, \"75\": {\"I\": 1.0}, \"76\": {\"I\": 1.0}, \"77\": {\"I\": 1.0}, \"78\": {\"I\": 1.0}, \"79\": {\"I\": 1.0}}" energy=-205.19156384599034 free_energy=-205.19156384599034 stress="-9.81886741952862e-07 4.887098144680166e-07 -7.006912837248874e-07 4.887098144680166e-07 -4.028685352755569e-07 1.7246214976145095e-07 -7.006912837248874e-07 1.7246214976145095e-07 5.007454945009122e-07" pbc="T T T"
Cs       4.60075444       2.68686623       1.85492746        0      -0.00002240      -0.00001900      -0.00012649
Cs      13.74200273       7.35687446       5.86490681        1       0.00005378       0.00024132      -0.00024303
K        9.17176374       5.02206075       3.86067704        2      -0.00005353       0.00008767      -0.00027696
In      18.35706715      -0.00836548      -0.02115592        3      -0.00035588      -0.00034250      -0.00014501
I        6.24597786       3.63505465       5.29221366        4      -0.00002830       0.00038855       0.00000096
I       12.09727998       6.40835713       2.42685636        5       0.00000474      -0.00004482       0.00003642
I        9.87316333       2.40513348       1.58694887        6       0.00001779      -0.00097416      -0.00022150
I        8.47101375       7.63973086       6.13336425        7      -0.00013976       0.00010610       0.00056988
I        6.96106725       6.01214941       1.28390817        8      -0.00009434      -0.00003755      -0.00020665
I       11.38192081       4.03099905       6.43669456        9      -0.00008733       0.00012724      -0.00000922
Cs       9.18606043       5.32317824       9.41402069       10       0.00010032       0.00005258      -0.00014552
Cs      18.32866269       9.99640413      13.42179846       11      -0.00018648       0.00001977      -0.00007738
K       13.75753913       7.65998522      11.41775940       12      -0.00013937       0.00010972      -0.00046474
In      22.94199518       2.62874522       7.53620293       13      -0.00044882      -0.00032067      -0.00016356
I       10.83311642       6.27324340      12.85088898       14       0.00015385       0.00064068      -0.00018521
I       16.68251630       9.04593913       9.98463820       15       0.00014643       0.00035199       0.00001312
I       14.45769622       5.04303979       9.14249309       16       0.00022745      -0.00033249       0.00050670
I       13.05508594      10.27871085      13.68980962       17       0.00008586      -0.00045089       0.00036440
I       11.54642699       8.65040327       8.84148410       18       0.00034757      -0.00021025       0.00023418
I       15.96861463       6.67089726      13.99338260       19      -0.00058162       0.00013255      -0.00025742
Cs       9.18220055      10.09685262       2.03010030       20      -0.00018449       0.00002356      -0.00035758
Cs      18.32253358      14.77017654       6.03681858       21       0.00016846      -0.00007246       0.00025388
K       13.75228908      12.43269604       4.03479031       22       0.00001355       0.00024872      -0.00032070
In      22.93751158       7.40325333       0.15254430       23       0.00016029      -0.00006308       0.00022803
I       10.82689408      11.04731152       5.46701870       24      -0.00009097       0.00012517      -0.00007030
I       16.67713193      13.81867755       2.60006395       25      -0.00041552       0.00004587       0.00021078
I       14.45335115       9.81672661       1.75953178       26       0.00011119      -0.00019305       0.00067415
I       13.05076693      15.04998064       6.30796960       27      -0.00016275       0.00005784       0.00026482
I       11.54074156      13.42250118       1.45872799       28      -0.00008446       0.00019917       0.00001392
I       15.96311115      11.44385944       6.61038554       29       0.00044060      -0.00033460      -0.00007131
Cs      13.76613887      12.73416425       9.58703730       30      -0.00007768       0.00003126      -0.00006053
Cs      22.90816893      17.40751236      13.59633925       31       0.00006414       0.00006494      -0.00024124
K       18.33769961      15.07063507      11.59147214       32      -0.00009423       0.00005677      -0.00061802
In      27.52238175      10.04024508       7.71010678       33      -0.00000984      -0.00013660      -0.00013119
I       15.41226022      13.68484984      13.02351373       34       0.00021616       0.00024866       0.00015592
I       21.26374852      16.45624490      10.15898904       35      -0.00032606       0.00025836       0.00015729
I       19.03882255      12.45416695       9.31645391       36      -0.00005761      -0.00015582       0.00063162
I       17.63603147      17.68936965      13.86300231       37       0.00026063      -0.00018847       0.00064883
I       16.12715624      16.06149107       9.01490603       38       0.00037131      -0.00027480       0.00000289
I       20.54834329      14.08127567      14.16724270       39      -0.00026341       0.00000321      -0.00030105
Cs      13.77977132       2.68216884       1.84470046       40      -0.00024345      -0.00001653      -0.00015659
Cs      22.92070999       7.35288783       5.85446461       41       0.00026786       0.00032015      -0.00008419
K       18.35040275       5.01781456       3.85033220       42       0.00001180       0.00025718      -0.00009223
In       9.17859035      -0.00407944      -0.01056673       43       0.00038342       0.00024276       0.00028983
I       15.42459929       3.63098657       5.28186208       44       0.00007495       0.00040132       0.00035189
I       21.27591672       6.40467118       2.41673183       45      -0.00044038      -0.00023971      -0.00016381
I       19.05130955       2.40055613       1.57626480       46       0.00023094      -0.00016491       0.00034128
I       17.64867306       7.63601984       6.12312863       47       0.00008362      -0.00027279       0.00016037
I       16.13999418       6.00896584       1.27392150       48      -0.00004560      -0.00015373       0.00000922
I       20.56008558       4.02664567       6.42641665       49       0.00028910       0.00008051       0.00001321
Cs      18.36422930       5.31931818       9.40347476       50       0.00001513       0.00003490      -0.00015086
Cs      27.50604540       9.99133584      13.41157648       51      -0.00007050       0.00024931      -0.00022134
K       22.93577411       7.65541568      11.40698364       52      -0.00009072       0.00013472      -0.00042660
In      13.76346288       2.63287708       7.54677365       53       0.00054009       0.00016796      -0.00006391
I       20.01092880       6.26974947      12.84012848       54       0.00032232       0.00044246       0.00006183
I       25.86145075       9.04075557       9.97412697       55      -0.00016362       0.00014370       0.00009545
I       23.63635883       5.03891332       9.13161430       56       0.00010606      -0.00024222       0.00068253
I       22.23470210      10.27404209      13.67958801       57       0.00037141      -0.00039506       0.00016325
I       20.72454717       8.64571548       8.83113518       58       0.00004720      -0.00009173      -0.00001254
I       25.14696849       6.66688793      13.98248054       59       0.00016640      -0.00030877      -0.00016930
Cs      18.35963097      10.09244234       2.01998827       60      -0.00011610       0.00015059      -0.00038273
Cs      27.50061639      14.76507784       6.02642382       61       0.00022575       0.00017031       0.00027402
K       22.93062319      12.42814840       4.02427052       62       0.00010690       0.00026580      -0.00040484
In      13.75918170       7.40730281       0.16310816       63      -0.00017675      -0.00004107      -0.00004621
I       20.00572560      11.04275591       5.45647451       64      -0.00020787       0.00009340      -0.00028636
I       25.85483840      13.81480006       2.58915482       65      -0.00012003      -0.00011603       0.00035443
I       23.63307395       9.81220588       1.74923858       66       0.00001410      -0.00021195       0.00047308
I       22.22937206      15.04606643       6.29740999       67      -0.00007245      -0.00063775      -0.00004784
I       20.71940036      13.41890846       1.44808319       68       0.00028779      -0.00004708       0.00003476
I       25.14128819      11.43863899       6.60026807       69      -0.00041583       0.00003771      -0.00063633
Cs      22.94499869      12.73036119       9.57669623       70       0.00015738       0.00007975       0.00011052
Cs      32.08672510      17.40290460      13.58602378       71      -0.00004068       0.00014503      -0.00017548
K       27.51633512      15.06651566      11.58121632       72      -0.00001147       0.00018229      -0.00060182
In      18.34398216      10.04467366       7.72053239       73      -0.00050481      -0.00002183      -0.00008852
I       24.59090258      13.68123258      13.01338586       74      -0.00012248      -0.00003795       0.00014341
I       30.44241941      16.45172482      10.14858065       75       0.00001322       0.00064654      -0.00017110
I       28.21617368      12.44997627       9.30640122       76       0.00040700      -0.00048080       0.00032313
I       26.81473481      17.68520962      13.85267310       77       0.00000188      -0.00022765       0.00061133
I       25.30554544      16.05695764       9.00464482       78      -0.00011139       0.00027985      -0.00030842
I       29.72713123      14.07841999      14.15741319       79      -0.00020947      -0.00028919      -0.00007568
