20
Lattice="18.320859122565665 -1.6720117878384306 -1.375212490727741 5.436977701705461 6.784079997317907 1.3197200141970677 5.3249628491191485 0.6468631343094323 7.520144093711304" Properties=species:S:1:pos:R:3:spacegroup_kinds:I:1:forces:R:3 spacegroup="P 1" unit_cell=conventional occupancy="_JSON {\"0\": {\"Cs\": 1.0}, \"1\": {\"Cs\": 1.0}, \"2\": {\"K\": 1.0}, \"3\": {\"In\": 1.0}, \"4\": {\"I\": 1.0}, \"5\": {\"I\": 1.0}, \"6\": {\"I\": 1.0}, \"7\": {\"I\": 1.0}, \"8\": {\"I\": 1.0}, \"9\": {\"I\": 1.0}, \"10\": {\"Cs\": 1.0}, \"11\": {\"Cs\": 1.0}, \"12\": {\"K\": 1.0}, \"13\": {\"In\": 1.0}, \"14\": {\"I\": 1.0}, \"15\": {\"I\": 1.0}, \"16\": {\"I\": 1.0}, \"17\": {\"I\": 1.0}, \"18\": {\"I\": 1.0}, \"19\": {\"I\": 1.0}}" energy=-51.29788377760517 free_energy=-51.29788377760517 stress="-4.543697879678745e-06 7.727827881984616e-06 -2.3400958912802263e-06 7.727827881984616e-06 4.182895503767246e-06 6.221347888816828e-06 -2.3400958912802263e-06 6.221347888816828e-06 1.4860660496392976e-05" pbc="T T T"
Cs       4.99966499       1.83821036       2.03081904        0       0.00037648       0.00008808       0.00016209
Cs      14.92208526       4.75649828       6.12123257        1       0.00030680       0.00002579       0.00021102
K        9.96093860       3.29727060       4.07574903        2       0.00043119       0.00031723       0.00028845
In      18.32084840      -1.67185568      -1.37520958        3       0.00011922      -0.00034604      -0.00000967
I        6.98788257       1.92337602       5.40745069        4      -0.00057743      -0.00025090      -0.00005036
I       12.93508968       4.67174664       2.74517371        5      -0.00043381       0.00014616      -0.00019152
I       10.23389920       1.07441370       1.33340322        6      -0.00034290       0.00035809      -0.00040174
I        9.68891812       5.52051106       6.81895710        7      -0.00020061      -0.00015715       0.00019718
I        7.67107661       4.91880623       1.92344125        8       0.00000059      -0.00005125       0.00003582
I       12.25113063       1.67617243       6.22885958        9       0.00043354      -0.00007442      -0.00002844
Cs      14.16010009       1.00219694       1.34320353       10       0.00032754       0.00011686       0.00021701
Cs      24.08251201       3.92049062       5.43362242       11       0.00034749       0.00001796       0.00022144
K       19.12138875       2.46124034       3.38811777       12       0.00033825       0.00038464       0.00037264
In       9.16050250      -0.83590599      -0.68762910       13      -0.00050762       0.00006471       0.00014697
I       16.14828609       1.08737971       4.71987710       14      -0.00038752      -0.00017342      -0.00029747
I       22.09549793       3.83574317       2.05758492       15      -0.00037168       0.00017778      -0.00022531
I       19.39432412       0.23847771       0.64586491       16      -0.00040337       0.00015313      -0.00059519
I       18.84933718       4.68455555       6.13140301       17      -0.00022245      -0.00037933      -0.00005134
I       16.83142955       4.08287611       1.23587247       18       0.00046228      -0.00045283       0.00005160
I       21.41157182       0.84015721       5.54124981       19       0.00030402       0.00003490      -0.00005318
