80
Lattice="18.20188842964528 0.0 0.0 1.6186545000632464 19.823499427506935 0.0 12.913606906314856 0.011682672912458947 10.44515701967" Properties=species:S:1:pos:R:3 pbc="T T T"
Cs       4.09166254       2.47936632       1.30565840
Cs      12.27541216       7.43822390       3.91691957
K        8.18353733       4.95879501       2.61128891
In       0.00000018       0.00000063       0.00000026
I        8.30767872       0.82540001       2.28351205
I        8.05939594       9.09218954       2.93906578
I       10.97595640       3.38707405       1.65879517
I        5.39111685       6.53051555       3.56378237
I        4.44249836       7.20965217       0.76849233
I       11.92457696       2.70794033       4.45408697
Cs      10.54846600       2.48520766       6.52823691
Cs      18.73221561       7.44406523       9.13949808
K       14.64034079       4.96463635       7.83386742
In       6.45680363       0.00584196       5.22257877
I       14.76448218       0.83124134       7.50609056
I       14.51619940       9.09803088       8.16164429
I       17.43275986       3.39291538       6.88137368
I       11.84792031       6.53635689       8.78636088
I       10.89930182       7.21549351       5.99107084
I       18.38138041       2.71378167       9.67666548
Cs       4.90098979      12.39111603       1.30565840
Cs      13.08473941      17.34997361       3.91691957
K        8.99286458      14.87054473       2.61128891
In       0.80932743       9.91175034       0.00000026
I        9.11700597      10.73714972       2.28351205
I        8.86872319      19.00393926       2.93906578
I       11.78528365      13.29882376       1.65879517
I        6.20044410      16.44226527       3.56378237
I        5.25182561      17.12140188       0.76849233
I       12.73390421      12.61969005       4.45408697
Cs      11.35779325      12.39695737       6.52823691
Cs      19.54154286      17.35581495       9.13949808
K       15.44966804      14.87638606       7.83386742
In       7.26613088       9.91759168       5.22257877
I       15.57380943      10.74299106       7.50609056
I       15.32552665      19.00978059       8.16164429
I       18.24208711      13.30466510       6.88137368
I       12.65724756      16.44810660       8.78636088
I       11.70862907      17.12724322       5.99107084
I       19.19070766      12.62553138       9.67666548
Cs      13.19260676       2.47936632       1.30565840
Cs      21.37635638       7.43822390       3.91691957
K       17.28448155       4.95879501       2.61128891
In       9.10094439       0.00000063       0.00000026
I       17.40862294       0.82540001       2.28351205
I       17.16034016       9.09218954       2.93906578
I       20.07690062       3.38707405       1.65879517
I       14.49206107       6.53051555       3.56378237
I       13.54344258       7.20965217       0.76849233
I       21.02552117       2.70794033       4.45408697
Cs      19.64941021       2.48520766       6.52823691
Cs      27.83315983       7.44406523       9.13949808
K       23.74128500       4.96463635       7.83386742
In      15.55774785       0.00584196       5.22257877
I       23.86542639       0.83124134       7.50609056
I       23.61714361       9.09803088       8.16164429
I       26.53370407       3.39291538       6.88137368
I       20.94886452       6.53635689       8.78636088
I       20.00024603       7.21549351       5.99107084
I       27.48232463       2.71378167       9.67666548
Cs      14.00193401      12.39111603       1.30565840
Cs      22.18568363      17.34997361       3.91691957
K       18.09380880      14.87054473       2.61128891
In       9.91027164       9.91175034       0.00000026
I       18.21795019      10.73714972       2.28351205
I       17.96966741      19.00393926       2.93906578
I       20.88622787      13.29882376       1.65879517
I       15.30138832      16.44226527       3.56378237
I       14.35276983      17.12140188       0.76849233
I       21.83484842      12.61969005       4.45408697
Cs      20.45873746      12.39695737       6.52823691
Cs      28.64248708      17.35581495       9.13949808
K       24.55061225      14.87638606       7.83386742
In      16.36707510       9.91759168       5.22257877
I       24.67475364      10.74299106       7.50609056
I       24.42647086      19.00978059       8.16164429
I       27.34303132      13.30466510       6.88137368
I       21.75819177      16.44810660       8.78636088
I       20.80957328      17.12724322       5.99107084
I       28.29165188      12.62553138       9.67666548
