80
Lattice="19.526728983936362 0.0 0.0 -8.40878633398816 14.564445160458341 0.0 0.0 0.0 18.540463654185256" Properties=species:S:1:pos:R:3 pbc="T T T"
Cs       5.62486826       2.42983290       9.26150154
Cs       0.96894904       4.85724042       0.00869528
K        0.51742457       0.00242312       4.63511671
In       0.51742840       0.00242470       0.00000983
I        7.72106773       0.00747956       1.85434776
I       -1.12725358       7.27957920       7.41589149
I        1.97997905       1.90947265       1.85435128
I        4.61385027       5.37760898       7.41589500
I        7.17356237       5.37254567       1.85434635
I       -0.57974521       1.91453227       7.41589007
Cs       5.62486826       2.42983290      18.53173337
Cs       0.96894904       4.85724042       9.27892710
K        0.51742457       0.00242312      13.90534854
In       0.51742840       0.00242470       9.27024166
I        7.72106773       0.00747956      11.12457959
I       -1.12725358       7.27957920      16.68612331
I        1.97997905       1.90947265      11.12458310
I        4.61385027       5.37760898      16.68612683
I        7.17356237       5.37254567      11.12457818
I       -0.57974521       1.91453227      16.68612190
Cs       1.42047509       9.71205548       9.26150154
Cs      -3.23544413      12.13946300       0.00869528
K       -3.68696859       7.28464570       4.63511671
In      -3.68696477       7.28464728       0.00000983
I        3.51667456       7.28970214       1.85434776
I       -5.33164674      14.56180178       7.41589149
I       -2.22441412       9.19169523       1.85435128
I        0.40945710      12.65983156       7.41589500
I        2.96916921      12.65476825       1.85434635
I       -4.78413837       9.19675485       7.41589007
Cs       1.42047509       9.71205548      18.53173337
Cs      -3.23544413      12.13946300       9.27892710
K       -3.68696859       7.28464570      13.90534854
In      -3.68696477       7.28464728       9.27024166
I        3.51667456       7.28970214      11.12457959
I       -5.33164674      14.56180178      16.68612331
I       -2.22441412       9.19169523      11.12458310
I        0.40945710      12.65983156      16.68612683
I        2.96916921      12.65476825      11.12457818
I       -4.78413837       9.19675485      16.68612190
Cs      15.38823275       2.42983290       9.26150154
Cs      10.73231353       4.85724042       0.00869528
K       10.28078906       0.00242312       4.63511671
In      10.28079289       0.00242470       0.00000983
I       17.48443222       0.00747956       1.85434776
I        8.63611092       7.27957920       7.41589149
I       11.74334354       1.90947265       1.85435128
I       14.37721476       5.37760898       7.41589500
I       16.93692687       5.37254567       1.85434635
I        9.18361929       1.91453227       7.41589007
Cs      15.38823275       2.42983290      18.53173337
Cs      10.73231353       4.85724042       9.27892710
K       10.28078906       0.00242312      13.90534854
In      10.28079289       0.00242470       9.27024166
I       17.48443222       0.00747956      11.12457959
I        8.63611092       7.27957920      16.68612331
I       11.74334354       1.90947265      11.12458310
I       14.37721476       5.37760898      16.68612683
I       16.93692687       5.37254567      11.12457818
I        9.18361929       1.91453227      16.68612190
Cs      11.18383958       9.71205548       9.26150154
Cs       6.52792036      12.13946300       0.00869528
K        6.07639590       7.28464570       4.63511671
In       6.07639973       7.28464728       0.00000983
I       13.28003905       7.28970214       1.85434776
I        4.43171775      14.56180178       7.41589149
I        7.53895037       9.19169523       1.85435128
I       10.17282159      12.65983156       7.41589500
I       12.73253370      12.65476825       1.85434635
I        4.97922612       9.19675485       7.41589007
Cs      11.18383958       9.71205548      18.53173337
Cs       6.52792036      12.13946300       9.27892710
K        6.07639590       7.28464570      13.90534854
In       6.07639973       7.28464728       9.27024166
I       13.28003905       7.28970214      11.12457959
I        4.43171775      14.56180178      16.68612331
I        7.53895037       9.19169523      11.12458310
I       10.17282159      12.65983156      16.68612683
I       12.73253370      12.65476825      11.12457818
I        4.97922612       9.19675485      16.68612190
