80
Lattice="18.580309890482987 -0.8135517223550054 0.0016922552342215473 -8.58631569611793 16.497812161671924 -0.013851683297239905 -0.0016260627140039536 0.012671538167402538 17.65743362326167" Properties=species:S:1:pos:R:3:spacegroup_kinds:I:1:forces:R:3 spacegroup="P 1" unit_cell=conventional occupancy="_JSON {\"0\": {\"Cs\": 1.0}, \"1\": {\"Cs\": 1.0}, \"2\": {\"K\": 1.0}, \"3\": {\"In\": 1.0}, \"4\": {\"I\": 1.0}, \"5\": {\"I\": 1.0}, \"6\": {\"I\": 1.0}, \"7\": {\"I\": 1.0}, \"8\": {\"I\": 1.0}, \"9\": {\"I\": 1.0}, \"10\": {\"Cs\": 1.0}, \"11\": {\"Cs\": 1.0}, \"12\": {\"K\": 1.0}, \"13\": {\"In\": 1.0}, \"14\": {\"I\": 1.0}, \"15\": {\"I\": 1.0}, \"16\": {\"I\": 1.0}, \"17\": {\"I\": 1.0}, \"18\": {\"I\": 1.0}, \"19\": {\"I\": 1.0}, \"20\": {\"Cs\": 1.0}, \"21\": {\"Cs\": 1.0}, \"22\": {\"K\": 1.0}, \"23\": {\"In\": 1.0}, \"24\": {\"I\": 1.0}, \"25\": {\"I\": 1.0}, \"26\": {\"I\": 1.0}, \"27\": {\"I\": 1.0}, \"28\": {\"I\": 1.0}, \"29\": {\"I\": 1.0}, \"30\": {\"Cs\": 1.0}, \"31\": {\"Cs\": 1.0}, \"32\": {\"K\": 1.0}, \"33\": {\"In\": 1.0}, \"34\": {\"I\": 1.0}, \"35\": {\"I\": 1.0}, \"36\": {\"I\": 1.0}, \"37\": {\"I\": 1.0}, \"38\": {\"I\": 1.0}, \"39\": {\"I\": 1.0}, \"40\": {\"Cs\": 1.0}, \"41\": {\"Cs\": 1.0}, \"42\": {\"K\": 1.0}, \"43\": {\"In\": 1.0}, \"44\": {\"I\": 1.0}, \"45\": {\"I\": 1.0}, \"46\": {\"I\": 1.0}, \"47\": {\"I\": 1.0}, \"48\": {\"I\": 1.0}, \"49\": {\"I\": 1.0}, \"50\": {\"Cs\": 1.0}, \"51\": {\"Cs\": 1.0}, \"52\": {\"K\": 1.0}, \"53\": {\"In\": 1.0}, \"54\": {\"I\": 1.0}, \"55\": {\"I\": 1.0}, \"56\": {\"I\": 1.0}, \"57\": {\"I\": 1.0}, \"58\": {\"I\": 1.0}, \"59\": {\"I\": 1.0}, \"60\": {\"Cs\": 1.0}, \"61\": {\"Cs\": 1.0}, \"62\": {\"K\": 1.0}, \"63\": {\"In\": 1.0}, \"64\": {\"I\": 1.0}, \"65\": {\"I\": 1.0}, \"66\": {\"I\": 1.0}, \"67\": {\"I\": 1.0}, \"68\": {\"I\": 1.0}, \"69\": {\"I\": 1.0}, \"70\": {\"Cs\": 1.0}, \"71\": {\"Cs\": 1.0}, \"72\": {\"K\": 1.0}, \"73\": {\"In\": 1.0}, \"74\": {\"I\": 1.0}, \"75\": {\"I\": 1.0}, \"76\": {\"I\": 1.0}, \"77\": {\"I\": 1.0}, \"78\": {\"I\": 1.0}, \"79\": {\"I\": 1.0}}" energy=-206.35053811391805 free_energy=-206.35053811391805 stress="4.5711452019688114e-07 -9.329989658196023e-07 -3.9626158484485756e-07 -9.329989658196023e-07 -2.390392941106615e-07 -1.4148943721112407e-06 -3.9626158484485756e-07 -1.4148943721112407e-06 2.4905278871599777e-07" pbc="T T T"
Cs       5.25387523       2.46581840       8.82176931        0      -0.00007772       0.00009948       0.00004730
Cs       0.72689322       5.34461331       0.00087582        1      -0.00003430       0.00016731       0.00003372
K        0.49160125      -0.01562109       4.41437704        2      -0.00007093      -0.00026657       0.00005225
In       0.49244414      -0.01871061       0.00004844        3      -0.00048248      -0.00035816       0.00005455
I        7.34639976      -0.31463033       1.76683261        4       0.00028321       0.00038008       0.00014458
I       -1.36592454       8.12474985       7.05557379        5       0.00019446       0.00030378       0.00013603
I        1.80490730       2.03702049       1.76524429        6       0.00038314       0.00006113      -0.00043830
I        4.17518746       5.77393308       7.05808816        7       0.00042477      -0.00005754      -0.00042573
I        6.61220932       5.66048200       1.76196253        8      -0.00029833      -0.00029355       0.00025912
I       -0.63077752       2.15070997       7.06056259        9      -0.00032567      -0.00019358       0.00014620
Cs       5.25306218       2.47215411      17.65048629       10      -0.00007754       0.00009982       0.00004619
Cs       0.72608018       5.35094885       8.82959253       11      -0.00003411       0.00016860       0.00003437
K        0.49078821      -0.00928533      13.24309381       12      -0.00007094      -0.00026655       0.00005253
In       0.49163041      -0.01237155       8.82876399       13      -0.00047876      -0.00037669       0.00006297
I        7.34558653      -0.30829464      10.59554978       14       0.00028479       0.00038061       0.00014208
I       -1.36673733       8.13108546      15.88429049       15       0.00019322       0.00030450       0.00013657
I        1.80409411       2.04335580      10.59396102       16       0.00038466       0.00006395      -0.00043745
I        4.17437415       5.78026807      15.88680450       17       0.00042699      -0.00005366      -0.00042262
I        6.61139644       5.66681751      10.59067984       18      -0.00029877      -0.00029289       0.00025663
I       -0.63159112       2.15704712      15.88927871       19      -0.00032213      -0.00020094       0.00015126
Cs       0.96071621      10.71472103       8.81484340       20      -0.00006587       0.00012058       0.00004775
Cs      -3.56626489      13.59352227      -0.00604947       21      -0.00003404       0.00014969       0.00002923
K       -3.80155606       8.23327885       4.40745092       22      -0.00007265      -0.00022893       0.00005508
In      -3.80071037       8.23015873      -0.00687703       23      -0.00049180      -0.00013218       0.00005037
I        3.05323875       7.93428011       1.75990885       24       0.00030601       0.00035505       0.00012822
I       -5.65908208      16.37365256       7.04864744       25       0.00019353       0.00032433       0.00014065
I       -2.48824739      10.28593525       1.75832221       26       0.00035203       0.00000598      -0.00046993
I       -0.11797404      14.02282603       7.05115608       27       0.00046142       0.00002348      -0.00037666
I        2.31905923      13.90936868       1.75504449       28      -0.00035257      -0.00017926       0.00019369
I       -4.92394040      10.39962870       7.05363153       29      -0.00029049      -0.00026893       0.00018904
Cs       0.95990323      10.72105695      17.64356036       30      -0.00006630       0.00011966       0.00004679
Cs      -3.56707780      13.59985802       8.82266723       31      -0.00003492       0.00014962       0.00002996
K       -3.80236907       8.23961460      13.23616759       32      -0.00007274      -0.00022887       0.00005579
In      -3.80152289       8.23649371       8.82184025       33      -0.00049492      -0.00012678       0.00004721
I        3.05242572       7.94061594      10.58862592       34       0.00030652       0.00035453       0.00012646
I       -5.65989502      16.37998841      15.87736411       35       0.00019306       0.00032377       0.00014145
I       -2.48906053      10.29227072      10.58703889       36       0.00035250       0.00000669      -0.00046943
I       -0.11878712      14.02916154      15.87987260       37       0.00046163       0.00002415      -0.00037486
I        2.31824680      13.91570303      10.58376230       38      -0.00035621      -0.00017191       0.00018708
I       -4.92475335      10.40596430      15.88234845       39      -0.00029141      -0.00026721       0.00018797
Cs      14.54402947       2.05904237       8.82261572       40      -0.00007201       0.00010047       0.00004509
Cs      10.01704756       4.93783727       0.00172220       41      -0.00002940       0.00016875       0.00003187
K        9.78175557      -0.42239502       4.41522319       42      -0.00006647      -0.00027778       0.00005149
In       9.78259484      -0.42547319       0.00089535       43      -0.00045432      -0.00043327       0.00005085
I       16.63655326      -0.72140555       1.76767959       44       0.00029396       0.00037712       0.00013854
I        7.92422883       7.71797466       7.05642076       45       0.00020600       0.00030108       0.00012970
I       11.09506200       1.63024215       1.76608915       46       0.00038659       0.00007537      -0.00042809
I       13.46534237       5.36715548       7.05893324       47       0.00042603      -0.00004762      -0.00041810
I       -2.67794400       6.06725394       1.76111798       48      -0.00031007      -0.00027031       0.00024491
I        8.65937889       1.74393019       7.06141041       49      -0.00033676      -0.00016998       0.00013157
Cs      14.54321632       2.06537820      17.65133264       50      -0.00007115       0.00010034       0.00004434
Cs      10.01623448       4.94417291       8.83043887       51      -0.00002909       0.00016956       0.00003286
K        9.78094255      -0.41605923      13.24393992       52      -0.00006647      -0.00027779       0.00005192
In       9.78178117      -0.41913474       8.82960927       53      -0.00045079      -0.00044825       0.00006989
I       16.63574023      -0.71506989      10.59639653       54       0.00029384       0.00037775       0.00013786
I        7.92341619       7.72431024      15.88513720       55       0.00020403       0.00030183       0.00013192
I       11.09424899       1.63657792      10.59480629       56       0.00038680       0.00007573      -0.00042980
I       13.46452929       5.37349101      15.88765005       57       0.00042649      -0.00004636      -0.00041797
I       -2.67875738       6.07359055      10.58983457       58      -0.00030811      -0.00027437       0.00024657
I        8.65856521       1.75026761      15.89012633       59      -0.00033275      -0.00017831       0.00013810
Cs      10.25087179      10.30794534       8.81568934       60      -0.00007110       0.00011941       0.00004934
Cs       5.72389091      13.18674640      -0.00520358       61      -0.00004063       0.00014910       0.00003111
K        5.48859962       7.82650141       4.40829695       62      -0.00007805      -0.00021954       0.00005643
In       5.48944999       7.82337191      -0.00602935       63      -0.00052825      -0.00007023       0.00003885
I       12.34339518       7.52750370       1.76075429       64       0.00029448       0.00035781       0.00013367
I        3.63107387      15.96687611       7.04949318       65       0.00018438       0.00032735       0.00014495
I        6.80190742       9.87916064       1.75916888       66       0.00035225      -0.00000205      -0.00047518
I        9.17218120      13.61605236       7.05200344       67       0.00045873       0.00001068      -0.00038548
I       -6.97109759      14.31614922       1.75419639       68      -0.00034045      -0.00020486       0.00020848
I        4.36621277       9.99285713       7.05447564       69      -0.00027922      -0.00029163       0.00020217
Cs      10.25005877      10.31428133      17.64440626       70      -0.00007138       0.00011813       0.00004868
Cs       5.72307790      13.19308226       8.82351306       71      -0.00004089       0.00014861       0.00003221
K        5.48778661       7.83283710      13.23701362       72      -0.00007805      -0.00021954       0.00005701
In       5.48863666       7.82970720       8.82268563       73      -0.00052613      -0.00006661       0.00005073
I       12.34258229       7.53383953      10.58947106       74       0.00029389       0.00035730       0.00013382
I        3.63026135      15.97321188      15.87820948       75       0.00018159       0.00032697       0.00014794
I        6.80109457       9.88549676      10.58788607       76       0.00035064      -0.00000456      -0.00047791
I        9.17136829      13.62238848      15.88072032       77       0.00045750       0.00000841      -0.00038622
I       -6.97191013      14.32248376      10.58291387       78      -0.00034362      -0.00019822       0.00020356
I        4.36539957       9.99919326      15.88319221       79      -0.00027840      -0.00029313       0.00020422
