20
Lattice="18.579138654593166 0.6644965386207183 -0.07516030098764327 -4.934038664927366 7.8385245155937815 -0.839903419513067 0.011497496899905792 0.9403361659249281 8.778720748496447" Properties=species:S:1:pos:R:3:spacegroup_kinds:I:1:forces:R:3 spacegroup="P 1" unit_cell=conventional occupancy="_JSON {\"0\": {\"Cs\": 1.0}, \"1\": {\"Cs\": 1.0}, \"2\": {\"K\": 1.0}, \"3\": {\"In\": 1.0}, \"4\": {\"I\": 1.0}, \"5\": {\"I\": 1.0}, \"6\": {\"I\": 1.0}, \"7\": {\"I\": 1.0}, \"8\": {\"I\": 1.0}, \"9\": {\"I\": 1.0}, \"10\": {\"Cs\": 1.0}, \"11\": {\"Cs\": 1.0}, \"12\": {\"K\": 1.0}, \"13\": {\"In\": 1.0}, \"14\": {\"I\": 1.0}, \"15\": {\"I\": 1.0}, \"16\": {\"I\": 1.0}, \"17\": {\"I\": 1.0}, \"18\": {\"I\": 1.0}, \"19\": {\"I\": 1.0}}" energy=-51.58762169326445 free_energy=-51.58762169326445 stress="-9.6829813546722e-06 3.6348676224035263e-06 1.271299661494974e-05 3.6348676224035263e-06 5.1991302280621196e-06 -3.040582123850319e-06 1.271299661494974e-05 -3.040582123850319e-06 1.6742550299945444e-06" pbc="T T T"
Cs       2.86447532       3.75144937      -0.38814942        0      -0.00005091       0.00017479      -0.00013221
Cs      -1.86558205       7.18821724       8.09439272        1       0.00029416       0.00006154      -0.00016803
K       -1.67805291       1.38468283       4.29157326        2      -0.00005203      -0.00000543       0.00003672
In      16.89516844       1.57871469      -0.17298932        3       0.00000046       0.00011403      -0.00009501
I       15.61054722       3.82658528       1.36365528        4      -0.00012269       0.00028566       0.00012472
I        3.96761528       7.77746842       6.26671541        5       0.00013714      -0.00007439       0.00024873
I       -0.52320917       3.80379599       6.69477314        6       0.00002291      -0.00015599      -0.00023055
I        1.52238899       7.13616400       1.01113085        7      -0.00006451      -0.00010774       0.00001085
I        0.75450704       1.18032477       1.64827903        8      -0.00004292      -0.00001321       0.00013921
I        5.17869494       1.92107096       6.89721339        9      -0.00011230      -0.00027111       0.00005764
Cs      12.15404436       4.08369764      -0.42572951       10      -0.00004891       0.00017450      -0.00013256
Cs       7.42398756       7.52046551       8.05681251       11       0.00029216       0.00006183      -0.00016768
K        7.61151678       1.71693132       4.25399353       12      -0.00005437      -0.00000785       0.00003349
In       7.60560170       1.24646867      -0.13541244       13      -0.00001582       0.00010015      -0.00007592
I        6.32097760       3.49433705       1.40123561       14      -0.00012062       0.00028486       0.00012342
I       13.25718491       8.10971665       6.22913507       15       0.00013506      -0.00007358       0.00025003
I        8.76635929       4.13604303       6.65719452       16       0.00002821      -0.00014769      -0.00023909
I       10.81195918       7.46841350       0.97354917       17      -0.00006981      -0.00011605       0.00001940
I       10.04407599       1.51257300       1.61069877       18      -0.00004048      -0.00001286       0.00013988
I       14.46826466       2.25331928       6.85963335       19      -0.00011474      -0.00027146       0.00005697
