80
Lattice="17.55773384353253 0.0 0.0 -3.587366136177943 20.099298592145004 0.0 -2.996064480012912 -6.827227350731702 19.158551005741977" Properties=species:S:1:pos:R:3 pbc="T T T"
Cs       2.65062801       7.28576701      -0.00002330
Cs       6.17481134       3.93588392      -0.00002330
K        0.17111658      -1.12081101       4.78964585
In       0.92013828       0.58600489       0.00002162
I        2.45195010       2.53807330       1.91651402
I        4.87547973       5.26996802       7.66279743
I        1.10349644      -2.73066254       7.66277946
I        7.09746514      -0.09696127       1.91651179
I       -0.70295981       7.31769016       1.91650265
I       -1.66862989      -0.09564095       7.66277946
Cs       1.15259577       3.87215334       9.57925220
Cs       4.67677910       0.52227024       9.57925220
K       -1.32691566      -4.53442469      14.36892135
In      -0.57789396      -2.82760878       9.57929712
I        0.95391786      -0.87554037      11.49578952
I        3.37744749       1.85635434      17.24207294
I       -0.39453580      -6.14427621      17.24205496
I        5.59943290      -3.51057495      11.49578730
I       -2.20099205       3.90407648      11.49577815
I       -3.16666213      -3.50925462      17.24205496
Cs       0.85694495      17.33541631      -0.00002330
Cs       4.38112827      13.98553321      -0.00002330
K       -1.62256649       8.92883829       4.78964585
In      -0.87354479      10.63565419       0.00002162
I        0.65826703      12.58772260       1.91651402
I        3.08179667      15.31961731       7.66279743
I       -0.69018662       7.31898676       7.66277946
I        5.30378207       9.95268803       1.91651179
I       -2.49664288      17.36733945       1.91650265
I       -3.46231296       9.95400835       7.66277946
Cs      -0.64108729      13.92180264       9.57925220
Cs       2.88309603      10.57191954       9.57925220
K       -3.12059873       5.51522461      14.36892135
In      -2.37157703       7.22204052       9.57929712
I       -0.83976521       9.17410892      11.49578952
I        1.58376443      11.90600364      17.24207294
I       -2.18821886       3.90537308      17.24205496
I        3.80574983       6.53907435      11.49578730
I       -3.99467512      13.95372578      11.49577815
I       -4.96034520       6.54039467      17.24205496
Cs      11.42949493       7.28576701      -0.00002330
Cs      14.95367826       3.93588392      -0.00002330
K        8.94998350      -1.12081101       4.78964585
In       9.69900520       0.58600489       0.00002162
I       11.23081702       2.53807330       1.91651402
I       13.65434666       5.26996802       7.66279743
I        9.88236337      -2.73066254       7.66277946
I       15.87633206      -0.09696127       1.91651179
I        8.07590711       7.31769016       1.91650265
I        7.11023703      -0.09564095       7.66277946
Cs       9.93146269       3.87215334       9.57925220
Cs      13.45564602       0.52227024       9.57925220
K        7.45195126      -4.53442469      14.36892135
In       8.20097296      -2.82760878       9.57929712
I        9.73278478      -0.87554037      11.49578952
I       12.15631442       1.85635434      17.24207294
I        8.38433113      -6.14427621      17.24205496
I       14.37829982      -3.51057495      11.49578730
I        6.57787487       3.90407648      11.49577815
I        5.61220479      -3.50925462      17.24205496
Cs       9.63581187      17.33541631      -0.00002330
Cs      13.15999520      13.98553321      -0.00002330
K        7.15630043       8.92883829       4.78964585
In       7.90532214      10.63565419       0.00002162
I        9.43713396      12.58772260       1.91651402
I       11.86066359      15.31961731       7.66279743
I        8.08868030       7.31898676       7.66277946
I       14.08264899       9.95268803       1.91651179
I        6.28222405      17.36733945       1.91650265
I        5.31655396       9.95400835       7.66277946
Cs       8.13777963      13.92180264       9.57925220
Cs      11.66196296      10.57191954       9.57925220
K        5.65826819       5.51522461      14.36892135
In       6.40728989       7.22204052       9.57929712
I        7.93910172       9.17410892      11.49578952
I       10.36263135      11.90600364      17.24207294
I        6.59064806       3.90537308      17.24205496
I       12.58461675       6.53907435      11.49578730
I        4.78419181      13.95372578      11.49577815
I        3.81852172       6.54039467      17.24205496
