80
Lattice="18.320519373001297 -3.064503570898259 0.9324211183624781 -6.677470453838412 17.211329911670862 2.256769008509484 -1.3536924693386985 -2.804136127295208 17.380694188054893" Properties=species:S:1:pos:R:3:spacegroup_kinds:I:1:forces:R:3 spacegroup="P 1" unit_cell=conventional occupancy="_JSON {\"0\": {\"Cs\": 1.0}, \"1\": {\"Cs\": 1.0}, \"2\": {\"K\": 1.0}, \"3\": {\"In\": 1.0}, \"4\": {\"I\": 1.0}, \"5\": {\"I\": 1.0}, \"6\": {\"I\": 1.0}, \"7\": {\"I\": 1.0}, \"8\": {\"I\": 1.0}, \"9\": {\"I\": 1.0}, \"10\": {\"Cs\": 1.0}, \"11\": {\"Cs\": 1.0}, \"12\": {\"K\": 1.0}, \"13\": {\"In\": 1.0}, \"14\": {\"I\": 1.0}, \"15\": {\"I\": 1.0}, \"16\": {\"I\": 1.0}, \"17\": {\"I\": 1.0}, \"18\": {\"I\": 1.0}, \"19\": {\"I\": 1.0}, \"20\": {\"Cs\": 1.0}, \"21\": {\"Cs\": 1.0}, \"22\": {\"K\": 1.0}, \"23\": {\"In\": 1.0}, \"24\": {\"I\": 1.0}, \"25\": {\"I\": 1.0}, \"26\": {\"I\": 1.0}, \"27\": {\"I\": 1.0}, \"28\": {\"I\": 1.0}, \"29\": {\"I\": 1.0}, \"30\": {\"Cs\": 1.0}, \"31\": {\"Cs\": 1.0}, \"32\": {\"K\": 1.0}, \"33\": {\"In\": 1.0}, \"34\": {\"I\": 1.0}, \"35\": {\"I\": 1.0}, \"36\": {\"I\": 1.0}, \"37\": {\"I\": 1.0}, \"38\": {\"I\": 1.0}, \"39\": {\"I\": 1.0}, \"40\": {\"Cs\": 1.0}, \"41\": {\"Cs\": 1.0}, \"42\": {\"K\": 1.0}, \"43\": {\"In\": 1.0}, \"44\": {\"I\": 1.0}, \"45\": {\"I\": 1.0}, \"46\": {\"I\": 1.0}, \"47\": {\"I\": 1.0}, \"48\": {\"I\": 1.0}, \"49\": {\"I\": 1.0}, \"50\": {\"Cs\": 1.0}, \"51\": {\"Cs\": 1.0}, \"52\": {\"K\": 1.0}, \"53\": {\"In\": 1.0}, \"54\": {\"I\": 1.0}, \"55\": {\"I\": 1.0}, \"56\": {\"I\": 1.0}, \"57\": {\"I\": 1.0}, \"58\": {\"I\": 1.0}, \"59\": {\"I\": 1.0}, \"60\": {\"Cs\": 1.0}, \"61\": {\"Cs\": 1.0}, \"62\": {\"K\": 1.0}, \"63\": {\"In\": 1.0}, \"64\": {\"I\": 1.0}, \"65\": {\"I\": 1.0}, \"66\": {\"I\": 1.0}, \"67\": {\"I\": 1.0}, \"68\": {\"I\": 1.0}, \"69\": {\"I\": 1.0}, \"70\": {\"Cs\": 1.0}, \"71\": {\"Cs\": 1.0}, \"72\": {\"K\": 1.0}, \"73\": {\"In\": 1.0}, \"74\": {\"I\": 1.0}, \"75\": {\"I\": 1.0}, \"76\": {\"I\": 1.0}, \"77\": {\"I\": 1.0}, \"78\": {\"I\": 1.0}, \"79\": {\"I\": 1.0}}" energy=-206.35053357684478 free_energy=-206.35053357684478 stress="1.3167423150972304e-06 -9.6221509118569e-07 -3.899498158572543e-07 -9.6221509118569e-07 7.600695285141207e-07 1.2998717571283674e-08 -3.899498158572543e-07 1.2998717571283674e-08 2.088306959656096e-07" pbc="T T T"
Cs       0.17451207       2.68282295      18.36857097        0       0.00010896       0.00018220       0.00022950
Cs       4.33895095      -0.70122654      18.17983133        1      -0.00025035      -0.00009713       0.00006230
K        0.36215950      -0.44274973       4.44143478        2      -0.00012166       0.00007397      -0.00018560
In       0.69987196       0.25810247       0.09608276        3       0.00056103      -0.00029689      -0.00003769
I        2.08316713       1.83903042       2.25320973        4      -0.00024588      -0.00022602      -0.00002723
I        4.46168021       4.34880565       8.22387357        5      -0.00012714       0.00001342      -0.00016649
I        2.56204482      -1.25446769       7.17227342        6      -0.00007214      -0.00000368       0.00005025
I        7.32071752      -1.16323055       2.17743846        7       0.00029524       0.00027583      -0.00007808
I       -1.88961018       6.33073536       2.66842093        8      -0.00004771       0.00001536       0.00015367
I       -0.72672830       1.38958921       7.34200422        9      -0.00018164      -0.00014534       0.00021512
Cs       0.85115968       4.08508911       9.67761267       10       0.00036014       0.00005258       0.00007626
Cs       5.01584030       0.70131217       9.48993338       11      -0.00025976      -0.00043956      -0.00000333
K       -0.31591818      -1.84506416      13.13176228       12       0.00011792       0.00006632      -0.00010016
In       0.02291397      -1.14352610       8.78661039       13      -0.00004938       0.00026001      -0.00042147
I        1.40539752       0.43739026      10.94392015       14       0.00018488      -0.00014558      -0.00009276
I        3.78397588       2.94684851      16.91457835       15       0.00022986       0.00012069      -0.00006757
I       -4.79242557      14.55428804      18.11874782       16      -0.00023606       0.00024831       0.00010286
I        6.64445752      -2.56453120      10.86757739       17      -0.00024018      -0.00002345       0.00017090
I       -2.56621224       4.92867269      11.35908219       18      -0.00019508      -0.00007939      -0.00008372
I       16.91694075      -3.07747901      16.96502960       19      -0.00021316       0.00035118      -0.00003591
Cs      -3.16377953      11.28940479      19.49696884       20      -0.00006753      -0.00052182       0.00002957
Cs       0.99960741       7.90465759      19.30832386       21      -0.00006332      -0.00030357      -0.00005954
K       -2.97793323       8.16238896       5.56969307       22       0.00011289       0.00024652      -0.00023031
In      -2.63892292       8.86425588       1.22427233       23       0.00008746      -0.00016994       0.00008651
I       -1.25638520      10.44470048       3.38182301       24       0.00011301       0.00009305       0.00000549
I        1.12187808      12.95441470       9.35259595       25       0.00019482       0.00021663      -0.00039900
I       -0.77721139       7.35052498       8.30004646       26       0.00014672       0.00017003      -0.00031145
I        3.98217397       7.44313506       3.30572849       27       0.00009430      -0.00011488      -0.00011180
I       -5.22769548      14.93627294       3.79715254       28      -0.00022354       0.00002851       0.00001504
I       -4.06542205       9.99509592       8.47073142       29      -0.00003488       0.00026330       0.00012556
Cs      -2.48743552      12.69110342      10.80733654       30       0.00006311      -0.00019659      -0.00016175
Cs       1.67701900       9.30599973      10.61738130       31      -0.00017894       0.00014727       0.00011015
K       -3.65328381       6.76198470      14.26019118       32      -0.00023920      -0.00045363      -0.00006015
In      -3.31576142       7.46187186       9.91486725       33      -0.00009254       0.00013862       0.00021068
I       -1.93231583       9.04275897      12.07187513       34       0.00001110       0.00003837       0.00000423
I        0.44575501      11.55286386      18.04266661       35      -0.00003396      -0.00025436      -0.00023316
I       -1.45356242       5.94853316      16.99063458       36      -0.00001303       0.00024808      -0.00002842
I        3.30494801       6.04016109      11.99553696       37       0.00039315       0.00018074      -0.00015245
I       -5.90511485      13.53462789      12.48752449       38       0.00012190      -0.00046438       0.00012930
I       13.57903275       5.52928891      18.09345903       39      -0.00050311      -0.00034334       0.00016604
Cs       9.33488216       1.15071814      18.83483125       40       0.00011588       0.00030221      -0.00019125
Cs      13.49893353      -2.23370101      18.64608345       41       0.00001201       0.00022919      -0.00010695
K        9.52081339      -1.97575285       4.90759050       42       0.00010283       0.00024215       0.00005337
In       9.85965999      -1.27407424       0.56272134       43      -0.00004331       0.00017663      -0.00014425
I       11.24270461       0.30636906       2.71993258       44       0.00008050       0.00037471      -0.00003513
I       13.62142035       2.81657672       8.69033758       45      -0.00015133      -0.00013665      -0.00015883
I       11.72162613      -2.78737225       7.63761604       46      -0.00007853       0.00002244       0.00007938
I       16.48186542      -2.69504492       2.64318890       47      -0.00031079      -0.00018960       0.00016528
I        7.27080182       4.79883257       3.13489507       48       0.00003326      -0.00006545       0.00004671
I        8.43356178      -0.14256854       7.80872994       49      -0.00006921      -0.00012773      -0.00024872
Cs      10.01174157       2.55318729      10.14479472       50       0.00025537       0.00001863       0.00007068
Cs      14.17557490      -0.83192799       9.95530932       51       0.00038554       0.00023473       0.00002376
K        8.84508664      -3.37645569      13.59786125       52      -0.00017069      -0.00025896       0.00008475
In       9.18290428      -2.67605081       9.25252943       53       0.00022260      -0.00006985       0.00025446
I       10.56639367      -1.09536805      11.40962567       54      -0.00008489       0.00009551       0.00022260
I       12.94513844       1.41507549      17.38008273       55      -0.00037519      -0.00014000       0.00025382
I        4.36732991      13.02259408      18.58535760       56       0.00023726      -0.00019294      -0.00007421
I       15.80443059      -4.09745181      11.33335033       57      -0.00020594       0.00017033      -0.00005357
I        6.59417821       3.39666904      11.82561555       58      -0.00009560      -0.00013708      -0.00000317
I        7.75617620      -1.54495075      16.49941304       59       0.00029495       0.00034444      -0.00041305
Cs       5.99615289       9.75697386      19.96299989       60       0.00025478      -0.00020699      -0.00017559
Cs      10.16040907       6.37142307      19.77479756       61       0.00010689       0.00044315      -0.00028326
K        6.18329769       6.63102816       6.03583606       62      -0.00025200      -0.00014229       0.00010691
In       6.52082372       7.33215513       1.69088399       63       0.00009154      -0.00030310      -0.00031483
I        7.90418583       8.91289088       3.84782552       64      -0.00015626       0.00013521       0.00018971
I       10.28344694      11.42244538       9.81826862       65      -0.00016882      -0.00017372       0.00021289
I        8.38316018       5.81912115       8.76683479       66       0.00029827      -0.00030660      -0.00033454
I       13.14258618       5.91060031       3.77127382       67       0.00013531      -0.00020636       0.00013986
I        3.93201232      13.40388694       4.26318072       68      -0.00003679      -0.00007549       0.00037476
I        5.09428884       8.46265624       8.93671160       69       0.00015852       0.00033150      -0.00002977
Cs       6.67314034      11.15853534      11.27181041       70       0.00001428       0.00008812       0.00021145
Cs      10.83695215       7.77426585      11.08431429       71       0.00009849       0.00006417       0.00005377
K        5.50471105       5.22849877      14.72636198       72       0.00027914       0.00012590      -0.00003745
In       5.84423159       5.92966570      10.38111169       73      -0.00047359       0.00002406       0.00058155
I        7.22657673       7.51063490      12.53851858       74       0.00010556       0.00010587      -0.00018826
I        9.60640752      10.01951631      18.50890064       75      -0.00012597       0.00031921       0.00015687
I        7.70586638       4.41706101      17.45667012       76      -0.00013279      -0.00037780       0.00028843
I       12.46626122       4.50904868      12.46222115       77      -0.00031854      -0.00025028      -0.00001857
I        3.25504977      12.00193675      12.95326110       78       0.00016992       0.00008989       0.00030181
I        4.41701392       7.06098605      17.62729431       79       0.00029101       0.00027140       0.00004320
