5
Lattice="6.147975444591861 -0.3801689141188168 -1.6884688559587806 0.536470452948804 6.343979737490233 0.5116031443429663 1.6475604966201347 -0.6380192844001256 6.137507611194708" Properties=species:S:1:pos:R:3:spacegroup_kinds:I:1:forces:R:3 spacegroup="P 1" unit_cell=conventional occupancy="_JSON {\"0\": {\"Cs\": 1.0}, \"1\": {\"Pb\": 1.0}, \"2\": {\"I\": 1.0}, \"3\": {\"I\": 1.0}, \"4\": {\"I\": 1.0}}" energy=-13.9807403972004 free_energy=-13.9807403972004 stress="-2.260099378636017e-06 8.309778495652652e-06 2.0710202359077995e-06 8.309778495652652e-06 6.457595706952324e-07 -1.4298529907577415e-05 2.0710202359077995e-06 -1.4298529907577415e-05 -1.5200612265451644e-05" pbc="T T T"
Cs       4.16597665       2.66285745       2.48043846        0      -0.00000321      -0.00000244       0.00001097
Pb       0.53644999       6.34400370       0.51163240        1       0.00004155      -0.00004470      -0.00004951
I        0.82379747      -0.31901876       3.06871544        2       0.00002247      -0.00001151       0.00003535
I        3.07402608      -0.19007044      -0.84427673        3      -0.00007499      -0.00000266       0.00000905
I        6.41623702       2.79179603      -1.43274629        4       0.00001417       0.00006131      -0.00000587
