80
Lattice="26.422686215354645 1.8398195035314777 -13.778714483053312 11.776603796947576 20.373534702981683 -7.040331976621174 17.04590692735608 -2.5621127691050516 -0.0004917302608778488" Properties=species:S:1:pos:R:3:spacegroup_kinds:I:1:forces:R:3 spacegroup="P 1" unit_cell=conventional occupancy="_JSON {\"0\": {\"Cs\": 1.0}, \"1\": {\"Cs\": 1.0}, \"2\": {\"K\": 1.0}, \"3\": {\"In\": 1.0}, \"4\": {\"I\": 1.0}, \"5\": {\"I\": 1.0}, \"6\": {\"I\": 1.0}, \"7\": {\"I\": 1.0}, \"8\": {\"I\": 1.0}, \"9\": {\"I\": 1.0}, \"10\": {\"Cs\": 1.0}, \"11\": {\"Cs\": 1.0}, \"12\": {\"K\": 1.0}, \"13\": {\"In\": 1.0}, \"14\": {\"I\": 1.0}, \"15\": {\"I\": 1.0}, \"16\": {\"I\": 1.0}, \"17\": {\"I\": 1.0}, \"18\": {\"I\": 1.0}, \"19\": {\"I\": 1.0}, \"20\": {\"Cs\": 1.0}, \"21\": {\"Cs\": 1.0}, \"22\": {\"K\": 1.0}, \"23\": {\"In\": 1.0}, \"24\": {\"I\": 1.0}, \"25\": {\"I\": 1.0}, \"26\": {\"I\": 1.0}, \"27\": {\"I\": 1.0}, \"28\": {\"I\": 1.0}, \"29\": {\"I\": 1.0}, \"30\": {\"Cs\": 1.0}, \"31\": {\"Cs\": 1.0}, \"32\": {\"K\": 1.0}, \"33\": {\"In\": 1.0}, \"34\": {\"I\": 1.0}, \"35\": {\"I\": 1.0}, \"36\": {\"I\": 1.0}, \"37\": {\"I\": 1.0}, \"38\": {\"I\": 1.0}, \"39\": {\"I\": 1.0}, \"40\": {\"Cs\": 1.0}, \"41\": {\"Cs\": 1.0}, \"42\": {\"K\": 1.0}, \"43\": {\"In\": 1.0}, \"44\": {\"I\": 1.0}, \"45\": {\"I\": 1.0}, \"46\": {\"I\": 1.0}, \"47\": {\"I\": 1.0}, \"48\": {\"I\": 1.0}, \"49\": {\"I\": 1.0}, \"50\": {\"Cs\": 1.0}, \"51\": {\"Cs\": 1.0}, \"52\": {\"K\": 1.0}, \"53\": {\"In\": 1.0}, \"54\": {\"I\": 1.0}, \"55\": {\"I\": 1.0}, \"56\": {\"I\": 1.0}, \"57\": {\"I\": 1.0}, \"58\": {\"I\": 1.0}, \"59\": {\"I\": 1.0}, \"60\": {\"Cs\": 1.0}, \"61\": {\"Cs\": 1.0}, \"62\": {\"K\": 1.0}, \"63\": {\"In\": 1.0}, \"64\": {\"I\": 1.0}, \"65\": {\"I\": 1.0}, \"66\": {\"I\": 1.0}, \"67\": {\"I\": 1.0}, \"68\": {\"I\": 1.0}, \"69\": {\"I\": 1.0}, \"70\": {\"Cs\": 1.0}, \"71\": {\"Cs\": 1.0}, \"72\": {\"K\": 1.0}, \"73\": {\"In\": 1.0}, \"74\": {\"I\": 1.0}, \"75\": {\"I\": 1.0}, \"76\": {\"I\": 1.0}, \"77\": {\"I\": 1.0}, \"78\": {\"I\": 1.0}, \"79\": {\"I\": 1.0}}" energy=-206.20625011147106 free_energy=-206.20625011147106 stress="-3.112602121529856e-06 5.379942491004097e-07 9.577271326900734e-07 5.379942491004097e-07 -4.4501996111053105e-06 2.760483017706586e-06 9.577271326900734e-07 2.760483017706586e-06 -1.755028962761413e-06" pbc="T T T"
Cs       8.97683996       1.73944225      -4.11777960        0       0.00002770       0.00000666       0.00001813
Cs      18.64585531       8.08618249      -6.29189066        1      -0.00011646       0.00001257      -0.00012191
K       13.81129816       4.91282317      -5.20483117        2      -0.00005866      -0.00009499      -0.00005620
In      26.42266381       1.83982494     -13.77873105        3      -0.00022302       0.00008724       0.00010876
I       13.61189459       1.54990240      -3.99466795        4      -0.00022104      -0.00038232      -0.00018353
I       14.01081323       8.27567783      -6.41510723        5       0.00012627       0.00040902      -0.00006939
I       15.44786778       2.78240915      -7.57101095        6       0.00000204      -0.00003403      -0.00020673
I       12.17463389       7.04326355      -2.83877170        7       0.00008654       0.00001474       0.00017403
I        7.80749662       7.90366729      -3.32183433        8       0.00017779      -0.00008368       0.00020989
I       19.81494047       1.92187433      -7.08792795        9       0.00007978       0.00017860      -0.00016889
Cs      17.49992971       0.45848399      -4.11816965       10      -0.00006626      -0.00014192       0.00014421
Cs      27.16887780       6.80511145      -6.29221190       11      -0.00016124       0.00003844      -0.00003206
K       22.33424178       3.63174697      -5.20507105       12      -0.00001629      -0.00003700      -0.00006650
In      34.94560389       0.55876252     -13.77904104       13      -0.00001541       0.00008645       0.00039235
I       22.13493803       0.26896664      -3.99497730       14      -0.00036421      -0.00063938      -0.00014323
I       22.53371956       6.99462822      -6.41528869       15       0.00013491       0.00039307      -0.00022890
I       23.97085340       1.50140741      -7.57127945       16      -0.00009759      -0.00017436      -0.00022822
I       20.69756390       5.76216557      -2.83900526       17       0.00016206       0.00008690       0.00019788
I       16.33045279       6.62264948      -3.32209358       18       0.00020278      -0.00018710       0.00024433
I       28.33792406       0.64082268      -7.08820814       19       0.00007005       0.00015096      -0.00010231
Cs      14.86524998      11.92626067      -7.63806441       20      -0.00002340      -0.00005450       0.00015158
Cs      24.53416482      18.27292083      -9.81206585       21      -0.00011721       0.00004565      -0.00010943
K       19.69961912      15.09967059      -8.72502453       22      -0.00006918      -0.00024341      -0.00003133
In      32.31096745      12.02655922     -17.29896782       23      -0.00001886       0.00017632       0.00042910
I       19.50029686      11.73663182      -7.51492110       24      -0.00032435      -0.00027751      -0.00005289
I       19.89908094      18.46243248      -9.93520993       25       0.00009077       0.00041873      -0.00024581
I       21.33619385      12.96920903     -11.09119055       26      -0.00008233      -0.00007063      -0.00020690
I       18.06290957      17.22995357      -6.35890545       27       0.00010586       0.00013546       0.00012927
I       13.69577549      18.09057648      -6.84202409       28       0.00034310      -0.00046832       0.00032589
I       25.70323554      12.10860038     -10.60807850       29       0.00010407       0.00026586      -0.00016782
Cs      23.38815664      10.64518504      -7.63826202       30       0.00000195      -0.00004366       0.00011522
Cs      33.05700261      16.99180740      -9.81218414       31      -0.00003491       0.00015575      -0.00025485
K       28.22255801      13.81861485      -8.72524726       32      -0.00008879      -0.00027069      -0.00006132
In      40.83393311      10.74552517     -17.29918775       33      -0.00013363       0.00012933       0.00027216
I       28.02321984      10.45558566      -7.51515181       34      -0.00025797      -0.00027565      -0.00005372
I       28.42201358      17.18126017      -9.93546094       35       0.00015299       0.00063121      -0.00015998
I       29.85916951      11.68810714     -11.09145605       36      -0.00009518       0.00006530      -0.00017505
I       26.58583415      15.94893853      -6.35912915       37       0.00016208       0.00006038       0.00011926
I       22.21869409      16.80942849      -6.84220258       38       0.00031339      -0.00025680       0.00018179
I       34.22617269      10.82758677     -10.60831768       39       0.00012828       0.00019557      -0.00016760
Cs      22.18821494       2.65934409     -11.00717638       40       0.00002972       0.00004014       0.00008393
Cs      31.85711156       9.00604828     -13.18115219       41      -0.00005964       0.00006580      -0.00023025
K       27.02261733       5.83278571     -12.09416696       42      -0.00004686      -0.00021407      -0.00007500
In      13.21133519       0.91988580      -6.88941195       43      -0.00013151       0.00017414       0.00026972
I       26.82324201       2.46969852     -10.88403404       44      -0.00020724      -0.00012553      -0.00009120
I       27.22215432       9.19558150     -13.30445455       45       0.00010301       0.00041067      -0.00012705
I       28.65921134       3.70232059     -14.46035735       46      -0.00004303       0.00001909      -0.00021177
I       25.38597586       7.96313742      -9.72812680       47       0.00009746       0.00006717       0.00016723
I       21.01878880       8.82359878     -10.21114622       48       0.00028531      -0.00019771       0.00016286
I       33.02629606       2.84179888     -13.97729252       49       0.00006134       0.00017971      -0.00014963
Cs      30.71125186       1.37834471     -11.00751080       50      -0.00001826      -0.00004007       0.00016286
Cs      40.38014060       7.72501085     -13.18148188       51      -0.00011254       0.00002666      -0.00013144
K       35.54559967       4.55174364     -12.09444871       52      -0.00004411      -0.00021368      -0.00003993
In      21.73429012      -0.36118245      -6.88972705       53       0.00005079       0.00019547       0.00055163
I       35.34626561       1.18868569     -10.88432628       54      -0.00032276      -0.00022219      -0.00008630
I       35.74509936       7.91457579     -13.30467372       55       0.00008167       0.00032270      -0.00020922
I       37.18217450       2.42130393     -14.46061325       56      -0.00007139      -0.00010217      -0.00021766
I       33.90893006       6.68205311      -9.72836681       57       0.00007567       0.00011305       0.00014801
I       29.54176830       7.54261310     -10.21143898       58       0.00030146      -0.00036030       0.00024875
I       41.54928069       1.56071805     -13.97756419       59       0.00003050       0.00020695      -0.00011135
Cs      28.07657038      12.84615257     -14.52739316       60      -0.00002851      -0.00002762       0.00009496
Cs      37.74562013      19.19289912     -16.70154037       61      -0.00021099      -0.00005727       0.00001256
K       32.91093020      16.01948528     -15.61434329       62      -0.00002991      -0.00005447      -0.00007612
In      19.09962022      11.10668019     -10.40962516       63      -0.00000352       0.00008451       0.00042998
I       32.71159596      12.65661701     -14.40422875       64      -0.00031665      -0.00049210      -0.00014014
I       33.11043924      19.38244267     -16.82458813       65       0.00009920       0.00023047      -0.00024665
I       34.54751084      13.88914352     -17.98051813       66      -0.00007186      -0.00016590      -0.00027392
I       31.27427157      18.14986121     -13.24830376       67       0.00015602       0.00016271       0.00022616
I       26.90712664      19.01039139     -13.73136786       68       0.00026026      -0.00021511       0.00026788
I       38.91457055      13.02857099     -17.49744570       69       0.00014354       0.00010448      -0.00013157
Cs      36.59941938      11.56503641     -14.52753013       70       0.00004660       0.00004895       0.00000609
Cs      46.26846756      17.91181971     -16.70167069       71      -0.00013894      -0.00001138      -0.00011939
K       41.43390673      14.73846156     -15.61460696       72      -0.00008827      -0.00013352      -0.00006017
In      27.62260073       9.82564003     -10.40985225       73      -0.00013906       0.00006026       0.00027809
I       41.23449803      11.37549427     -14.40444119       74      -0.00022278      -0.00033257      -0.00017877
I       41.63341092      18.10131814     -16.82487705       75       0.00013145       0.00036349      -0.00008405
I       43.07046470      12.60802482     -17.98077203       76      -0.00001350      -0.00000612      -0.00022413
I       39.79721858      16.86886464     -13.24853170       77       0.00011535       0.00004888       0.00016768
I       35.43007273      17.72927826     -13.73158447       78       0.00021872      -0.00006538       0.00018066
I       47.43750536      11.74752127     -17.49767264       79       0.00014682       0.00010361      -0.00016260
