40
Lattice="12.654596173308219 -0.14472566234709996 1.904993579140463 -0.19043512579177432 12.345004892690628 3.46822207122433 -1.8705404409901947 -3.446778409879653 12.171420660645737" Properties=species:S:1:pos:R:3:spacegroup_kinds:I:1:forces:R:3 spacegroup="P 1" unit_cell=conventional occupancy="_JSON {\"0\": {\"Cs\": 1.0}, \"1\": {\"Pb\": 1.0}, \"2\": {\"I\": 1.0}, \"3\": {\"I\": 1.0}, \"4\": {\"I\": 1.0}, \"5\": {\"Cs\": 1.0}, \"6\": {\"Pb\": 1.0}, \"7\": {\"I\": 1.0}, \"8\": {\"I\": 1.0}, \"9\": {\"I\": 1.0}, \"10\": {\"Cs\": 1.0}, \"11\": {\"Pb\": 1.0}, \"12\": {\"I\": 1.0}, \"13\": {\"I\": 1.0}, \"14\": {\"I\": 1.0}, \"15\": {\"Cs\": 1.0}, \"16\": {\"Pb\": 1.0}, \"17\": {\"I\": 1.0}, \"18\": {\"I\": 1.0}, \"19\": {\"I\": 1.0}, \"20\": {\"Cs\": 1.0}, \"21\": {\"Pb\": 1.0}, \"22\": {\"I\": 1.0}, \"23\": {\"I\": 1.0}, \"24\": {\"I\": 1.0}, \"25\": {\"Cs\": 1.0}, \"26\": {\"Pb\": 1.0}, \"27\": {\"I\": 1.0}, \"28\": {\"I\": 1.0}, \"29\": {\"I\": 1.0}, \"30\": {\"Cs\": 1.0}, \"31\": {\"Pb\": 1.0}, \"32\": {\"I\": 1.0}, \"33\": {\"I\": 1.0}, \"34\": {\"I\": 1.0}, \"35\": {\"Cs\": 1.0}, \"36\": {\"Pb\": 1.0}, \"37\": {\"I\": 1.0}, \"38\": {\"I\": 1.0}, \"39\": {\"I\": 1.0}}" energy=-111.87535914390696 free_energy=-111.87535914390696 stress="3.809430844224661e-06 5.614780571093608e-07 1.9048890661353126e-06 5.614780571093608e-07 2.2949185571796312e-06 2.188000218731568e-06 1.9048890661353126e-06 2.188000218731568e-06 2.1278988012125246e-06" pbc="T T T"
Cs       2.48701436       2.77608943       4.52870307        0       0.00010052       0.00008314      -0.00000882
Pb      -0.33680975       0.27474354       0.02603142        1      -0.00006847      -0.00039350       0.00016452
I       11.84333377      -0.86206488       4.93571642        2      -0.00015633      -0.00013135       0.00004461
I        2.80546732       0.09777519       0.45898270        3       0.00021323      -0.00005686      -0.00001728
I       -0.51117207       3.31486954       0.85994041        4      -0.00010288       0.00020427       0.00005072
Cs       1.55175045       1.05270646      10.61441092        5       0.00006845       0.00005234       0.00000747
Pb      11.19201484      10.75152271      11.48506521        6       0.00019836       0.00011692      -0.00035154
I       10.90805583      -2.58545819      11.02142236        7      -0.00015416      -0.00014800       0.00007213
I        1.67978823      10.71938987      10.01292593        8       0.00019268      -0.00004035      -0.00001497
I       11.20813175       1.44678425       8.85065579        9      -0.00007254       0.00011860       0.00003800
Cs       2.39182034       8.94860057       6.26282104       10       0.00004038       0.00005528       0.00000072
Pb      12.22249292       6.30240703       3.66519980       11       0.00016556       0.00015689      -0.00025292
I       11.74809934       5.31044022       6.66983909       12      -0.00012073      -0.00015341       0.00004921
I        2.71032380       6.27028010       2.19312090       13       0.00006017      -0.00003546      -0.00002730
I       -0.60640327       9.48735117       2.59402625       14      -0.00010776       0.00027770       0.00007545
Cs       1.45654650       7.22520858      12.34854046       15       0.00006509       0.00008115      -0.00002130
Pb      11.28725062       4.57909974       9.75081458       16      -0.00002128      -0.00025509       0.00020288
I       10.81283390       3.58705884      12.75556319       17      -0.00011752      -0.00013019      -0.00001252
I        1.77511059       4.54689505       8.27885501       18      -0.00005964      -0.00004707      -0.00004829
I       11.11293023       7.61926639      10.58476238       19      -0.00010064       0.00024400       0.00006004
Cs       8.81433126       2.70372516       5.48119907       20       0.00004466       0.00007789       0.00000032
Pb       5.99046872       0.20220764       0.97862153       21       0.00005045       0.00034752      -0.00033454
I        5.51602398      -0.78969913       3.98321570       22      -0.00014069      -0.00014884       0.00003692
I        9.13277300       0.02541716       1.41148564       23       0.00020789      -0.00005026      -0.00001305
I        5.81610430       3.24249729       1.81241400       24      -0.00008870       0.00024026       0.00007287
Cs       7.87905595       0.98034170      11.56691615       25       0.00007256       0.00008010      -0.00000408
Pb       4.86479020      10.82398072      10.53244632       26      -0.00013055      -0.00032591       0.00019436
I        4.58075816      -2.51309898      10.06890213       27      -0.00015356      -0.00015632       0.00010317
I        8.00710988      10.64703025      10.96543506       28       0.00009384      -0.00004093      -0.00003726
I        4.88083916       1.51911498       7.89813478       29      -0.00008936       0.00023496       0.00007699
Cs       8.71910272       8.87624125       7.21532151       30       0.00008607       0.00005562      -0.00000712
Pb       5.89523110       6.37491375       2.71258884       31      -0.00002006      -0.00053280       0.00029614
I        5.42081843       5.38281093       5.71738480       32      -0.00012808      -0.00011835      -0.00003029
I        9.03760936       6.19791685       3.14561441       33       0.00009320      -0.00005132      -0.00003073
I        5.72091739       9.41503510       3.54657608       34      -0.00011438       0.00015904       0.00003288
Cs       7.78383808       7.15284865      13.30103030       35       0.00006411       0.00005312      -0.00001450
Pb       4.95987474       4.65138908       8.79843352       36       0.00033667       0.00012738      -0.00033925
I        4.48554193       3.65942872      11.80310474       37      -0.00012004      -0.00012551      -0.00004231
I        8.10239219       4.47452508       9.23133778       38       0.00000737      -0.00003829      -0.00002786
I        4.78562579       7.69161840       9.63224951       39      -0.00009387       0.00021364       0.00005654
