10
Lattice="9.83596881839034 0.0 0.0 -0.40105418212249 7.82886428928781 0.0 -3.3629029606999934 -2.706299469240773 7.204542040831391" Properties=species:S:1:pos:R:3 pbc="T T T"
Cs       3.82694535       2.76552040       0.02281577
Cs      -2.92688222       2.68607722       7.18147624
K       -4.26738427      -1.18858852       3.60226262
In      -2.58598764       0.16453614       0.00008876
I       -3.34230810       1.68465643       1.44121855
I        4.24234865       3.76712517       5.76333639
I       -2.79096308       0.04342824       5.76339193
I        3.69099184       5.40802402       1.44127409
I       -1.09092740       7.43449623       1.44123915
I        1.99101897      -1.98289560       5.76335699
