80
Lattice="22.20172427257022 0.0 0.0 -7.248901306341686 13.328159174959863 0.0 3.996352375407185 3.478177578899735 13.734138109304837" Properties=species:S:1:pos:R:3 pbc="T T T"
Cs      11.10160497       3.28268755       6.86051097
Cs       4.19874722       3.76822764       0.00635017
K        3.91197887       0.19341083       3.43353412
In       2.91291311      -0.67613506       0.00005051
I       11.50386001      -0.32366307       1.37364479
I        3.79647325       7.37449443       5.49344518
I        5.27822782       1.41693405       1.37367050
I       10.02219222       5.63402325       5.49347090
I       11.73295574       4.58604064       1.37364731
I        3.56739746       2.46489827       5.49344770
Cs      13.09978115       5.02177634      13.72758003
Cs       6.19692341       5.50731643       6.87341923
K        5.91015506       1.93249962      10.30060317
In       4.91108929       1.06295373       6.86711956
I       13.50203620       1.41542572       8.24071384
I        5.79464944       9.11358322      12.36051424
I        7.27640401       3.15602284       8.24073955
I       12.02036841       7.37311204      12.36053995
I       13.73113193       6.32512943       8.24071636
I        5.56557364       4.20398706      12.36051676
Cs       7.47715431       9.94676713       6.86051097
Cs       0.57429657      10.43230723       0.00635017
K        0.28752822       6.85749042       3.43353412
In      -0.71153755       5.98794453       0.00005051
I        7.87940936       6.34041651       1.37364479
I        0.17202260      14.03857402       5.49344518
I        1.65377717       8.08101364       1.37367050
I        6.39774157      12.29810283       5.49347090
I        8.10850509      11.25012023       1.37364731
I       -0.05705320       9.12897786       5.49344770
Cs       9.47533050      11.68585592      13.72758003
Cs       2.57247275      12.17139602       6.87341923
K        2.28570441       8.59657921      10.30060317
In       1.28663864       7.72703331       6.86711956
I        9.87758555       8.07950530       8.24071384
I        2.17019879      15.77766281      12.36051424
I        3.65195335       9.82010242       8.24073955
I        8.39591775      14.03719162      12.36053995
I       10.10668128      12.98920902       8.24071636
I        1.94112299      10.86806665      12.36051676
Cs      22.20246710       3.28268755       6.86051097
Cs      15.29960936       3.76822764       0.00635017
K       15.01284101       0.19341083       3.43353412
In      14.01377524      -0.67613506       0.00005051
I       22.60472215      -0.32366307       1.37364479
I       14.89733539       7.37449443       5.49344518
I       16.37908996       1.41693405       1.37367050
I       21.12305436       5.63402325       5.49347090
I       22.83381788       4.58604064       1.37364731
I       14.66825959       2.46489827       5.49344770
Cs      24.20064329       5.02177634      13.72758003
Cs      17.29778554       5.50731643       6.87341923
K       17.01101720       1.93249962      10.30060317
In      16.01195143       1.06295373       6.86711956
I       24.60289834       1.41542572       8.24071384
I       16.89551158       9.11358322      12.36051424
I       18.37726614       3.15602284       8.24073955
I       23.12123054       7.37311204      12.36053995
I       24.83199407       6.32512943       8.24071636
I       16.66643578       4.20398706      12.36051676
Cs      18.57801645       9.94676713       6.86051097
Cs      11.67515870      10.43230723       0.00635017
K       11.38839035       6.85749042       3.43353412
In      10.38932459       5.98794453       0.00005051
I       18.98027150       6.34041651       1.37364479
I       11.27288474      14.03857402       5.49344518
I       12.75463930       8.08101364       1.37367050
I       17.49860370      12.29810283       5.49347090
I       19.20936723      11.25012023       1.37364731
I       11.04380894       9.12897786       5.49344770
Cs      20.57619264      11.68585592      13.72758003
Cs      13.67333489      12.17139602       6.87341923
K       13.38656654       8.59657921      10.30060317
In      12.38750078       7.72703331       6.86711956
I       20.97844768       8.07950530       8.24071384
I       13.27106092      15.77766281      12.36051424
I       14.75281549       9.82010242       8.24073955
I       19.49677989      14.03719162      12.36053995
I       21.20754341      12.98920902       8.24071636
I       13.04198513      10.86806665      12.36051676
