5
Lattice="6.387069797459912 -6.121712894092984e-10 5.394274232108442e-16 -6.121712896912871e-10 6.387069797459916 3.3623671358014697e-16 5.393161471899782e-16 3.3644974983737373e-16 6.387069797208733" Properties=species:S:1:pos:R:3:spacegroup_kinds:I:1:forces:R:3 spacegroup="P 1" unit_cell=conventional occupancy="_JSON {\"0\": {\"Cs\": 1.0}, \"1\": {\"Pb\": 1.0}, \"2\": {\"I\": 1.0}, \"3\": {\"I\": 1.0}, \"4\": {\"I\": 1.0}}" energy=-13.980742427759882 free_energy=-13.980742427759882 stress="2.6707649286756425e-07 -5.694033637361147e-12 2.954337534986451e-17 -5.694033637361147e-12 2.6707649234027406e-07 -1.1102711516049529e-17 2.954337534986451e-17 -1.1102711516049529e-17 2.6708628189835303e-07" pbc="T T T"
Cs       3.19363862       3.19343118       3.19353490        0       0.00000517      -0.00000517      -0.00000000
Pb       0.00000133      -0.00000133      -0.00000000        1       0.00000744      -0.00000744      -0.00000000
I       -0.00000643       0.00000643       3.19353490        2      -0.00000460       0.00000460      -0.00000000
I        3.19353904       0.00000643       0.00000000        3      -0.00000342       0.00000460       0.00000000
I       -0.00000643       3.19353075       0.00000000        4      -0.00000460       0.00000342       0.00000000
