40
Lattice="16.979785244794076 2.3449090167680797 -1.8269056852502943 -10.669971004649922 13.530706533166942 -0.4449428791697739 0.8037502541556226 0.9215767609915242 8.663650214541056" Properties=species:S:1:pos:R:3:spacegroup_kinds:I:1:forces:R:3 spacegroup="P 1" unit_cell=conventional occupancy="_JSON {\"0\": {\"Cs\": 1.0}, \"1\": {\"Cs\": 1.0}, \"2\": {\"K\": 1.0}, \"3\": {\"In\": 1.0}, \"4\": {\"I\": 1.0}, \"5\": {\"I\": 1.0}, \"6\": {\"I\": 1.0}, \"7\": {\"I\": 1.0}, \"8\": {\"I\": 1.0}, \"9\": {\"I\": 1.0}, \"10\": {\"Cs\": 1.0}, \"11\": {\"Cs\": 1.0}, \"12\": {\"K\": 1.0}, \"13\": {\"In\": 1.0}, \"14\": {\"I\": 1.0}, \"15\": {\"I\": 1.0}, \"16\": {\"I\": 1.0}, \"17\": {\"I\": 1.0}, \"18\": {\"I\": 1.0}, \"19\": {\"I\": 1.0}, \"20\": {\"Cs\": 1.0}, \"21\": {\"Cs\": 1.0}, \"22\": {\"K\": 1.0}, \"23\": {\"In\": 1.0}, \"24\": {\"I\": 1.0}, \"25\": {\"I\": 1.0}, \"26\": {\"I\": 1.0}, \"27\": {\"I\": 1.0}, \"28\": {\"I\": 1.0}, \"29\": {\"I\": 1.0}, \"30\": {\"Cs\": 1.0}, \"31\": {\"Cs\": 1.0}, \"32\": {\"K\": 1.0}, \"33\": {\"In\": 1.0}, \"34\": {\"I\": 1.0}, \"35\": {\"I\": 1.0}, \"36\": {\"I\": 1.0}, \"37\": {\"I\": 1.0}, \"38\": {\"I\": 1.0}, \"39\": {\"I\": 1.0}}" energy=-103.1031211860546 free_energy=-103.1031211860546 stress="4.040645130305941e-07 -1.3903594126822277e-06 -4.061745886514405e-06 -1.3903594126822277e-06 -4.339371794942719e-06 2.6048456856318455e-06 -4.061745886514405e-06 2.6048456856318455e-06 -5.929161328439645e-06" pbc="T T T"
Cs       5.73324162       4.22244063       9.10221127        0      -0.00004036      -0.00010470      -0.00016731
Cs       0.09374706       4.90637759      -1.77648235        1      -0.00007875      -0.00012812       0.00003239
K        1.33649412       0.59551993       4.23074400        2      -0.00036303      -0.00004735      -0.00011197
In       0.93373124       0.13433725      -0.10114208        3       0.00028701       0.00041651       0.00008385
I        7.51899210       0.25628204       1.03582295        4      -0.00006523       0.00001106      -0.00013627
I       -1.69229609       8.87224005       6.29018181        5       0.00004259      -0.00006751      -0.00007117
I        1.03901489       2.73207402       1.37414982        6       0.00013397      -0.00009144       0.00009226
I        4.78730932       6.39627269       5.95112824        7       0.00004418      -0.00015206       0.00007385
I        6.36998769       7.07627751       0.41819520        8       0.00008658       0.00000169       0.00013112
I       -0.54362940       2.05178077       6.90708503        9       0.00009870       0.00014595       0.00004800
Cs       0.39825196      10.98779609       8.87974587       10      -0.00001457      -0.00007428      -0.00019938
Cs      -5.24124009      11.67173323      -1.99895701       11      -0.00005638      -0.00010436       0.00003494
K       -3.99848986       7.36088056       4.00827401       12      -0.00038830      -0.00011442      -0.00011310
In      -4.40122318       6.89978987      -0.32360282       13       0.00004759      -0.00014612       0.00007421
I        2.18401132       7.02163943       0.81334978       14      -0.00016673      -0.00006173      -0.00004339
I        3.64268501       2.10688847       6.51267529       15       0.00001008      -0.00009955      -0.00008834
I       -4.29596745       9.49741011       1.15167163       16       0.00010543       0.00003969       0.00016263
I       -0.54769666      13.16157627       5.72869665       17       0.00007339       0.00006344       0.00003491
I        1.03499234      13.84161370       0.19574539       18       0.00005487       0.00007010       0.00002591
I       -5.87861353       8.81714736       6.68457790       19       0.00013720       0.00013005       0.00015628
Cs      14.22313115       5.39488169       8.18876841       20      -0.00004214      -0.00004122      -0.00019701
Cs       8.58363261       6.07882795      -2.68993411       21      -0.00003313      -0.00008465       0.00002830
K        9.82639194       1.76798880       3.31728102       22      -0.00038087      -0.00011448      -0.00009152
In       9.42364450       1.30686055      -1.01463679       23       0.00021826       0.00003330       0.00027018
I       16.00890843       1.42876225       0.12233717       24      -0.00019755      -0.00007825       0.00001259
I        6.79760188      10.04470270       5.37672580       25      -0.00006922      -0.00014512       0.00003163
I        9.52889847       3.90448367       0.46071386       26       0.00012969       0.00006395       0.00009166
I       13.27719580       7.56867849       5.03766351       27       0.00005304       0.00015040       0.00019525
I       -2.11989693       5.90380810       1.33165922       28       0.00000834       0.00007570       0.00006079
I        7.94626250       3.22422399       5.99364594       29       0.00005854       0.00018161      -0.00000790
Cs       8.88814899      12.16026101       7.96628824       30      -0.00003643      -0.00013804      -0.00018558
Cs       3.24865649      12.84419596      -2.91241344       31      -0.00007307      -0.00015439       0.00005119
K        4.49139816       8.53331866       3.09482336       32      -0.00035229      -0.00001039      -0.00010230
In       4.08863514       8.07212247      -1.23701384       33       0.00027615       0.00056201      -0.00016643
I       10.67386497       8.19404076      -0.10005565       34       0.00008455       0.00013389      -0.00028344
I       12.13259743       3.27936598       5.59920198       35      -0.00001281      -0.00011592      -0.00008380
I        4.19392217      10.66987041       0.23822752       36       0.00011479      -0.00007931       0.00009330
I        7.94220235      14.33404796       4.81524143       37       0.00006034      -0.00007037       0.00000036
I       -7.45489693      12.66916351       1.10918500       38       0.00007960       0.00004651       0.00009630
I        2.61127500       9.98960552       5.77112812       39       0.00016599       0.00009788       0.00016701
