40
Lattice="18.514987386965487 1.708094655112502 0.48341034675729666 -10.74315654290799 15.177386349796913 0.07860066146487636 -0.21672072895719782 -0.19512263529982166 8.823733242105085" Properties=species:S:1:pos:R:3:spacegroup_kinds:I:1:forces:R:3 spacegroup="P 1" unit_cell=conventional occupancy="_JSON {\"0\": {\"Cs\": 1.0}, \"1\": {\"Cs\": 1.0}, \"2\": {\"K\": 1.0}, \"3\": {\"In\": 1.0}, \"4\": {\"I\": 1.0}, \"5\": {\"I\": 1.0}, \"6\": {\"I\": 1.0}, \"7\": {\"I\": 1.0}, \"8\": {\"I\": 1.0}, \"9\": {\"I\": 1.0}, \"10\": {\"Cs\": 1.0}, \"11\": {\"Cs\": 1.0}, \"12\": {\"K\": 1.0}, \"13\": {\"In\": 1.0}, \"14\": {\"I\": 1.0}, \"15\": {\"I\": 1.0}, \"16\": {\"I\": 1.0}, \"17\": {\"I\": 1.0}, \"18\": {\"I\": 1.0}, \"19\": {\"I\": 1.0}, \"20\": {\"Cs\": 1.0}, \"21\": {\"Cs\": 1.0}, \"22\": {\"K\": 1.0}, \"23\": {\"In\": 1.0}, \"24\": {\"I\": 1.0}, \"25\": {\"I\": 1.0}, \"26\": {\"I\": 1.0}, \"27\": {\"I\": 1.0}, \"28\": {\"I\": 1.0}, \"29\": {\"I\": 1.0}, \"30\": {\"Cs\": 1.0}, \"31\": {\"Cs\": 1.0}, \"32\": {\"K\": 1.0}, \"33\": {\"In\": 1.0}, \"34\": {\"I\": 1.0}, \"35\": {\"I\": 1.0}, \"36\": {\"I\": 1.0}, \"37\": {\"I\": 1.0}, \"38\": {\"I\": 1.0}, \"39\": {\"I\": 1.0}}" energy=-103.17524204085112 free_energy=-103.17524204085112 stress="2.414261713465626e-06 2.8316730386821632e-06 -5.897574059864945e-06 2.8316730386821632e-06 -4.1908062966672076e-06 7.393410623308789e-07 -5.897574059864945e-06 7.393410623308789e-07 -1.4959720109825003e-06" pbc="T T T"
Cs       6.64957973       3.14687043       9.02537616        0      -0.00021379       0.00021271       0.00009486
Cs       1.98794722       5.58585767       0.20965138        1      -0.00009627      -0.00042880      -0.00019297
K        2.37595838       0.14524601       4.47688225        2      -0.00002133      -0.00039888       0.00022983
In       2.48395430       0.24234472       0.06522380        3      -0.00021483       0.00000696      -0.00020113
I        9.26948608       0.85768162       2.00908943        4      -0.00022031      -0.00042458       0.00002115
I       -0.63225606       7.87522951       7.22646722        5       0.00025521      -0.00012699      -0.00057015
I        3.48162879       2.40717389       1.90445719        6       0.00038966       0.00001857       0.00018295
I        5.15494665       6.32548930       7.33059953        7       0.00050212      -0.00006902      -0.00044567
I        7.71627124       6.64190938       2.10065634        8      -0.00039566       0.00054547       0.00036787
I        0.92131910       2.09019328       7.13396096        9      -0.00020593       0.00020180       0.00044274
Cs       1.27800370      10.73555929       9.06467739       10      -0.00023660       0.00024349       0.00008593
Cs      -3.38363348      13.17455461       0.24895108       11      -0.00007198      -0.00045604      -0.00018718
K       15.51936321       9.44202204       4.99959258       12       0.00000276      -0.00032515       0.00022027
In      -2.88765404       7.83096026       0.10451424       13      -0.00005780       0.00047669      -0.00013378
I        3.89791369       8.44638175       2.04838638       14      -0.00025663      -0.00046343       0.00005070
I        4.73931486       0.28652903       7.18717095       15       0.00029794      -0.00008832      -0.00060215
I       -1.88993783       9.99589317       1.94376944       16       0.00031643      -0.00014301       0.00008339
I       -0.21664649      13.91415058       7.36988422       17       0.00058896       0.00012038      -0.00032439
I        2.34469557      14.23059122       2.13996126       18      -0.00042977       0.00062439       0.00032661
I       -4.45026223       9.67889897       7.17325600       19      -0.00016830       0.00011870       0.00048616
Cs      15.90707645       4.00091848       9.26708109       20      -0.00023895       0.00021255       0.00009749
Cs      11.24543772       6.43990385       0.45135707       21      -0.00006981      -0.00042511      -0.00019869
K       11.63344760       0.99928594       4.71858704       22       0.00000930      -0.00035464       0.00022370
In      11.74141804       1.09634315       0.30692197       23      -0.00002179       0.00028953      -0.00015323
I        0.01198446       0.00363045       1.76738762       24      -0.00015562      -0.00040838      -0.00000997
I        8.62524498       8.72928075       7.46816930       25       0.00019493      -0.00014379      -0.00054064
I       12.73913013       3.26123829       2.14616976       26       0.00033811      -0.00009004       0.00011662
I       -4.10255803       5.47141878       7.08888310       27       0.00056760       0.00006825      -0.00035710
I       -1.54122421       5.78785673       1.85895282       28      -0.00038669       0.00057815       0.00035147
I       10.17881406       2.94424700       7.37566395       29      -0.00021149       0.00016534       0.00046086
Cs      10.53550059      11.58960780       9.30638198       30      -0.00026363       0.00024029       0.00009151
Cs       5.87385717      14.02860122       0.49065643       31      -0.00004639      -0.00045593      -0.00018994
K        6.26186448       8.58796609       4.75788898       32       0.00003697      -0.00027352       0.00020120
In       6.36980583       8.68495014       0.34620359       33       0.00015595       0.00080615      -0.00003087
I       -5.35958758       7.59233033       1.80668448       34      -0.00019691      -0.00044669       0.00002179
I       13.99681760       1.14058099       7.42887224       35       0.00023214      -0.00010494      -0.00057111
I        7.36756761      10.84996587       2.18548773       36       0.00024849      -0.00028596      -0.00000967
I       -9.47414968      13.06008260       7.12816820       37       0.00064495       0.00023806      -0.00024998
I       -6.91279942      13.37653876       1.89825771       38      -0.00042395       0.00065985       0.00030837
I        4.80723298      10.53295095       7.41495965       39      -0.00017704       0.00008590       0.00050314
