40
Lattice="19.540831319484003 0.0 0.0 2.242247223310245 17.82966227883386 0.0 8.493579452599262 1.9128923168717242 6.1438836630738844" Properties=species:S:1:pos:R:3 pbc="T T T"
Cs       4.84622871       2.70691581       1.53597749
Cs      14.53888990       8.12080724       4.60790591
K        9.69255939       5.41386152       3.07194171
In       0.00000012       0.00000032       0.00000013
I        9.55072532       2.83320759       3.89706924
I        9.83439344       7.99451523       2.24681416
I       10.84015238       3.01578481       1.65857060
I        8.54496570       7.81193802       4.48531265
I        5.21173107       7.08022983       1.19704090
I       14.17338798       3.74749442       4.94684321
Cs       5.96735232      11.62174695       1.53597749
Cs      15.66001351      17.03563838       4.60790591
K       10.81368300      14.32869266       3.07194171
In       1.12112373       8.91483146       0.00000013
I       10.67184894      11.74803873       3.89706924
I       10.95551705      16.90934637       2.24681416
I       11.96127599      11.93061595       1.65857060
I        9.66608931      16.72676916       4.48531265
I        6.33285468      15.99506097       1.19704090
I       15.29451159      12.66232556       4.94684321
Cs      14.61664437       2.70691581       1.53597749
Cs      24.30930556       8.12080724       4.60790591
K       19.46297505       5.41386152       3.07194171
In       9.77041578       0.00000032       0.00000013
I       19.32114098       2.83320759       3.89706924
I       19.60480910       7.99451523       2.24681416
I       20.61056804       3.01578481       1.65857060
I       18.31538136       7.81193802       4.48531265
I       14.98214673       7.08022983       1.19704090
I       23.94380364       3.74749442       4.94684321
Cs      15.73776798      11.62174695       1.53597749
Cs      25.43042917      17.03563838       4.60790591
K       20.58409866      14.32869266       3.07194171
In      10.89153939       8.91483146       0.00000013
I       20.44226460      11.74803873       3.89706924
I       20.72593271      16.90934637       2.24681416
I       21.73169165      11.93061595       1.65857060
I       19.43650497      16.72676916       4.48531265
I       16.10327034      15.99506097       1.19704090
I       25.06492725      12.66232556       4.94684321
