40
Lattice="16.272348270244525 1.0968934105479677 -0.6674534339040943 2.78623032920001 15.841961779636787 0.7821830082111287 6.888041961288434 2.3870153543721164 7.683042337983568" Properties=species:S:1:pos:R:3:spacegroup_kinds:I:1:forces:R:3 spacegroup="P 1" unit_cell=conventional occupancy="_JSON {\"0\": {\"Cs\": 1.0}, \"1\": {\"Cs\": 1.0}, \"2\": {\"K\": 1.0}, \"3\": {\"In\": 1.0}, \"4\": {\"I\": 1.0}, \"5\": {\"I\": 1.0}, \"6\": {\"I\": 1.0}, \"7\": {\"I\": 1.0}, \"8\": {\"I\": 1.0}, \"9\": {\"I\": 1.0}, \"10\": {\"Cs\": 1.0}, \"11\": {\"Cs\": 1.0}, \"12\": {\"K\": 1.0}, \"13\": {\"In\": 1.0}, \"14\": {\"I\": 1.0}, \"15\": {\"I\": 1.0}, \"16\": {\"I\": 1.0}, \"17\": {\"I\": 1.0}, \"18\": {\"I\": 1.0}, \"19\": {\"I\": 1.0}, \"20\": {\"Cs\": 1.0}, \"21\": {\"Cs\": 1.0}, \"22\": {\"K\": 1.0}, \"23\": {\"In\": 1.0}, \"24\": {\"I\": 1.0}, \"25\": {\"I\": 1.0}, \"26\": {\"I\": 1.0}, \"27\": {\"I\": 1.0}, \"28\": {\"I\": 1.0}, \"29\": {\"I\": 1.0}, \"30\": {\"Cs\": 1.0}, \"31\": {\"Cs\": 1.0}, \"32\": {\"K\": 1.0}, \"33\": {\"In\": 1.0}, \"34\": {\"I\": 1.0}, \"35\": {\"I\": 1.0}, \"36\": {\"I\": 1.0}, \"37\": {\"I\": 1.0}, \"38\": {\"I\": 1.0}, \"39\": {\"I\": 1.0}}" energy=-101.79411714502066 free_energy=-101.79411714502066 stress="3.6075646388529913e-07 1.4567723521379794e-07 2.333870027452622e-07 1.4567723521379794e-07 1.8064382207353456e-07 -6.141557099416029e-07 2.333870027452622e-07 -6.141557099416029e-07 1.3870905705529238e-06" pbc="T T T"
Cs       3.67287312       2.86215523       1.77008437        0       0.00002549       0.00012511       0.00003131
Cs      12.74359270       7.99320837       5.97117432        1       0.00007635       0.00005594      -0.00000836
K        8.20828554       5.42897913       3.87016561        2       0.00027253      -0.00039681       0.00015614
In      16.27261629       1.09693309      -0.66774130        3      -0.00036402       0.00040342       0.00062988
I        9.34645212       3.34740898       6.37042658        4       0.00039923      -0.00006939      -0.00005167
I        7.07105955       7.50941104       1.36929620        5      -0.00040289      -0.00002971      -0.00016547
I        7.75805270       3.12502297       1.13229527        6      -0.00013197       0.00010185      -0.00017933
I        8.65973813       7.73123388       6.60858981        7      -0.00025071       0.00012162      -0.00004071
I        3.00984821       6.73756156       2.69547574        8      -0.00003210      -0.00000024       0.00014845
I       13.40790546       4.11900784       5.04457728        9       0.00017352       0.00000687       0.00012586
Cs       5.06597786      10.78317441       2.16125824       10       0.00010981       0.00007384      -0.00002774
Cs      14.13672800      15.91416369       6.36219931       11       0.00009890       0.00009168       0.00003282
K        9.60140755      13.34997952       4.26129493       12       0.00017659      -0.00046091       0.00003290
In      17.66565745       9.01800924      -0.27646713       13      -0.00006347      -0.00032677      -0.00025623
I       10.73973246      11.26831581       6.76153229       14      -0.00010122       0.00008759       0.00002228
I        8.46402168      15.43042081       1.76022967       15       0.00003042      -0.00013984       0.00011674
I        9.15122174      11.04598178       1.52334570       16      -0.00026000       0.00009260      -0.00022849
I       10.05278931      15.65218887       6.99970069       17      -0.00007228      -0.00013525      -0.00019969
I        4.40291825      14.65852319       3.08670232       18      -0.00003269       0.00003112      -0.00014896
I       14.80108086      12.03999736       5.43549958       19       0.00000855       0.00002270       0.00021550
Cs      11.80904456       3.41060593       1.43639255       20       0.00011994       0.00017648       0.00003787
Cs      20.87979315       8.54167325       5.63750492       21       0.00007559       0.00001555      -0.00007937
K       16.34447266       5.97741155       3.53647240       22       0.00015410      -0.00038903      -0.00002576
In       8.13641919       0.54860688      -0.33387038       23      -0.00005912      -0.00016160      -0.00032956
I       17.48280620       3.89589087       6.03672282       24      -0.00030744      -0.00020553       0.00005381
I       15.20695362       8.05778664       1.03545109       25       0.00035983       0.00008421       0.00010067
I       15.89424938       3.67348823       0.79850176       26      -0.00013448      -0.00009134      -0.00017481
I       16.79588961       8.27963248       6.27487594       27      -0.00023620       0.00006816      -0.00008507
I       11.14596082       7.28598825       2.36187409       28      -0.00000908       0.00003212      -0.00013493
I       21.54415375       4.66746811       4.71091200       29      -0.00010387       0.00007349      -0.00021080
Cs      13.20218691      11.33164511       1.82758225       30      -0.00002678      -0.00003589      -0.00018522
Cs      22.27291448      16.46262858       6.02851148       31      -0.00002557       0.00005386      -0.00003318
K       17.73758265      13.89839540       3.92761934       32       0.00018447      -0.00031487      -0.00011555
In       9.52941464       8.46952332       0.05710351       33       0.00040033       0.00014716       0.00024385
I       18.87576542      11.81679056       6.42777526       34       0.00008408      -0.00002300       0.00014497
I       16.60023374      15.97884681       1.42649119       35       0.00009429      -0.00017429       0.00017137
I       17.28738202      11.59436386       1.18941945       36      -0.00021870       0.00046878       0.00023769
I       18.18894935      16.20049590       6.66595904       37      -0.00011304       0.00055319       0.00006558
I       12.53909128      15.20694948       2.75280456       38       0.00005571       0.00004269       0.00016746
I       22.93722197      12.58844102       5.10197172       39       0.00004592       0.00002444      -0.00005425
