40
Lattice="10.396472845539284 0.0 0.0 2.238675165954056 13.526516817941394 0.0 -6.605022694295137 -5.03224741154524 10.758962290405622" Properties=species:S:1:pos:R:3:oxi_states:R:1 pbc="T T T"
Cs       1.50765061       2.12344807       2.68974057       1.00000000
Pb      -0.00000000      -0.00000000       0.00000000       2.00000000
I       -2.57497189      -0.33434739       2.68974123      -1.00000000
I        2.59911821       0.00000000      -0.00000000      -1.00000000
I        0.55966879       3.38162920       0.00000000      -1.00000000
Cs      -1.79486074      -0.39267563       8.06922172       1.00000000
Pb      -3.30251135      -2.51612371       5.37948115       2.00000000
I       -5.87748324      -2.85047109       8.06922237      -1.00000000
I       -0.70339314      -2.51612371       5.37948115      -1.00000000
I       -2.74284256       0.86550550       5.37948115      -1.00000000
Cs       2.62698819       8.88670648       2.68974057       1.00000000
Pb       1.11933758       6.76325841       0.00000000       2.00000000
I       -1.45563431       6.42891102       2.68974123      -1.00000000
I        3.71845579       6.76325841      -0.00000000      -1.00000000
I        1.67900637      10.14488761       0.00000000      -1.00000000
Cs      -0.67552316       6.37058278       8.06922172       1.00000000
Pb      -2.18317376       4.24713470       5.37948115       2.00000000
I       -4.75814565       3.91278732       8.06922237      -1.00000000
I        0.41594445       4.24713470       5.37948115      -1.00000000
I       -1.62350497       7.62876391       5.37948115      -1.00000000
Cs       6.70588703       2.12344807       2.68974057       1.00000000
Pb       5.19823642      -0.00000000       0.00000000       2.00000000
I        2.62326453      -0.33434739       2.68974123      -1.00000000
I        7.79735463       0.00000000      -0.00000000      -1.00000000
I        5.75790521       3.38162920       0.00000000      -1.00000000
Cs       3.40337568      -0.39267563       8.06922172       1.00000000
Pb       1.89572508      -2.51612371       5.37948115       2.00000000
I       -0.67924681      -2.85047109       8.06922237      -1.00000000
I        4.49484329      -2.51612371       5.37948115      -1.00000000
I        2.45539387       0.86550550       5.37948115      -1.00000000
Cs       7.82522461       8.88670648       2.68974057       1.00000000
Pb       6.31757401       6.76325841       0.00000000       2.00000000
I        3.74260212       6.42891102       2.68974123      -1.00000000
I        8.91669222       6.76325841      -0.00000000      -1.00000000
I        6.87724280      10.14488761       0.00000000      -1.00000000
Cs       4.52271326       6.37058278       8.06922172       1.00000000
Pb       3.01506266       4.24713470       5.37948115       2.00000000
I        0.44009077       3.91278732       8.06922237      -1.00000000
I        5.61418087       4.24713470       5.37948115      -1.00000000
I        3.57473145       7.62876391       5.37948115      -1.00000000
