80
Lattice="17.046365958917526 0.0 0.0 8.523182979530501 14.762585962587758 0.0 8.523182979668308 4.9208619876362265 13.918299904738095" Properties=species:S:1:pos:R:3 pbc="T T T"
Cs       4.26153379       2.46041369       1.73979005
Cs      12.78483202       7.38130984       5.21935962
K        8.52318294       4.92086177       3.47957485
In       0.00000013       0.00000038       0.00000015
I        6.81548813       2.79352010       4.34954965
I       10.23087780       7.04820314       2.60960002
I        9.66917042       3.09762240       1.61726270
I        7.37719485       6.74410078       5.34188690
I        6.24260650       6.23777401       1.61727478
I       10.80375985       3.60395064       5.34187551
Cs       8.52312528       4.92084469       8.69894000
Cs      17.04642351       9.84174083      12.17850957
K       12.78477443       7.38129277      10.43872480
In       4.26159162       2.46043138       6.95915011
I       11.07707961       5.25395109      11.30869961
I       14.49246929       9.50863413       9.56874997
I       13.93076191       5.55805340       8.57641265
I       11.63878634       9.20453177      12.30103686
I       10.50419799       8.69820500       8.57642473
I       15.06535134       6.06438164      12.30102546
Cs       8.52312528       9.84170667       1.73979005
Cs      17.04642351      14.76260282       5.21935962
K       12.78477443      12.30215476       3.47957485
In       4.26159162       7.38129336       0.00000015
I       11.07707961      10.17481308       4.34954965
I       14.49246929      14.42949612       2.60960002
I       13.93076191      10.47891539       1.61726270
I       11.63878634      14.12539376       5.34188690
I       10.50419799      13.61906699       1.61727478
I       15.06535134      10.98524363       5.34187551
Cs      12.78471677      12.30213767       8.69894000
Cs      21.30801500      17.22303381      12.17850957
K       17.04636592      14.76258575      10.43872480
In       8.52318311       9.84172436       6.95915011
I       15.33867110      12.63524408      11.30869961
I       18.75406078      16.88992712       9.56874997
I       18.19235340      12.93934638       8.57641265
I       15.90037782      16.58582475      12.30103686
I       14.76578948      16.07949798       8.57642473
I       19.32694283      13.44567462      12.30102546
Cs      12.78471677       2.46041369       1.73979005
Cs      21.30801500       7.38130984       5.21935962
K       17.04636592       4.92086177       3.47957485
In       8.52318311       0.00000038       0.00000015
I       15.33867110       2.79352010       4.34954965
I       18.75406078       7.04820314       2.60960002
I       18.19235340       3.09762240       1.61726270
I       15.90037782       6.74410078       5.34188690
I       14.76578948       6.23777401       1.61727478
I       19.32694283       3.60395064       5.34187551
Cs      17.04630826       4.92084469       8.69894000
Cs      25.56960649       9.84174083      12.17850957
K       21.30795741       7.38129277      10.43872480
In      12.78477460       2.46043138       6.95915011
I       19.60026259       5.25395109      11.30869961
I       23.01565227       9.50863413       9.56874997
I       22.45394489       5.55805340       8.57641265
I       20.16196931       9.20453177      12.30103686
I       19.02738097       8.69820500       8.57642473
I       23.58853432       6.06438164      12.30102546
Cs      17.04630826       9.84170667       1.73979005
Cs      25.56960649      14.76260282       5.21935962
K       21.30795741      12.30215476       3.47957485
In      12.78477460       7.38129336       0.00000015
I       19.60026259      10.17481308       4.34954965
I       23.01565227      14.42949612       2.60960002
I       22.45394489      10.47891539       1.61726270
I       20.16196931      14.12539376       5.34188690
I       19.02738097      13.61906699       1.61727478
I       23.58853432      10.98524363       5.34187551
Cs      21.30789975      12.30213767       8.69894000
Cs      29.83119798      17.22303381      12.17850957
K       25.56954890      14.76258575      10.43872480
In      17.04636609       9.84172436       6.95915011
I       23.86185408      12.63524408      11.30869961
I       27.27724375      16.88992712       9.56874997
I       26.71553638      12.93934638       8.57641265
I       24.42356080      16.58582475      12.30103686
I       23.28897246      16.07949798       8.57642473
I       27.85012581      13.44567462      12.30102546
