40
Lattice="18.578510419735675 0.71656300830674 0.23916314496132587 -9.935706262215675 15.147136123520706 4.202246939216944 -0.018789539951865122 -2.372594099380824 8.504909119499468" Properties=species:S:1:pos:R:3:spacegroup_kinds:I:1:forces:R:3 spacegroup="P 1" unit_cell=conventional occupancy="_JSON {\"0\": {\"Cs\": 1.0}, \"1\": {\"Cs\": 1.0}, \"2\": {\"K\": 1.0}, \"3\": {\"In\": 1.0}, \"4\": {\"I\": 1.0}, \"5\": {\"I\": 1.0}, \"6\": {\"I\": 1.0}, \"7\": {\"I\": 1.0}, \"8\": {\"I\": 1.0}, \"9\": {\"I\": 1.0}, \"10\": {\"Cs\": 1.0}, \"11\": {\"Cs\": 1.0}, \"12\": {\"K\": 1.0}, \"13\": {\"In\": 1.0}, \"14\": {\"I\": 1.0}, \"15\": {\"I\": 1.0}, \"16\": {\"I\": 1.0}, \"17\": {\"I\": 1.0}, \"18\": {\"I\": 1.0}, \"19\": {\"I\": 1.0}, \"20\": {\"Cs\": 1.0}, \"21\": {\"Cs\": 1.0}, \"22\": {\"K\": 1.0}, \"23\": {\"In\": 1.0}, \"24\": {\"I\": 1.0}, \"25\": {\"I\": 1.0}, \"26\": {\"I\": 1.0}, \"27\": {\"I\": 1.0}, \"28\": {\"I\": 1.0}, \"29\": {\"I\": 1.0}, \"30\": {\"Cs\": 1.0}, \"31\": {\"Cs\": 1.0}, \"32\": {\"K\": 1.0}, \"33\": {\"In\": 1.0}, \"34\": {\"I\": 1.0}, \"35\": {\"I\": 1.0}, \"36\": {\"I\": 1.0}, \"37\": {\"I\": 1.0}, \"38\": {\"I\": 1.0}, \"39\": {\"I\": 1.0}}" energy=-103.17525537525667 free_energy=-103.17525537525667 stress="-4.932842508090128e-06 4.4346589675213555e-06 1.5069767532360458e-06 4.4346589675213555e-06 8.252656914624807e-06 -1.1924402348949594e-06 1.5069767532360458e-06 -1.1924402348949594e-06 8.879572047935824e-06" pbc="T T T"
Cs       5.27634792       0.10815563       9.18672350        0      -0.00015955       0.00014689      -0.00015469
Cs       0.54400913       4.87345509       1.38240347        1      -0.00029959       0.00056546      -0.00039339
K       -9.18620502      13.67331369       8.37583207        2      -0.00006931      -0.00045040       0.00022671
In      -9.17708580      14.85864115       4.12301309        3       0.00021123       0.00009675       0.00023038
I       -2.32803404      14.66153870       5.91670411        4       0.00008784      -0.00001138      -0.00030993
I       -1.78752137       5.46820126       8.85350736        5       0.00003244      -0.00027366       0.00026415
I        1.89968284       1.30984071       2.20329651        6      -0.00002519       0.00015501       0.00001652
I        3.92063020       3.67264399       8.36416838        7      -0.00030351      -0.00043020       0.00001029
I        6.36785199       5.17623044       3.29036590        8       0.00027138       0.00005159       0.00002140
I       -0.54856810      -0.19384729       7.27762859        9       0.00044540       0.00012314      -0.00009490
Cs       0.30850532       7.68172568      11.28785500       10      -0.00022008       0.00016243      -0.00019531
Cs      -4.42385725      12.44701291       3.48351374       11      -0.00022420       0.00060653      -0.00035486
K       -4.21836165       6.09974315       6.27469993       12      -0.00001630      -0.00046411       0.00026693
In      -4.20931196       7.28508174       2.02192681       13       0.00064637       0.00009780       0.00003421
I        2.63987022       7.08795611       3.81552906       14      -0.00019686      -0.00003941      -0.00007492
I       -6.75539386      13.04177615      10.95465303       15       0.00014922      -0.00026555       0.00015517
I       -3.06817446       8.88339520       4.30440017       16      -0.00000974       0.00019935       0.00007707
I       -1.04724175      11.24618316      10.46524537       17      -0.00019184      -0.00031787       0.00021081
I        1.39999081      12.74980801       5.39149017       18       0.00032520      -0.00003229       0.00004855
I       -5.51641403       7.37971541       9.37875836       19       0.00040639       0.00018594      -0.00014236
Cs      14.56559959       0.46642092       9.30628828       20      -0.00014151       0.00023874      -0.00011156
Cs       9.83326837       5.23174759       1.50199844       21      -0.00031684       0.00051538      -0.00043859
K        0.10307220      14.03159921       8.49542323       22      -0.00020345      -0.00045295       0.00018631
In       0.11232420      15.21692975       4.24256906       23      -0.00073796      -0.00003037       0.00035428
I        6.96127708      15.01980807       6.03623955       24      -0.00025196      -0.00004311      -0.00007933
I        7.50170481       5.82648791       8.97310966       25       0.00022642      -0.00025766       0.00014374
I       11.18891837       1.66809424       2.32283826       26       0.00008951       0.00027570       0.00017761
I       13.20989495       4.03094330       8.48377371       27      -0.00034182      -0.00048324      -0.00003454
I       -2.92139998       4.81795674       3.17079330       28       0.00024905       0.00002573      -0.00000905
I        8.74067464       0.16443914       7.39720669       29       0.00052314       0.00006157      -0.00005552
Cs       9.59776030       8.03999773      11.40742433       30      -0.00022028       0.00020617      -0.00015131
Cs       4.86540035      12.80531137       3.60311234       31      -0.00023654       0.00050982      -0.00039706
K        5.07090489       6.45802772       6.39429403       32      -0.00008505      -0.00043920       0.00019663
In       5.08002340       7.64334178       2.14144637       33       0.00015196       0.00013096       0.00037140
I       11.92916910       7.44622769       3.93507248       34      -0.00046001      -0.00006460       0.00011288
I        2.53380296      13.40006901      11.07428207       35       0.00050155      -0.00022553      -0.00008484
I        6.22108412       9.24169213       4.42400788       36      -0.00002379       0.00015467      -0.00002193
I        8.24202923      11.60448487      10.58485628       37      -0.00028946      -0.00041185       0.00008012
I       -7.88925245      12.39151985       5.27191157       38       0.00024841       0.00004050       0.00000609
I        3.77283205       7.73799877       9.49833125       39       0.00045933       0.00014325      -0.00008717
