10
Lattice="9.179521627622275 -0.017320462434524897 0.006984043348980557 4.588410026664531 8.00008625583088 -0.021259575603975574 4.573560414563585 2.6260605213827235 6.935605923487822" Properties=species:S:1:pos:R:3:spacegroup_kinds:I:1:forces:R:3 spacegroup="P 1" unit_cell=conventional occupancy="_JSON {\"0\": {\"Cs\": 1.0}, \"1\": {\"Cs\": 1.0}, \"2\": {\"K\": 1.0}, \"3\": {\"In\": 1.0}, \"4\": {\"I\": 1.0}, \"5\": {\"I\": 1.0}, \"6\": {\"I\": 1.0}, \"7\": {\"I\": 1.0}, \"8\": {\"I\": 1.0}, \"9\": {\"I\": 1.0}}" energy=-25.64894583578112 free_energy=-25.64894583578112 stress="1.0155232272628952e-06 -1.7411577586302224e-06 -2.2162006362642877e-06 -1.7411577586302224e-06 1.6383297697240265e-06 -5.4980240583366775e-08 -2.2162006362642877e-06 -5.4980240583366775e-08 5.906328775508392e-07" pbc="T T T"
Cs       4.60057906       2.63996850       1.92103372        0      -0.00076290       0.00014703      -0.00033608
Cs      13.74218758       7.96886138       5.00117548        1      -0.00040575       0.00005605      -0.00001295
K        9.17090718       5.30394511       3.46068681        2      -0.00036368       0.00047821       0.00004294
In       9.17920366      -0.01733302       0.00692142        3       0.00019691      -0.00002093      -0.00000083
I        6.95687036       3.20612806       5.24986848        4       0.00013502      -0.00016916      -0.00003663
I       11.38408664       7.40278928       1.67144026        5       0.00040921      -0.00012826      -0.00022325
I        9.87273304       2.29046084       1.74726618        6       0.00026414      -0.00007393       0.00014761
I        8.46813729       8.31842791       5.17377422        7       0.00051249      -0.00004425      -0.00005599
I        6.24694884       6.19722583       1.67612495        8      -0.00034033       0.00009755       0.00007265
I       12.09458236       4.41192352       5.24467911        9       0.00035489      -0.00034232       0.00040253
