10
Lattice="8.074594401592513 0.0 0.0 4.037297200830238 6.9928038770152545 0.0 4.037297200895514 2.330934625722423 6.592878902244361" Properties=species:S:1:pos:R:3 pbc="T T T"
Cs       4.03726475       2.33092489       1.64822091
Cs      12.11192396       6.99281335       4.94465783
K        8.07459442       4.66186915       3.29643941
In       0.00000010       0.00000023       0.00000009
I        6.23612356       2.95856619       4.50267840
I        9.91306530       6.36517195       2.09020039
I        8.71903345       2.62257083       1.53216559
I        7.43015505       6.70116727       5.06071316
I        5.91396709       5.90943210       1.53217239
I       10.23522201       3.41430684       5.06070675
