5
Lattice="6.386988638399606 -7.0505443923423284e-09 -3.2767760859137463e-16 -7.0505443920204336e-09 6.38698863839963 -1.2242628238555783e-16 -3.2674322333220987e-16 -1.2247680831410616e-16 6.386988637456668" Properties=species:S:1:pos:R:3:spacegroup_kinds:I:1:forces:R:3 spacegroup="P 1" unit_cell=conventional occupancy="_JSON {\"0\": {\"Cs\": 1.0}, \"1\": {\"Pb\": 1.0}, \"2\": {\"I\": 1.0}, \"3\": {\"I\": 1.0}, \"4\": {\"I\": 1.0}}" energy=-13.980742411546904 free_energy=-13.980742411546904 stress="-3.5385474012323716e-06 -6.084158979398463e-11 8.456341913258405e-18 -6.084158979398463e-11 -3.538547401489279e-06 5.352540446983157e-19 8.456341913258405e-18 5.352540446983157e-19 -3.5385492569919184e-06" pbc="T T T"
Cs       3.19366639       3.19332224       3.19349432        0       0.00000533      -0.00000533      -0.00000000
Pb       0.00000536      -0.00000536      -0.00000000        1       0.00000388      -0.00000388      -0.00000000
I        0.00001440      -0.00001441       3.19349432        2      -0.00001261       0.00001261      -0.00000000
I        3.19349744      -0.00001441      -0.00000000        3       0.00001601       0.00001261       0.00000000
I        0.00001440       3.19349120      -0.00000000        4      -0.00001261      -0.00001601       0.00000000
