40
Lattice="19.633711524322273 0.0 0.0 5.95594866364401 14.395905891467818 0.0 1.9896208602489676 2.801093509167439 7.195650916629846" Properties=species:S:1:pos:R:3 pbc="T T T"
Cs       3.69605857       2.49974527       1.79892046
Cs      11.08839227       7.49930075       5.39673017
K        7.39222543       4.99952300       3.59782533
In       0.00000013       0.00000033       0.00000014
I        5.03864484       3.06221518       4.64973824
I        9.74580605       6.93683057       2.54591240
I        9.89735070       2.82718839       1.95837018
I        4.88709944       7.17185739       5.23728028
I        5.16184685       5.91901471       1.38609996
I        9.62260435       4.08003260       5.80955147
Cs       6.67403290       9.69769821       1.79892046
Cs      14.06636660      14.69725370       5.39673017
K       10.37019976      12.19747594       3.59782533
In       2.97797446       7.19795328       0.00000014
I        8.01661917      10.26016813       4.64973824
I       12.72378038      14.13478352       2.54591240
I       12.87532503      10.02514134       1.95837018
I        7.86507377      14.36981034       5.23728028
I        8.13982118      13.11696766       1.38609996
I       12.60057868      11.27798555       5.80955147
Cs      13.51291433       2.49974527       1.79892046
Cs      20.90524803       7.49930075       5.39673017
K       17.20908119       4.99952300       3.59782533
In       9.81685589       0.00000033       0.00000014
I       14.85550060       3.06221518       4.64973824
I       19.56266181       6.93683057       2.54591240
I       19.71420646       2.82718839       1.95837018
I       14.70395520       7.17185739       5.23728028
I       14.97870261       5.91901471       1.38609996
I       19.43946011       4.08003260       5.80955147
Cs      16.49088866       9.69769821       1.79892046
Cs      23.88322237      14.69725370       5.39673017
K       20.18705552      12.19747594       3.59782533
In      12.79483022       7.19795328       0.00000014
I       17.83347493      10.26016813       4.64973824
I       22.54063615      14.13478352       2.54591240
I       22.69218079      10.02514134       1.95837018
I       17.68192953      14.36981034       5.23728028
I       17.95667694      13.11696766       1.38609996
I       22.41743444      11.27798555       5.80955147
