80
Lattice="17.303348023218508 0.0 0.0 -10.850395875054033 18.793436937829366 0.0 -2.599843715097794 7.327417786035672 18.570469518000074" Properties=species:S:1:pos:R:3 pbc="T T T"
Cs       3.34959707       6.16329898       9.27647961
Cs      -0.04521523       5.63871637       0.00869861
K       -0.64996093       1.83185445       4.64261738
In       0.68892135      -0.62921119       0.00000865
I        6.81111800       0.11017399       1.85734049
I       -3.50674147      11.69182022       7.42788501
I        1.27984741       2.56443677       1.85735061
I        2.02455059       9.23758537       7.42789513
I        5.07385390       7.03306283       1.85734822
I       -1.76947065       4.76895658       7.42789274
Cs       2.04967521       9.82700787      18.56171437
Cs      -1.34513708       9.30242526       9.29393337
K       -1.94988279       5.49556334      13.92785214
In      -0.61100051       3.03449770       9.28524341
I        5.51119614       3.77388289      11.14257525
I       -4.80666332      15.35552912      16.71311977
I       -0.02007444       6.22814566      11.14258537
I        0.72462874      12.90129426      16.71312989
I        3.77393204      10.69677172      11.14258298
I       -3.06939251       8.43266547      16.71312750
Cs      -2.07560087      15.56001744       9.27647961
Cs      -5.47041316      15.03543483       0.00869861
K       -6.07515887      11.22857292       4.64261738
In      -4.73627659       8.76750728       0.00000865
I        1.38592006       9.50689246       1.85734049
I       -8.93193940      21.08853869       7.42788501
I       -4.14535052      11.96115524       1.85735061
I       -3.40064734      18.63430384       7.42789513
I       -0.35134404      16.42978130       1.85734822
I       -7.19466859      14.16567505       7.42789274
Cs      -3.37552272      19.22372634      18.56171437
Cs      -6.77033502      18.69914373       9.29393337
K       -7.37508072      14.89228181      13.92785214
In      -6.03619845      12.43121617       9.28524341
I        0.08599820      13.17060136      11.14257525
I      -10.23186126      24.75224758      16.71311977
I       -5.44527238      15.62486413      11.14258537
I       -4.70056920      22.29801273      16.71312989
I       -1.65126590      20.09349019      11.14258298
I       -8.49459044      17.82938394      16.71312750
Cs      12.00127108       6.16329898       9.27647961
Cs       8.60645879       5.63871637       0.00869861
K        8.00171308       1.83185445       4.64261738
In       9.34059536      -0.62921119       0.00000865
I       15.46279201       0.11017399       1.85734049
I        5.14493254      11.69182022       7.42788501
I        9.93152143       2.56443677       1.85735061
I       10.67622461       9.23758537       7.42789513
I       13.72552791       7.03306283       1.85734822
I        6.88220336       4.76895658       7.42789274
Cs      10.70134923       9.82700787      18.56171437
Cs       7.30653693       9.30242526       9.29393337
K        6.70179123       5.49556334      13.92785214
In       8.04067350       3.03449770       9.28524341
I       14.16287015       3.77388289      11.14257525
I        3.84501069      15.35552912      16.71311977
I        8.63159957       6.22814566      11.14258537
I        9.37630275      12.90129426      16.71312989
I       12.42560605      10.69677172      11.14258298
I        5.58228150       8.43266547      16.71312750
Cs       6.57607315      15.56001744       9.27647961
Cs       3.18126085      15.03543483       0.00869861
K        2.57651515      11.22857292       4.64261738
In       3.91539742       8.76750728       0.00000865
I       10.03759407       9.50689246       1.85734049
I       -0.28026539      21.08853869       7.42788501
I        4.50632349      11.96115524       1.85735061
I        5.25102667      18.63430384       7.42789513
I        8.30032997      16.42978130       1.85734822
I        1.45700542      14.16567505       7.42789274
Cs       5.27615129      19.22372634      18.56171437
Cs       1.88133899      18.69914373       9.29393337
K        1.27659329      14.89228181      13.92785214
In       2.61547556      12.43121617       9.28524341
I        8.73767222      13.17060136      11.14257525
I       -1.58018725      24.75224758      16.71311977
I        3.20640163      15.62486413      11.14258537
I        3.95110481      22.29801273      16.71312989
I        7.00040811      20.09349019      11.14258298
I        0.15708357      17.82938394      16.71312750
