80
Lattice="18.522002790015197 1.3173124607997149 0.9994158039169232 -10.218136919486462 15.136405301233504 -3.5057785887854918 -1.1671341228796088 3.223373479404997 17.321604743746885" Properties=species:S:1:pos:R:3:spacegroup_kinds:I:1:forces:R:3 spacegroup="P 1" unit_cell=conventional occupancy="_JSON {\"0\": {\"Cs\": 1.0}, \"1\": {\"Cs\": 1.0}, \"2\": {\"K\": 1.0}, \"3\": {\"In\": 1.0}, \"4\": {\"I\": 1.0}, \"5\": {\"I\": 1.0}, \"6\": {\"I\": 1.0}, \"7\": {\"I\": 1.0}, \"8\": {\"I\": 1.0}, \"9\": {\"I\": 1.0}, \"10\": {\"Cs\": 1.0}, \"11\": {\"Cs\": 1.0}, \"12\": {\"K\": 1.0}, \"13\": {\"In\": 1.0}, \"14\": {\"I\": 1.0}, \"15\": {\"I\": 1.0}, \"16\": {\"I\": 1.0}, \"17\": {\"I\": 1.0}, \"18\": {\"I\": 1.0}, \"19\": {\"I\": 1.0}, \"20\": {\"Cs\": 1.0}, \"21\": {\"Cs\": 1.0}, \"22\": {\"K\": 1.0}, \"23\": {\"In\": 1.0}, \"24\": {\"I\": 1.0}, \"25\": {\"I\": 1.0}, \"26\": {\"I\": 1.0}, \"27\": {\"I\": 1.0}, \"28\": {\"I\": 1.0}, \"29\": {\"I\": 1.0}, \"30\": {\"Cs\": 1.0}, \"31\": {\"Cs\": 1.0}, \"32\": {\"K\": 1.0}, \"33\": {\"In\": 1.0}, \"34\": {\"I\": 1.0}, \"35\": {\"I\": 1.0}, \"36\": {\"I\": 1.0}, \"37\": {\"I\": 1.0}, \"38\": {\"I\": 1.0}, \"39\": {\"I\": 1.0}, \"40\": {\"Cs\": 1.0}, \"41\": {\"Cs\": 1.0}, \"42\": {\"K\": 1.0}, \"43\": {\"In\": 1.0}, \"44\": {\"I\": 1.0}, \"45\": {\"I\": 1.0}, \"46\": {\"I\": 1.0}, \"47\": {\"I\": 1.0}, \"48\": {\"I\": 1.0}, \"49\": {\"I\": 1.0}, \"50\": {\"Cs\": 1.0}, \"51\": {\"Cs\": 1.0}, \"52\": {\"K\": 1.0}, \"53\": {\"In\": 1.0}, \"54\": {\"I\": 1.0}, \"55\": {\"I\": 1.0}, \"56\": {\"I\": 1.0}, \"57\": {\"I\": 1.0}, \"58\": {\"I\": 1.0}, \"59\": {\"I\": 1.0}, \"60\": {\"Cs\": 1.0}, \"61\": {\"Cs\": 1.0}, \"62\": {\"K\": 1.0}, \"63\": {\"In\": 1.0}, \"64\": {\"I\": 1.0}, \"65\": {\"I\": 1.0}, \"66\": {\"I\": 1.0}, \"67\": {\"I\": 1.0}, \"68\": {\"I\": 1.0}, \"69\": {\"I\": 1.0}, \"70\": {\"Cs\": 1.0}, \"71\": {\"Cs\": 1.0}, \"72\": {\"K\": 1.0}, \"73\": {\"In\": 1.0}, \"74\": {\"I\": 1.0}, \"75\": {\"I\": 1.0}, \"76\": {\"I\": 1.0}, \"77\": {\"I\": 1.0}, \"78\": {\"I\": 1.0}, \"79\": {\"I\": 1.0}}" energy=-206.35051603856465 free_energy=-206.35051603856465 stress="-1.8477678886613365e-06 2.974552254671214e-06 -2.6055952371924976e-06 2.974552254671214e-06 2.582820131492196e-06 -1.2628877691440934e-06 -2.6055952371924976e-06 -1.2628877691440934e-06 1.7096043664860837e-06" pbc="T T T"
Cs       4.50640637       4.14607046       8.56459248        0       0.00018775      -0.00002586      -0.00001685
Cs       0.30509817       4.82488958      -0.91187514        1      -0.00001185       0.00011712      -0.00002918
K        0.32986761       0.37210395       4.45291451        2      -0.00001037      -0.00006783       0.00016610
In      -9.59655344      14.70268323      -3.38324208        3       0.00021357      -0.00039707       0.00023011
I       -2.87926191      15.49049427      -1.27817978        4      -0.00035366       0.00002430       0.00023057
I       -2.52703401       8.61701024       5.42498802        5      -0.00037376      -0.00015658       0.00023384
I        1.57458977       2.05471583       1.52410774        6       0.00011931       0.00004638       0.00009249
I        3.23698344       6.91635260       6.12860225        7      -0.00001496      -0.00011612      -0.00007312
I        6.01445710       6.14287282       1.06067683        8      -0.00002769      -0.00010530       0.00017266
I       -1.20295630       2.82819100       6.59191065        9       0.00031534      -0.00027701       0.00021585
Cs       3.92287935       5.75772670      17.22544830       10       0.00007358       0.00002777      -0.00013850
Cs      -0.27841861       6.43655638       7.74894340       11      -0.00012738       0.00018377      -0.00000544
K       -0.25371506       1.98378590      13.11375996       12      -0.00000060      -0.00009890      -0.00006680
In     -10.18002786      16.31438835       5.27760943       13      -0.00033371      -0.00051155      -0.00004967
I       -3.46307883      17.10209094       7.38277223       14       0.00043108       0.00012159      -0.00033075
I       -3.11075030      10.22865200      14.08580875       15       0.00002832      -0.00008193       0.00029109
I        0.99102909       3.66642317      10.18486537       16       0.00005547      -0.00004979       0.00021957
I        2.65343434       8.52804850      14.78936149       17      -0.00013012      -0.00024032       0.00008052
I        5.43087858       7.75455863       9.72153299       18      -0.00002503      -0.00006129      -0.00008613
I       -1.78647356       4.43980823      15.25280371       19       0.00005186       0.00007788      -0.00011879
Cs      -0.60262114      11.71431533       6.81166744       20       0.00006762      -0.00013202       0.00005811
Cs      -4.80404897      12.39313295      -2.66483806       21       0.00012950      -0.00006522       0.00012688
K       13.74278065       9.25757268       3.69951021       22       0.00004865       0.00008396       0.00004376
In      -4.48747797       7.13438400      -1.63018223       23       0.00015298       0.00020658      -0.00081350
I        2.22975732       7.92230843       0.47468350       24      -0.00030433      -0.00004132       0.00030831
I       -7.63624890      16.18506359       3.67234882       25      -0.00004466       0.00004139      -0.00032572
I       -3.53444851       9.62290289      -0.22874981       26       0.00006015       0.00002526       0.00004415
I       -1.87206338      14.48448772       4.37577489       27      -0.00006398       0.00006982      -0.00019009
I        0.90535901      13.71103141      -0.69217759       28       0.00006449      -0.00000295       0.00015162
I       -6.31191036      10.39628995       4.83916321       29       0.00002513       0.00000672       0.00001192
Cs      -1.18614316      13.32595113      15.47255049       30      -0.00007337      -0.00002341      -0.00016035
Cs      -5.38762457      14.00482706       5.99593449       31       0.00017677      -0.00009707       0.00022926
K       13.15928401      10.86927979      12.36034177       32      -0.00009129       0.00001967      -0.00014165
In      -5.07104235       8.74602799       7.03044497       33       0.00006982       0.00054627       0.00032555
I        1.64600762       9.53391380       9.13564724       34       0.00044535       0.00005255      -0.00029057
I       -8.21987123      17.79675267      12.33311636       35       0.00016075       0.00007054      -0.00024335
I       -4.11796367      11.23461004       8.43211910       36      -0.00018702      -0.00032508      -0.00027876
I       -2.45568742      16.09615616      13.03650319       37       0.00003839       0.00016305       0.00013300
I        0.32179076      15.32273305       7.96864388       38      -0.00003253       0.00007274      -0.00011935
I       -6.89545123      12.00795050      13.49998739       39      -0.00005543       0.00013060       0.00001441
Cs      13.76753142       4.80472310       9.06434807       40      -0.00008258      -0.00001623      -0.00008978
Cs       9.56605774       5.48354813      -0.41218493       41       0.00005419       0.00007465      -0.00000233
K        9.59084218       1.03073517       4.95267558       42       0.00003399      -0.00001101       0.00004179
In      -0.33550967      15.36132387      -2.88339563       43      -0.00004016      -0.00031632      -0.00061922
I        6.38175666      16.14917662      -0.77849207       44      -0.00033197      -0.00005149       0.00020318
I        6.73391179       9.27561413       5.92478148       45      -0.00009164      -0.00007181      -0.00004763
I       10.83561080       2.71337629       2.02379619       46       0.00013047       0.00008398       0.00020087
I       12.49799765       7.57501329       6.62831830       47      -0.00005388      -0.00017644      -0.00010078
I       -3.24663503       5.48423558       0.56092695       48       0.00023280      -0.00027299       0.00034336
I        8.05817084       3.48677908       7.09169730       49      -0.00000982      -0.00002867       0.00009122
Cs      13.18393520       6.41638210      17.72518162       50      -0.00007418       0.00000701      -0.00019531
Cs       8.98251136       7.09526002       8.24856468       51       0.00004276      -0.00000528       0.00017677
K        9.00736312       2.64245610      13.61346066       52      -0.00014108      -0.00008248      -0.00002171
In      -0.91908662      16.97293941       5.77723045       53      -0.00012241       0.00020522       0.00052758
I        5.79805864      17.76084661       7.88230655       54       0.00019267      -0.00000707       0.00012500
I        6.15023076      10.88726006      14.58559613       55       0.00010333      -0.00000911       0.00007401
I       10.25208792       4.32504187      10.68474814       56      -0.00009378      -0.00019334      -0.00031379
I       11.91439289       9.18668210      15.28904387       57      -0.00003576      -0.00011861       0.00019771
I       -3.83020416       7.09589881       9.22178013       58       0.00009626      -0.00005208      -0.00001150
I        7.47461294       5.09843373      15.75254771       59      -0.00007636       0.00010235       0.00000725
Cs       8.65838753      12.37297729       7.31135299       60       0.00006143      -0.00008228       0.00007306
Cs       4.45699514      13.05177054      -2.16509716       61       0.00004317       0.00002528       0.00006324
K        4.48179839       8.59891972       3.19982216       62       0.00001160       0.00001255      -0.00005602
In       4.77348563       7.79307237      -1.13057339       63       0.00035219      -0.00000112      -0.00021252
I       11.49078387       8.58093264       0.97445746       64      -0.00037058       0.00001808       0.00018253
I        1.62482239      16.84380864       4.17187234       65      -0.00014317      -0.00004091       0.00004365
I        5.72651525      10.28153526       0.27096287       66       0.00010150       0.00009085       0.00004549
I        7.38885385      15.14305981       4.87545692       67       0.00016177       0.00047145       0.00001622
I       -8.35553031      13.05231041      -1.19177688       68      -0.00026771       0.00028532      -0.00021308
I        2.94908495      11.05495030       5.33885217       69       0.00006183       0.00004082      -0.00001508
Cs       8.07483201      13.98462946      15.97221990       70       0.00003846      -0.00005830      -0.00006848
Cs       3.87347128      14.66347346       6.49570119       71      -0.00003123      -0.00001655       0.00012282
K        3.89827105      10.21064247      11.86059758       72      -0.00008833      -0.00004677      -0.00009384
In       4.19005519       9.40473723       7.53011715       73      -0.00042882       0.00019275       0.00051189
I       10.90697316      10.19253521       9.63538401       74       0.00043850       0.00012492      -0.00030443
I        1.04110889      18.45546560      12.83268702       75       0.00023711      -0.00001460       0.00011811
I        5.14292642      11.89319406       8.93183015       76       0.00007114      -0.00000628      -0.00018581
I        6.80535993      16.75483765      13.53623288       77      -0.00008241       0.00002942      -0.00001981
I       -8.93900563      14.66397878       7.46905657       78      -0.00044896       0.00042772      -0.00027812
I        2.36554005      12.66658964      13.99972071       79      -0.00010443       0.00027601      -0.00021766
