80
Lattice="17.019789900400223 0.0 0.0 7.765795476227967 16.179071362074357 0.0 12.172009474665165 4.1612217377874146 6.507784374761701" Properties=species:S:1:pos:R:3 pbc="T T T"
Cs       4.61952984       2.54248590       0.81353099
Cs      13.85926742       7.62765921       2.44036025
K        9.23939854       5.08507223       1.62694538
In       0.00000032       0.00000075       0.00000035
I        9.21310626       1.12737838       0.14474166
I        9.26569064       9.04276557       3.10914923
I       13.36903501       2.37738715       3.35439036
I        5.10975865       7.79275747      -0.10050072
I        7.57109375       4.35786083      -1.84226631
I       10.90770357       5.81228936       5.09616093
Cs      10.70553457       4.62309677       4.06742317
Cs      19.94527216       9.70827008       5.69425244
K       15.32540328       7.16568310       4.88083757
In       6.08600506       2.08061162       3.25389253
I       15.29911100       3.20798925       3.39863384
I       15.35169538      11.12337644       6.36304142
I       19.45503975       4.45799802       6.60828255
I       11.19576339       9.87336834       3.15339147
I       13.65709849       6.43847170       1.41162588
I       16.99370831       7.89290023       8.35005312
Cs       8.50242757      10.63202159       0.81353099
Cs      17.74216516      15.71719489       2.44036025
K       13.12229628      13.17460791       1.62694538
In       3.88289806       8.08953643       0.00000035
I       13.09600400       9.21691406       0.14474166
I       13.14858838      17.13230125       3.10914923
I       17.25193275      10.46692283       3.35439036
I        8.99265639      15.88229315      -0.10050072
I       11.45399149      12.44739651      -1.84226631
I       14.79060131      13.90182504       5.09616093
Cs      14.58843231      12.71263245       4.06742317
Cs      23.82816989      17.79780576       5.69425244
K       19.20830102      15.25521878       4.88083757
In       9.96890279      10.17014730       3.25389253
I       19.18200874      11.29752493       3.39863384
I       19.23459312      19.21291212       6.36304142
I       23.33793749      12.54753370       6.60828255
I       15.07866113      17.96290402       3.15339147
I       17.53999623      14.52800738       1.41162588
I       20.87660604      15.98243591       8.35005312
Cs      13.12942479       2.54248590       0.81353099
Cs      22.36916237       7.62765921       2.44036025
K       17.74929349       5.08507223       1.62694538
In       8.50989527       0.00000075       0.00000035
I       17.72300121       1.12737838       0.14474166
I       17.77558559       9.04276557       3.10914923
I       21.87892997       2.37738715       3.35439036
I       13.61965360       7.79275747      -0.10050072
I       16.08098870       4.35786083      -1.84226631
I       19.41759852       5.81228936       5.09616093
Cs      19.21542952       4.62309677       4.06742317
Cs      28.45516711       9.70827008       5.69425244
K       23.83529823       7.16568310       4.88083757
In      14.59590001       2.08061162       3.25389253
I       23.80900595       3.20798925       3.39863384
I       23.86159033      11.12337644       6.36304142
I       27.96493470       4.45799802       6.60828255
I       19.70565834       9.87336834       3.15339147
I       22.16699344       6.43847170       1.41162588
I       25.50360326       7.89290023       8.35005312
Cs      17.01232252      10.63202159       0.81353099
Cs      26.25206011      15.71719489       2.44036025
K       21.63219123      13.17460791       1.62694538
In      12.39279301       8.08953643       0.00000035
I       21.60589895       9.21691406       0.14474166
I       21.65848333      17.13230125       3.10914923
I       25.76182770      10.46692283       3.35439036
I       17.50255134      15.88229315      -0.10050072
I       19.96388644      12.44739651      -1.84226631
I       23.30049626      13.90182504       5.09616093
Cs      23.09832726      12.71263245       4.06742317
Cs      32.33806484      17.79780576       5.69425244
K       27.71819597      15.25521878       4.88083757
In      18.47879774      10.17014730       3.25389253
I       27.69190369      11.29752493       3.39863384
I       27.74448807      19.21291212       6.36304142
I       31.84783244      12.54753370       6.60828255
I       23.58855608      17.96290402       3.15339147
I       26.04989118      14.52800738       1.41162588
I       29.38650099      15.98243591       8.35005312
