5
Lattice="6.38705992638565 -1.435876449562296e-10 -2.803550281627304e-16 -1.4358764538502928e-10 6.387059926385649 2.110745703914621e-18 -2.804050323748191e-16 1.8877808662258603e-18 6.387059926351945" Properties=species:S:1:pos:R:3:spacegroup_kinds:I:1:forces:R:3 spacegroup="P 1" unit_cell=conventional occupancy="_JSON {\"0\": {\"Cs\": 1.0}, \"1\": {\"Pb\": 1.0}, \"2\": {\"I\": 1.0}, \"3\": {\"I\": 1.0}, \"4\": {\"I\": 1.0}}" energy=-13.980742427254826 free_energy=-13.980742427254826 stress="-1.9573097517106662e-07 -1.140408721788961e-12 -6.325943936946209e-18 -1.140408721788961e-12 -1.95730975248187e-07 -7.927252900196368e-18 -6.325943936946209e-18 -7.927252900196368e-18 -1.9573069204866648e-07" pbc="T T T"
Cs       3.19356290       3.19349702       3.19352996        0       0.00000131      -0.00000131      -0.00000000
Pb       0.00000109      -0.00000109      -0.00000000        1       0.00000077      -0.00000077      -0.00000000
I        0.00000044      -0.00000044       3.19352996        2      -0.00000213       0.00000213      -0.00000000
I        3.19353033      -0.00000044      -0.00000000        3       0.00000218       0.00000213       0.00000000
I        0.00000044       3.19352959      -0.00000000        4      -0.00000213      -0.00000218       0.00000000
