10
Lattice="12.749227124892126 0.3010426199224811 -1.0670375765892772 -0.30225914859226566 6.363300821116257 -0.7331904970766239 0.5119275965075267 0.7518656060123322 6.3285716292437195" Properties=species:S:1:pos:R:3:spacegroup_kinds:I:1:forces:R:3 spacegroup="P 1" unit_cell=conventional occupancy="_JSON {\"0\": {\"Cs\": 1.0}, \"1\": {\"Pb\": 1.0}, \"2\": {\"I\": 1.0}, \"3\": {\"I\": 1.0}, \"4\": {\"I\": 1.0}, \"5\": {\"Cs\": 1.0}, \"6\": {\"Pb\": 1.0}, \"7\": {\"I\": 1.0}, \"8\": {\"I\": 1.0}, \"9\": {\"I\": 1.0}}" energy=-27.96883329173033 free_energy=-27.96883329173033 stress="-1.3293558887864584e-06 4.163632967800948e-06 1.046078259833194e-06 4.163632967800948e-06 9.30297703207717e-07 -5.169132297006005e-06 1.046078259833194e-06 -5.169132297006005e-06 6.5830742652790515e-06" pbc="T T T"
Cs       3.39417323       3.38889348       2.55112395        0       0.00037553      -0.00029906       0.00018996
Pb      -0.08913243       0.07894549      -0.00166032        1       0.00016219       0.00021659       0.00001828
I       12.90502352       0.89571932       2.07986801        2      -0.00038462      -0.00034506      -0.00051278
I        3.06851220       0.29808640      -0.28497587        3       0.00064415       0.00014408       0.00017712
I       -0.37065248       3.30720763      -0.36296292        4       0.00006289       0.00028601       0.00005293
Cs       9.76876173       3.53941069       2.01761168        5       0.00051001      -0.00028843       0.00017616
Pb       6.28563340       0.22947946      -0.53521700        6      -0.00042117       0.00023360       0.00008895
I        6.53039457       0.74519811       2.61339356        7      -0.00032571      -0.00035904      -0.00054191
I        9.44337414       0.44863255      -0.81855272        8      -0.00074179       0.00010425       0.00030404
I        6.00394644       3.45772249      -0.89647702        9       0.00011850       0.00030707       0.00004725
