10
Lattice="10.649933259095874 0.0 0.0 -0.39015613060148713 5.629963015581261 0.0 1.05526789149123 1.5492350600840816 6.679180663059301" Properties=species:S:1:pos:R:3:oxi_states:R:1 pbc="T T T"
Cs       2.99523505       3.58940318       3.33959033       1.00000000
Pb      -0.00000000      -0.00000000       0.00000000       2.00000000
I        0.16316704       1.13908374       3.33959059      -1.00000000
I        2.66248331       0.00000000      -0.00000000      -1.00000000
I       -0.19507807       2.81498151       0.00000000      -1.00000000
Cs       8.32020168       3.58940318       3.33959033       1.00000000
Pb       5.32496663      -0.00000000       0.00000000       2.00000000
I        5.48813367       1.13908374       3.33959059      -1.00000000
I        7.98744994       0.00000000      -0.00000000      -1.00000000
I        5.12988856       2.81498151       0.00000000      -1.00000000
