10
Lattice="7.842747045133551 0.0 0.0 1.306837926858874 7.616604234720475 0.0 7.228108014702322 -0.5015549209658918 6.575886939284947" Properties=species:S:1:pos:R:3 pbc="T T T"
Cs       4.09433683       1.77873682       1.64398489
Cs      12.28335599       5.33631181       4.93190160
K        8.18884642       3.55752422       3.28794321
In       0.00000016       0.00000049       0.00000021
I        8.52538454       0.18193946       3.67098112
I        7.85230829       6.93310862       2.90490530
I        9.92509596       2.42693780       2.00609878
I        6.45259565       4.68811035       4.56978735
I        4.72626757       5.30049206       1.05024684
I       11.65142575       1.81455851       5.52564086
