20
Lattice="18.596859258379503 -2.5400687932532937e-05 -0.002365019475654441 -4.649225785374274 8.053169891326354 0.0005797689310008222 0.0021295150213434125 -1.2610053424295376e-05 8.828540933462753" Properties=species:S:1:pos:R:3:spacegroup_kinds:I:1:forces:R:3 spacegroup="P 1" unit_cell=conventional occupancy="_JSON {\"0\": {\"Cs\": 1.0}, \"1\": {\"Cs\": 1.0}, \"2\": {\"K\": 1.0}, \"3\": {\"In\": 1.0}, \"4\": {\"I\": 1.0}, \"5\": {\"I\": 1.0}, \"6\": {\"I\": 1.0}, \"7\": {\"I\": 1.0}, \"8\": {\"I\": 1.0}, \"9\": {\"I\": 1.0}, \"10\": {\"Cs\": 1.0}, \"11\": {\"Cs\": 1.0}, \"12\": {\"K\": 1.0}, \"13\": {\"In\": 1.0}, \"14\": {\"I\": 1.0}, \"15\": {\"I\": 1.0}, \"16\": {\"I\": 1.0}, \"17\": {\"I\": 1.0}, \"18\": {\"I\": 1.0}, \"19\": {\"I\": 1.0}}" energy=-51.587632899399885 free_energy=-51.587632899399885 stress="-3.1317755254523913e-06 -7.722263712665605e-07 4.37966923320459e-06 -7.722263712665605e-07 -4.108392701273546e-06 -8.17718826981282e-07 4.37966923320459e-06 -8.17718826981282e-07 -2.8397764089758737e-06" pbc="T T T"
Cs       1.60152028       5.36835866       8.82769299        0      -0.00004901       0.00035687       0.00026765
Cs       6.25070819       2.68481884       8.82710533        1       0.00001790      -0.00044031       0.00026719
K        1.60015914       0.00001895       4.41399402        2       0.00027082      -0.00003761       0.00017323
In       1.59940337      -0.00000100       0.00026417        3      -0.00000986       0.00005851      -0.00022473
I        2.81927123       2.11155913       1.76598501        4      -0.00050958      -0.00000449       0.00007831
I        5.03091730       5.94208766       7.06182305        5       0.00029630      -0.00069745      -0.00020127
I        4.03910317      -0.00001470       7.06149636        6       0.00012268       0.00001518       0.00009734
I        8.45991758      -0.00001626       1.76592230        7       0.00004081       0.00002336      -0.00063741
I       -1.82990425       5.94151225       1.76656501        8      -0.00059301       0.00019863       0.00010162
I        0.38166500       2.11112361       7.06230218        9       0.00041303       0.00052732       0.00007806
Cs      10.89994991       5.36834597       8.82651048       10      -0.00004902       0.00035686       0.00026765
Cs      15.54913782       2.68480614       8.82592282       11       0.00001791      -0.00044030       0.00026718
K       10.89858877       0.00000625       4.41281151       12       0.00027080      -0.00003762       0.00017322
In      10.89783303      -0.00001369      -0.00091835       13      -0.00001003       0.00005844      -0.00022466
I       12.11770086       2.11154642       1.76480250       14      -0.00050956      -0.00000446       0.00007833
I       14.32934693       5.94207496       7.06064054       15       0.00029627      -0.00069748      -0.00020129
I       13.33753279      -0.00002740       7.06031386       16       0.00012276       0.00001519       0.00009729
I       17.75834722      -0.00002896       1.76473978       17       0.00004074       0.00002336      -0.00063736
I        7.46852538       5.94149954       1.76538250       18      -0.00059300       0.00019864       0.00010162
I        9.68009463       2.11111090       7.06111967       19       0.00041304       0.00052734       0.00007805
