20
Lattice="18.47884680046468 -0.07337757706240104 -0.026717703232285808 4.591500620247386 7.422323233800273 0.19733287241173195 4.598376401143919 2.6531472297583307 7.488233436399402" Properties=species:S:1:pos:R:3:spacegroup_kinds:I:1:forces:R:3 spacegroup="P 1" unit_cell=conventional occupancy="_JSON {\"0\": {\"Cs\": 1.0}, \"1\": {\"Cs\": 1.0}, \"2\": {\"K\": 1.0}, \"3\": {\"In\": 1.0}, \"4\": {\"I\": 1.0}, \"5\": {\"I\": 1.0}, \"6\": {\"I\": 1.0}, \"7\": {\"I\": 1.0}, \"8\": {\"I\": 1.0}, \"9\": {\"I\": 1.0}, \"10\": {\"Cs\": 1.0}, \"11\": {\"Cs\": 1.0}, \"12\": {\"K\": 1.0}, \"13\": {\"In\": 1.0}, \"14\": {\"I\": 1.0}, \"15\": {\"I\": 1.0}, \"16\": {\"I\": 1.0}, \"17\": {\"I\": 1.0}, \"18\": {\"I\": 1.0}, \"19\": {\"I\": 1.0}}" energy=-51.297888854976115 free_energy=-51.297888854976115 stress="8.445679034945163e-07 -9.353334798760896e-07 1.8811375917791656e-07 -9.353334798760896e-07 6.295911805260797e-07 -3.6274059397410706e-07 1.8811375917791656e-07 -3.6274059397410706e-07 -6.778691079949439e-07" pbc="T T T"
Cs       4.58935467       2.68528500       1.84988080        0      -0.00003685       0.00056887      -0.00031302
Cs      13.83953879       7.35132141       5.82450644        1       0.00042046       0.00035348      -0.00063989
K        9.21540373       5.01897546       3.83523975        2      -0.00062697       0.00025425       0.00060755
In      18.47872657      -0.07335136      -0.02725659        3       0.00024668       0.00001478       0.00040120
I        6.25218059       3.70767233       5.25420571        4       0.00016012      -0.00088558      -0.00000621
I       12.17674199       6.33338844       2.41776678        5       0.00008695      -0.00061614       0.00025863
I        9.92778950       2.33941097       1.64172416        6      -0.00026240       0.00024820       0.00002810
I        8.50193145       7.69940254       6.02987790        7       0.00031522       0.00015095       0.00010875
I        6.98090651       6.00131631       1.27126805        8      -0.00024589       0.00004647      -0.00016265
I       11.44786265       4.03780114       6.40104358        9       0.00039236      -0.00027082      -0.00019980
Cs      13.82855467       2.64875593       1.83680442       10       0.00038181       0.00033665      -0.00073811
Cs      23.07919127       7.31449629       5.81093643       11      -0.00002034       0.00052748      -0.00043355
K       18.45476650       4.98229879       3.82203333       12      -0.00057992       0.00020204       0.00031670
In       9.23933012      -0.03661110      -0.01386817       13       0.00018616      -0.00000149       0.00009309
I       15.49162850       3.67068938       5.24068169       14      -0.00007661      -0.00037181       0.00023181
I       21.41625613       6.29677014       2.40451216       15       0.00005730      -0.00078729      -0.00002954
I       19.16706448       2.30268930       1.62841883       16      -0.00000299       0.00021213       0.00003963
I       17.74185022       7.66265453       6.01657688       17      -0.00056675       0.00021757       0.00002338
I       16.22018337       5.96477431       1.25785795       18       0.00036402      -0.00024103       0.00015841
I       20.68752203       4.00102749       6.38734953       19      -0.00019234       0.00004128       0.00025552
