20
Lattice="17.046365958917544 0.0 0.0 4.261591489765273 7.381292981293819 0.0 4.261591489834156 2.460430993818154 6.959149952369036" Properties=species:S:1:pos:R:3 pbc="T T T"
Cs       4.26153379       2.46041369       1.73979005
Cs      12.78483202       7.38130984       5.21935962
K        8.52318294       4.92086177       3.47957485
In       0.00000013       0.00000038       0.00000015
I        6.81548813       2.79352010       4.34954965
I       10.23087780       7.04820314       2.60960002
I        9.66917042       3.09762240       1.61726270
I        7.37719485       6.74410078       5.34188690
I        6.24260650       6.23777401       1.61727478
I       10.80375985       3.60395064       5.34187551
Cs      12.78471677       2.46041369       1.73979005
Cs      21.30801500       7.38130984       5.21935962
K       17.04636592       4.92086177       3.47957485
In       8.52318311       0.00000038       0.00000015
I       15.33867110       2.79352010       4.34954965
I       18.75406078       7.04820314       2.60960002
I       18.19235340       3.09762240       1.61726270
I       15.90037782       6.74410078       5.34188690
I       14.76578948       6.23777401       1.61727478
I       19.32694283       3.60395064       5.34187551
