40
Lattice="12.373160317966448 -1.7935860616487163 2.686010969357112 2.2207903636998028 12.485336497441356 -1.9024153587526516 -2.3203169718164203 2.484745547196627 12.338572960205797" Properties=species:S:1:pos:R:3:spacegroup_kinds:I:1:forces:R:3 spacegroup="P 1" unit_cell=conventional occupancy="_JSON {\"0\": {\"Cs\": 1.0}, \"1\": {\"Pb\": 1.0}, \"2\": {\"I\": 1.0}, \"3\": {\"I\": 1.0}, \"4\": {\"I\": 1.0}, \"5\": {\"Cs\": 1.0}, \"6\": {\"Pb\": 1.0}, \"7\": {\"I\": 1.0}, \"8\": {\"I\": 1.0}, \"9\": {\"I\": 1.0}, \"10\": {\"Cs\": 1.0}, \"11\": {\"Pb\": 1.0}, \"12\": {\"I\": 1.0}, \"13\": {\"I\": 1.0}, \"14\": {\"I\": 1.0}, \"15\": {\"Cs\": 1.0}, \"16\": {\"Pb\": 1.0}, \"17\": {\"I\": 1.0}, \"18\": {\"I\": 1.0}, \"19\": {\"I\": 1.0}, \"20\": {\"Cs\": 1.0}, \"21\": {\"Pb\": 1.0}, \"22\": {\"I\": 1.0}, \"23\": {\"I\": 1.0}, \"24\": {\"I\": 1.0}, \"25\": {\"Cs\": 1.0}, \"26\": {\"Pb\": 1.0}, \"27\": {\"I\": 1.0}, \"28\": {\"I\": 1.0}, \"29\": {\"I\": 1.0}, \"30\": {\"Cs\": 1.0}, \"31\": {\"Pb\": 1.0}, \"32\": {\"I\": 1.0}, \"33\": {\"I\": 1.0}, \"34\": {\"I\": 1.0}, \"35\": {\"Cs\": 1.0}, \"36\": {\"Pb\": 1.0}, \"37\": {\"I\": 1.0}, \"38\": {\"I\": 1.0}, \"39\": {\"I\": 1.0}}" energy=-111.87535691906673 free_energy=-111.87535691906673 stress="3.493338369039836e-07 -3.450528750620237e-06 -3.7096807157893884e-06 -3.450528750620237e-06 -4.672804430489471e-06 -7.959720904758641e-07 -3.7096807157893884e-06 -7.959720904758641e-07 3.233478826849809e-06" pbc="T T T"
Cs       3.09198370       3.64748947       3.40477494        0       0.00005224       0.00003898       0.00009422
Pb       0.00003956      -0.00003202      -0.00443989        1       0.00062294      -0.00006474       0.00014826
I       -0.59948074       0.47417519       3.07917025        2      -0.00016350      -0.00002973       0.00000171
I        3.07239694      -0.58116645       0.67729831        3       0.00002818      -0.00013854       0.00022739
I       12.94419414       1.25466147       2.08828889        4      -0.00001431      -0.00017164       0.00002270
Cs       1.93163756       4.89047492       9.57371125        5       0.00011704      -0.00019567       0.00008211
Pb      11.21354324      -0.55159050       8.85105742        6       0.00027236       0.00028003       0.00026968
I       10.61340004      -0.07678342      11.93441695        7      -0.00013968      -0.00019331       0.00010492
I        1.91239784       0.66103184       6.84734407        8       0.00008958      -0.00016883      -0.00007405
I       -0.58929440       4.29052816       5.57174072        9       0.00012782       0.00020937       0.00001202
Cs       4.20248906       9.89030506       2.45375675       10       0.00005093       0.00019771       0.00000674
Pb      13.48462648       4.44888348       1.73119367       11       0.00008967      -0.00019466       0.00018691
I        0.51088870       6.71611299       2.12831817       12      -0.00014674       0.00033731       0.00051845
I        4.18330771       5.66069102      -0.27303982       13      -0.00014537       0.00016523       0.00001927
I       14.05478488       7.49730937       1.13771727       14      -0.00003543       0.00017547      -0.00007677
Cs       3.04229841      11.13280177       8.62324256       15       0.00006647       0.00011190      -0.00008415
Pb      12.32431181       5.69117267       7.90059596       16       0.00012354      -0.00019838      -0.00040486
I       11.72374579       6.16571248      10.98362571       17       0.00005754       0.00002669      -0.00034245
I        3.02303857       6.90329131       5.89645142       18      -0.00011642       0.00001625      -0.00008565
I       12.89459132       8.73971339       7.30696899       19      -0.00003197      -0.00043279      -0.00015269
Cs       9.27883153       2.75046231       4.74801600       20      -0.00010375       0.00010549       0.00008457
Pb       6.18669664      -0.89699297       1.33870537       21       0.00006495       0.00004149      -0.00000463
I        5.58709078      -0.42245574       4.42233431       22      -0.00004155      -0.00016424      -0.00039653
I        9.25891060      -1.47820695       2.02042127       23       0.00017953      -0.00005490       0.00022914
I        6.75761377       2.15131628       0.74520723       24       0.00002937      -0.00010246       0.00004643
Cs       8.11843449       3.99352205      10.91708215       25      -0.00007084      -0.00018016      -0.00005431
Pb       5.02707611       0.34524452       7.50810672       26      -0.00019823       0.00038586       0.00027297
I        4.42674793       0.82006902      10.59142558       27      -0.00011089      -0.00025976       0.00034897
I        8.09903741      -0.23575036       8.19037522       28      -0.00006147      -0.00020271      -0.00010303
I        5.59736151       3.39369677       6.91484931       29       0.00012896       0.00020842       0.00000903
Cs      10.38930003       8.99330089       3.79694754       30      -0.00010141       0.00024545      -0.00001029
Pb       7.29812293       5.34548269       0.38848897       31      -0.00051459       0.00006631      -0.00029027
I        6.69748540       5.81939163       3.47156406       32      -0.00003710       0.00014357       0.00011066
I       10.36980182       4.76360318       1.07004278       33       0.00009805       0.00021022       0.00006590
I        7.86827056       8.39400669      -0.20516527       34      -0.00000604       0.00011532      -0.00004278
Cs       9.22908556      10.23587582       9.96660355       35      -0.00009250       0.00011850      -0.00018948
Pb       6.13780370       6.58806640       6.55768833       36      -0.00021080      -0.00033176      -0.00018692
I        5.53716052       7.06253271       9.64070728       37       0.00006277       0.00005895      -0.00011368
I        9.20962583       6.00656368       7.23949352       38       0.00004732       0.00000607      -0.00007615
I        6.70792373       9.63641766       5.96382146       39       0.00003332      -0.00018034      -0.00017337
