10
Lattice="9.544057420350688 0.0 0.0 -4.9483199889395095 8.570741632951899 0.0 0.0 1.5585159732667948 9.559818362447949" Properties=species:S:1:pos:R:3 pbc="T T T"
Cs       1.45406666       6.10637779      -0.00004413
Cs       6.28485913       3.24946391      -0.00004413
K        1.57160262       1.17180468       4.77991868
In       1.57161216       0.39255276       0.00003260
I        2.77661755       2.95161035       1.91262968
I        4.96234703       7.96275004       7.64724142
I        4.07404727       1.63923888       7.64723287
I        8.61319425       0.70433786       1.91262113
I       -2.07927756       7.02786853       1.91261501
I        0.27413994       3.88653088       7.64722674
