10
Lattice="9.297118096441542 0.09317635938222942 -0.012495828798520747 -4.733095244956849 7.980942094550058 -0.6483913750020059 0.005455467029392457 0.7179908094709474 8.79931246345372" Properties=species:S:1:pos:R:3:spacegroup_kinds:I:1:forces:R:3 spacegroup="P 1" unit_cell=conventional occupancy="_JSON {\"0\": {\"Cs\": 1.0}, \"1\": {\"Cs\": 1.0}, \"2\": {\"K\": 1.0}, \"3\": {\"In\": 1.0}, \"4\": {\"I\": 1.0}, \"5\": {\"I\": 1.0}, \"6\": {\"I\": 1.0}, \"7\": {\"I\": 1.0}, \"8\": {\"I\": 1.0}, \"9\": {\"I\": 1.0}}" energy=-25.79381625476232 free_energy=-25.79381625476232 stress="-5.1355847833749645e-06 -3.5399062824738246e-06 3.980983273987049e-07 -3.5399062824738246e-06 6.449574349963397e-06 -1.734815860065814e-06 3.980983273987049e-07 -1.734815860065814e-06 -6.275300208361536e-07" pbc="T T T"
Cs       1.48335211       6.45260542       8.33061870        0       0.00009925      -0.00008976      -0.00003071
Cs       6.16144942       3.82367681       8.54306185        1      -0.00016009       0.00008512      -0.00011400
K        1.53764569       0.74207815       4.36759856        2       0.00006362       0.00002864       0.00009279
In       1.53485313       0.38308071      -0.03194410        3       0.00043571       0.00003758      -0.00057572
I        2.73268504       2.64417222       1.55477743        4      -0.00001305      -0.00037055       0.00027121
I        4.90665815       6.91414269       6.51952410        5       0.00000427       0.00034244      -0.00016199
I        3.97762075       0.98223378       7.00342005        6      -0.00033270      -0.00008288       0.00023980
I        8.39488313       0.59513607       1.71922884        7      -0.00009999       0.00007184       0.00017582
I       -1.95666471       6.41569272       1.25029498        8       0.00036425      -0.00003124      -0.00006643
I        0.29889366       3.04940838       6.83652255        9      -0.00036128       0.00000881       0.00016922
