80
Lattice="17.556761125043376 0.0 0.0 -9.201842814658008 15.93805927825028 0.0 2.328913837948288 9.402405478366884 14.674958326178205" Properties=species:S:1:pos:R:3 pbc="T T T"
Cs       1.58610733       2.88636251       0.02323206
Cs      -1.71661882      10.21396922       7.31398305
K       -2.15394134       2.56569810       3.66873110
In      -2.73622801       0.21507087       0.00009436
I       -3.69512023       3.25391483       1.46781263
I        3.56458471       9.84661175       5.86968154
I       -0.69445520       6.05624044       5.86974013
I        0.56390729       7.04393779       1.46787122
I       -4.80208440       9.10669415       1.46783375
I        4.67160305       3.99364085       5.86970266
Cs       2.75056425       7.58756525       7.36071123
Cs      -0.55216191      14.91517196      14.65146222
K       -0.98948442       7.26690084      11.00621026
In      -1.57177109       4.91627361       7.33757352
I       -2.53066332       7.95511757       8.80529180
I        4.72904163      14.54781449      13.20716071
I        0.47000172      10.75744318      13.20721929
I        1.72836421      11.74514053       8.80535038
I       -3.63762749      13.80789689       8.80531292
I        5.83605997       8.69484359      13.20718183
Cs      -3.01481407      10.85539215       0.02323206
Cs      -6.31754023      18.18299886       7.31398305
K       -6.75486274      10.53472774       3.66873110
In      -7.33714942       8.18410051       0.00009436
I       -8.29604164      11.22294447       1.46781263
I       -1.03633669      17.81564139       5.86968154
I       -5.29537661      14.02527008       5.86974013
I       -4.03701411      15.01296743       1.46787122
I       -9.40300581      17.07572379       1.46783375
I        0.07068165      11.96267049       5.86970266
Cs      -1.85035715      15.55659489       7.36071123
Cs      -5.15308331      22.88420160      14.65146222
K       -5.59040583      15.23593047      11.00621026
In      -6.17269250      12.88530325       7.33757352
I       -7.13158472      15.92414721       8.80529180
I        0.12812023      22.51684413      13.20716071
I       -4.13091969      18.72647282      13.20721929
I       -2.87255720      19.71417017       8.80535038
I       -8.23854889      21.77692653       8.80531292
I        1.23513857      16.66387323      13.20718183
Cs      10.36448790       2.88636251       0.02323206
Cs       7.06176174      10.21396922       7.31398305
K        6.62443923       2.56569810       3.66873110
In       6.04215255       0.21507087       0.00009436
I        5.08326033       3.25391483       1.46781263
I       12.34296528       9.84661175       5.86968154
I        8.08392536       6.05624044       5.86974013
I        9.34228786       7.04393779       1.46787122
I        3.97629616       9.10669415       1.46783375
I       13.44998362       3.99364085       5.86970266
Cs      11.52894482       7.58756525       7.36071123
Cs       8.22621866      14.91517196      14.65146222
K        7.78889614       7.26690084      11.00621026
In       7.20660947       4.91627361       7.33757352
I        6.24771725       7.95511757       8.80529180
I       13.50742219      14.54781449      13.20716071
I        9.24838228      10.75744318      13.20721929
I       10.50674477      11.74514053       8.80535038
I        5.14075308      13.80789689       8.80531292
I       14.61444054       8.69484359      13.20718183
Cs       5.76356649      10.85539215       0.02323206
Cs       2.46084033      18.18299886       7.31398305
K        2.02351782      10.53472774       3.66873110
In       1.44123114       8.18410051       0.00009436
I        0.48233892      11.22294447       1.46781263
I        7.74204387      17.81564139       5.86968154
I        3.48300395      14.02527008       5.86974013
I        4.74136645      15.01296743       1.46787122
I       -0.62462525      17.07572379       1.46783375
I        8.84906221      11.96267049       5.86970266
Cs       6.92802341      15.55659489       7.36071123
Cs       3.62529725      22.88420160      14.65146222
K        3.18797474      15.23593047      11.00621026
In       2.60568806      12.88530325       7.33757352
I        1.64679584      15.92414721       8.80529180
I        8.90650079      22.51684413      13.20716071
I        4.64746087      18.72647282      13.20721929
I        5.90582337      19.71417017       8.80535038
I        0.53983167      21.77692653       8.80531292
I       10.01351913      16.66387323      13.20718183
