80
Lattice="18.52901945826634 0.29045381784367835 -1.5737861724855766 -9.90181997439473 15.25766830095632 -3.877837442962327 1.34906790956653 5.154844752017458 16.834410393034336" Properties=species:S:1:pos:R:3:spacegroup_kinds:I:1:forces:R:3 spacegroup="P 1" unit_cell=conventional occupancy="_JSON {\"0\": {\"Cs\": 1.0}, \"1\": {\"Cs\": 1.0}, \"2\": {\"K\": 1.0}, \"3\": {\"In\": 1.0}, \"4\": {\"I\": 1.0}, \"5\": {\"I\": 1.0}, \"6\": {\"I\": 1.0}, \"7\": {\"I\": 1.0}, \"8\": {\"I\": 1.0}, \"9\": {\"I\": 1.0}, \"10\": {\"Cs\": 1.0}, \"11\": {\"Cs\": 1.0}, \"12\": {\"K\": 1.0}, \"13\": {\"In\": 1.0}, \"14\": {\"I\": 1.0}, \"15\": {\"I\": 1.0}, \"16\": {\"I\": 1.0}, \"17\": {\"I\": 1.0}, \"18\": {\"I\": 1.0}, \"19\": {\"I\": 1.0}, \"20\": {\"Cs\": 1.0}, \"21\": {\"Cs\": 1.0}, \"22\": {\"K\": 1.0}, \"23\": {\"In\": 1.0}, \"24\": {\"I\": 1.0}, \"25\": {\"I\": 1.0}, \"26\": {\"I\": 1.0}, \"27\": {\"I\": 1.0}, \"28\": {\"I\": 1.0}, \"29\": {\"I\": 1.0}, \"30\": {\"Cs\": 1.0}, \"31\": {\"Cs\": 1.0}, \"32\": {\"K\": 1.0}, \"33\": {\"In\": 1.0}, \"34\": {\"I\": 1.0}, \"35\": {\"I\": 1.0}, \"36\": {\"I\": 1.0}, \"37\": {\"I\": 1.0}, \"38\": {\"I\": 1.0}, \"39\": {\"I\": 1.0}, \"40\": {\"Cs\": 1.0}, \"41\": {\"Cs\": 1.0}, \"42\": {\"K\": 1.0}, \"43\": {\"In\": 1.0}, \"44\": {\"I\": 1.0}, \"45\": {\"I\": 1.0}, \"46\": {\"I\": 1.0}, \"47\": {\"I\": 1.0}, \"48\": {\"I\": 1.0}, \"49\": {\"I\": 1.0}, \"50\": {\"Cs\": 1.0}, \"51\": {\"Cs\": 1.0}, \"52\": {\"K\": 1.0}, \"53\": {\"In\": 1.0}, \"54\": {\"I\": 1.0}, \"55\": {\"I\": 1.0}, \"56\": {\"I\": 1.0}, \"57\": {\"I\": 1.0}, \"58\": {\"I\": 1.0}, \"59\": {\"I\": 1.0}, \"60\": {\"Cs\": 1.0}, \"61\": {\"Cs\": 1.0}, \"62\": {\"K\": 1.0}, \"63\": {\"In\": 1.0}, \"64\": {\"I\": 1.0}, \"65\": {\"I\": 1.0}, \"66\": {\"I\": 1.0}, \"67\": {\"I\": 1.0}, \"68\": {\"I\": 1.0}, \"69\": {\"I\": 1.0}, \"70\": {\"Cs\": 1.0}, \"71\": {\"Cs\": 1.0}, \"72\": {\"K\": 1.0}, \"73\": {\"In\": 1.0}, \"74\": {\"I\": 1.0}, \"75\": {\"I\": 1.0}, \"76\": {\"I\": 1.0}, \"77\": {\"I\": 1.0}, \"78\": {\"I\": 1.0}, \"79\": {\"I\": 1.0}}" energy=-206.35053515506704 free_energy=-206.35053515506704 stress="-3.3947757325030735e-07 2.9502154073110874e-07 3.204878650428755e-07 2.9502154073110874e-07 -3.9183219936706863e-07 6.98061956846557e-07 3.204878650428755e-07 6.98061956846557e-07 4.9741365357018745e-08" pbc="T T T"
Cs       1.63595398       2.80151794      -0.98815076        0      -0.00019283       0.00008392       0.00019138
Cs      -2.42727595       7.87541525       7.04460090        1      -0.00039713      -0.00051279      -0.00020231
K       15.97633741       1.74152052       2.81667348        2      -0.00004269       0.00001332      -0.00032188
In      15.63813748       0.45221732      -1.39183118        3       0.00007360       0.00010450      -0.00032733
I       14.47554431       2.96849769      -0.21628765        4       0.00030185       0.00008701       0.00019183
I        3.26115891       7.99887730       4.69773350        5      -0.00009844      -0.00010223       0.00021802
I       17.31015272       4.55342119       4.62613882        6      -0.00023406       0.00010315       0.00008324
I        0.42637818       6.41330242      -0.14439185        7      -0.00001254       0.00020164       0.00022073
I       13.25040798       8.63545518      -1.85258218        8       0.00031183      -0.00005891       0.00007392
I        4.48541732       2.33170105       6.33398120        9      -0.00022448       0.00034338       0.00017095
Cs       2.31080556       5.38029553       7.42840750       10       0.00008119      -0.00002927      -0.00001603
Cs      -1.75467449      10.45161350      15.46153053       11       0.00003511      -0.00023181      -0.00010527
K       16.65073562       4.31887156      11.23390686       12      -0.00008913       0.00009127      -0.00021788
In      16.31373224       3.03072006       7.02474606       13       0.00007230       0.00026668      -0.00005807
I       15.15069544       5.54660173       8.20046864       14       0.00011179       0.00010838       0.00021891
I        3.93357725      10.57417746      13.11493708       15      -0.00004377       0.00043244       0.00011843
I       17.98395192       7.12994891      13.04419556       16      -0.00000443       0.00013598      -0.00006384
I        1.10225908       8.99254552       8.27230366       17      -0.00016599      -0.00055781      -0.00023741
I       13.92639656      11.21341576       6.56465028       18       0.00014578      -0.00001292       0.00004845
I        5.16014828       4.90912117      14.75073838       19      -0.00026464       0.00030715       0.00032520
Cs      -3.31575422      10.43163106      -2.92560216       20       0.00008431      -0.00006534      -0.00038031
Cs      -7.37891196      15.50294023       5.10409027       21       0.00034884       0.00027784       0.00012256
K       11.02352108       9.37131610       0.87779681       22       0.00043187      -0.00015925      -0.00004326
In      10.68644643       8.08283674      -3.33084879       23       0.00016414      -0.00043714      -0.00008843
I        9.52391073      10.59909789      -2.15558124       24       0.00008474      -0.00007060       0.00013247
I       -1.68959484      15.62669564       2.75889192       25       0.00005792      -0.00002720      -0.00023886
I       12.35917352      12.18207935       2.68770193       26      -0.00016548       0.00011904      -0.00022539
I       -4.52411516      14.04330662      -2.08422771       27      -0.00013433       0.00006416      -0.00007873
I       18.20269297       1.00502915       0.08596308       28      -0.00042636       0.00031811      -0.00014670
I       -0.46596685       9.96147366       4.39581192       29      -0.00014328       0.00016557       0.00011650
Cs      -2.64027794      13.00965020       5.49100113       30      -0.00003084      -0.00030295      -0.00037230
Cs      -6.70476189      18.08019673      13.52055615       31       0.00006784       0.00025925       0.00007517
K       11.69890882      11.94910972       9.29486788       32       0.00014364      -0.00019496      -0.00011752
In      11.36260890      10.65975059       5.08638325       33      -0.00008039      -0.00031735      -0.00005506
I       10.19910372      13.17571727       6.26142885       34       0.00004961       0.00024112       0.00011113
I       -1.01569374      18.20330729      11.17635581       35       0.00008286       0.00009498       0.00001849
I       13.03291837      14.75988474      11.10483632       36       0.00007567      -0.00023009       0.00008768
I       -3.84884052      16.62075259       6.33294115       37      -0.00031985      -0.00006691      -0.00008617
I       18.87792841       3.58390880       8.50269622       38      -0.00021224       0.00015252       0.00016385
I        0.20713295      12.53803989      12.81357150       39       0.00025799       0.00011542      -0.00022651
Cs      10.90045275       2.94849575      -1.77510834       40      -0.00016072      -0.00010855       0.00016534
Cs       6.83628349       8.02006527       6.25733339       41       0.00018493      -0.00015963      -0.00006103
K        6.71266750       1.59614865       3.60350990       42      -0.00034744       0.00025023      -0.00017227
In       6.37488381       0.30758897      -0.60527297       43      -0.00013390      -0.00041324       0.00005526
I        5.21244357       2.82390256       0.56966152       44      -0.00014128       0.00017310       0.00018101
I       12.52598398       8.14412489       3.91060500       45      -0.00001402      -0.00031749       0.00018415
I        8.04542717       4.40816903       5.41326914       46       0.00023239      -0.00005158      -0.00029472
I        9.68931602       6.56026572      -0.93245622       47       0.00007982      -0.00013735      -0.00008505
I        3.98717936       8.48809333      -1.06590274       48      -0.00041488       0.00015626       0.00019012
I       13.74948319       2.47733572       5.54680835       49       0.00016954       0.00014820       0.00023621
Cs      11.57543529       5.52549106       6.64107718       50      -0.00023493       0.00020262       0.00005977
Cs       7.51001801      10.59543123      14.67097505       51       0.00019672       0.00014772       0.00022239
K        7.38775561       4.17359438      12.02037767       52      -0.00039122       0.00000125       0.00007506
In       7.04952370       2.88538902       7.81185354       53      -0.00047981      -0.00027684       0.00005443
I        5.88646281       5.40125594       8.98745595       54       0.00002270       0.00017647       0.00027209
I       13.19852088      10.72154180      12.32814625       55       0.00024463      -0.00020767       0.00015382
I        8.72119652       6.98427385      13.83017052       56      -0.00006547       0.00003264       0.00006154
I       10.36610928       9.13730521       7.48514036       57       0.00016611      -0.00034509      -0.00010978
I        4.66218294      11.06868475       7.35107783       58       0.00014394      -0.00006759       0.00027305
I       14.42303998       5.05430885      13.96440076       59       0.00024967       0.00004892       0.00031249
Cs       5.94790117      10.57630964      -3.71339444       60       0.00043656       0.00011495      -0.00008889
Cs       1.88615414      15.64814889       4.31704738       61      -0.00015344       0.00028621       0.00003985
K        1.76042042       9.22606410       1.66480163       62       0.00008925      -0.00071862      -0.00012904
In       1.42246785       7.93565321      -2.54305479       63       0.00028199      -0.00008460      -0.00061798
I        0.26020615      10.45222334      -1.36785516       64       0.00010901       0.00006877       0.00005891
I        7.57469881      15.77221868       1.97158559       65       0.00011333      -0.00018802      -0.00029100
I        3.09437888      12.03697718       3.47405775       66       0.00002534       0.00015579      -0.00004503
I        4.73983630      14.18771929      -2.87087082       67      -0.00006877       0.00032138       0.00017049
I        8.93897857       0.86066905       0.87282377       68       0.00004181      -0.00010378      -0.00023548
I        8.79830878      10.10573152       3.60870895       69      -0.00016058       0.00034723       0.00008640
Cs       6.62371795      13.15401817       4.70214430       70       0.00037724       0.00002884      -0.00005792
Cs       2.55949321      18.22447341      12.73479201       71       0.00019426       0.00054003      -0.00006417
K        2.43446237      11.80375690      10.08238509       72       0.00003618      -0.00032214      -0.00031876
In       2.09829278      10.51505185       5.87337667       73      -0.00022020      -0.00030061       0.00002643
I        0.93541576      13.03129906       7.04890423       74       0.00005766      -0.00019462      -0.00010206
I        8.24788922      18.34848235      10.38922632       75       0.00007284       0.00007251      -0.00007443
I        3.76821628      14.61333960      11.89242223       76      -0.00015756      -0.00026308       0.00029924
I        5.41563579      16.76567988       5.54545935       77      -0.00021086      -0.00005415       0.00041413
I        9.61381748       3.43841720       9.28950320       78       0.00012257       0.00024394      -0.00001951
I        9.47176821      12.68455265      12.02490211       79       0.00000664       0.00008832       0.00009531
