20
Lattice="13.802739060171016 0.0 0.0 5.983440018442471 11.43165797758552 0.0 -2.4478524830510455 0.9531194345512456 5.623258374863734" Properties=species:S:1:pos:R:3:oxi_states:R:1 pbc="T T T"
Cs       3.72287628       3.33421645       2.81162919       1.00000000
Pb      -0.00000000      -0.00000000       0.00000000       2.00000000
I       -1.22392624       0.47655972       2.81162919      -1.00000000
I        3.45068477       0.00000000      -0.00000000      -1.00000000
I        1.49586000       2.85791449       0.00000000      -1.00000000
Cs       6.71459629       9.05004544       2.81162919       1.00000000
Pb       2.99172001       5.71582899       0.00000000       2.00000000
I        1.76779377       6.19238871       2.81162919      -1.00000000
I        6.44240477       5.71582899      -0.00000000      -1.00000000
I        4.48758001       8.57374348       0.00000000      -1.00000000
Cs      10.62424581       3.33421645       2.81162919       1.00000000
Pb       6.90136953      -0.00000000       0.00000000       2.00000000
I        5.67744329       0.47655972       2.81162919      -1.00000000
I       10.35205430       0.00000000      -0.00000000      -1.00000000
I        8.39722953       2.85791449       0.00000000      -1.00000000
Cs      13.61596582       9.05004544       2.81162919       1.00000000
Pb       9.89308954       5.71582899       0.00000000       2.00000000
I        8.66916330       6.19238871       2.81162919      -1.00000000
I       13.34377430       5.71582899      -0.00000000      -1.00000000
I       11.38894954       8.57374348       0.00000000      -1.00000000
