40
Lattice="18.596359872415047 0.0914927087150794 -0.011170599601244969 -9.379185087803823 16.061479242680736 0.010491300021291537 -0.003859993499088795 0.0019397351720877563 8.828774065048485" Properties=species:S:1:pos:R:3:spacegroup_kinds:I:1:forces:R:3 spacegroup="P 1" unit_cell=conventional occupancy="_JSON {\"0\": {\"Cs\": 1.0}, \"1\": {\"Cs\": 1.0}, \"2\": {\"K\": 1.0}, \"3\": {\"In\": 1.0}, \"4\": {\"I\": 1.0}, \"5\": {\"I\": 1.0}, \"6\": {\"I\": 1.0}, \"7\": {\"I\": 1.0}, \"8\": {\"I\": 1.0}, \"9\": {\"I\": 1.0}, \"10\": {\"Cs\": 1.0}, \"11\": {\"Cs\": 1.0}, \"12\": {\"K\": 1.0}, \"13\": {\"In\": 1.0}, \"14\": {\"I\": 1.0}, \"15\": {\"I\": 1.0}, \"16\": {\"I\": 1.0}, \"17\": {\"I\": 1.0}, \"18\": {\"I\": 1.0}, \"19\": {\"I\": 1.0}, \"20\": {\"Cs\": 1.0}, \"21\": {\"Cs\": 1.0}, \"22\": {\"K\": 1.0}, \"23\": {\"In\": 1.0}, \"24\": {\"I\": 1.0}, \"25\": {\"I\": 1.0}, \"26\": {\"I\": 1.0}, \"27\": {\"I\": 1.0}, \"28\": {\"I\": 1.0}, \"29\": {\"I\": 1.0}, \"30\": {\"Cs\": 1.0}, \"31\": {\"Cs\": 1.0}, \"32\": {\"K\": 1.0}, \"33\": {\"In\": 1.0}, \"34\": {\"I\": 1.0}, \"35\": {\"I\": 1.0}, \"36\": {\"I\": 1.0}, \"37\": {\"I\": 1.0}, \"38\": {\"I\": 1.0}, \"39\": {\"I\": 1.0}}" energy=-103.17524733328274 free_energy=-103.17524733328274 stress="4.391118119866498e-07 1.499679532560033e-06 -1.3154925098591977e-05 1.499679532560033e-06 1.2453165580543015e-06 5.169993547858061e-06 -1.3154925098591977e-05 5.169993547858061e-06 1.651074695228405e-06" pbc="T T T"
Cs       5.42997952       1.99444147       8.81591015        0       0.00003377       0.00004222       0.00000157
Cs       0.77017417       4.65285249       0.01108935        1       0.00001946      -0.00004159       0.00015771
K       -8.58337905      15.34687865       4.42417925        2      -0.00004838      -0.00000630      -0.00005640
In      -8.58140546      15.34592292       0.00969139        3      -0.00028887      -0.00004818       0.00053323
I       -1.72141353      15.38599339       1.77097288        4       0.00014682       0.00001518      -0.00025316
I       -1.45761478       7.32277219       7.06660483        5       0.00009709      -0.00000544      -0.00006595
I        2.01255714       1.39870222       1.76537397        6      -0.00026676      -0.00029792       0.00022482
I        4.18759453       5.24856398       7.06170224        7       0.00030129       0.00032989      -0.00037309
I        6.63043354       5.25228545       1.76533570        8       0.00003743       0.00010389      -0.00038562
I       -0.43026998       1.39502519       7.06173618        9      -0.00003185      -0.00009176       0.00021690
Cs       0.74038697      10.02518109       8.82115580       10       0.00003377       0.00004222       0.00000157
Cs      -3.91941838      12.68359211       0.01633500       11       0.00001946      -0.00004159       0.00015771
K       -3.89378650       7.31613903       4.41893360       12      -0.00004838      -0.00000630      -0.00005640
In      -3.89181291       7.31518330       0.00444574       13      -0.00028887      -0.00004818       0.00053323
I        2.96817902       7.35525377       1.76572723       14       0.00014682       0.00001518      -0.00025316
I       -6.14720732      15.35351181       7.07185048       15       0.00009709      -0.00000544      -0.00006595
I       -2.67703540       9.42944184       1.77061962       16      -0.00026676      -0.00029792       0.00022482
I       -0.50199801      13.27930360       7.06694789       17       0.00030129       0.00032989      -0.00037309
I        1.94084099      13.28302508       1.77058135       18       0.00003743       0.00010389      -0.00038562
I       -5.11986252       9.42576481       7.06698183       19      -0.00003185      -0.00009176       0.00021690
Cs      14.72815945       2.04018782       8.81032485       20       0.00003377       0.00004222       0.00000157
Cs      10.06835410       4.69859885       0.00550405       21       0.00001946      -0.00004159       0.00015771
K        0.71480089      15.39262501       4.41859395       22      -0.00004838      -0.00000630      -0.00005640
In       0.71677448      15.39166927       0.00410609       23      -0.00028887      -0.00004818       0.00053323
I        7.57676641      15.43173974       1.76538758       24       0.00014682       0.00001518      -0.00025316
I        7.84056516       7.36851855       7.06101953       25       0.00009709      -0.00000544      -0.00006595
I       11.31073708       1.44444857       1.75978867       26      -0.00026676      -0.00029792       0.00022482
I       13.48577447       5.29431034       7.05611694       27       0.00030129       0.00032989      -0.00037309
I       -2.66774640       5.20653910       1.77092100       28       0.00003743       0.00010389      -0.00038562
I        8.86790996       1.44077155       7.05615088       29      -0.00003185      -0.00009176       0.00021690
Cs      10.03856691      10.07092744       8.81557050       30       0.00003377       0.00004222       0.00000157
Cs       5.37876156      12.72933847       0.01074970       31       0.00001946      -0.00004159       0.00015771
K        5.40439343       7.36188538       4.41334830       32      -0.00004838      -0.00000630      -0.00005640
In       5.40636702       7.36092965      -0.00113956       33      -0.00028887      -0.00004818       0.00053323
I       12.26635895       7.40100012       1.76014193       34       0.00014682       0.00001518      -0.00025316
I        3.15097262      15.39925817       7.06626518       35       0.00009709      -0.00000544      -0.00006595
I        6.62114453       9.47518819       1.76503432       36      -0.00026676      -0.00029792       0.00022482
I        8.79618193      13.32504996       7.06136259       37       0.00030129       0.00032989      -0.00037309
I       -7.35733894      13.23727872       1.77616665       38       0.00003743       0.00010389      -0.00038562
I        4.17831742       9.47151117       7.06139653       39      -0.00003185      -0.00009176       0.00021690
