20
Lattice="27.60648945582284 2.9628008905307808 2.380055329530442 -5.46212412397399 6.914109793686684 -0.572739074276091 6.699627179293082 9.658041175141816 5.650455771814075" Properties=species:S:1:pos:R:3:spacegroup_kinds:I:1:forces:R:3 spacegroup="P 1" unit_cell=conventional occupancy="_JSON {\"0\": {\"Cs\": 1.0}, \"1\": {\"Cs\": 1.0}, \"2\": {\"K\": 1.0}, \"3\": {\"In\": 1.0}, \"4\": {\"I\": 1.0}, \"5\": {\"I\": 1.0}, \"6\": {\"I\": 1.0}, \"7\": {\"I\": 1.0}, \"8\": {\"I\": 1.0}, \"9\": {\"I\": 1.0}, \"10\": {\"Cs\": 1.0}, \"11\": {\"Cs\": 1.0}, \"12\": {\"K\": 1.0}, \"13\": {\"In\": 1.0}, \"14\": {\"I\": 1.0}, \"15\": {\"I\": 1.0}, \"16\": {\"I\": 1.0}, \"17\": {\"I\": 1.0}, \"18\": {\"I\": 1.0}, \"19\": {\"I\": 1.0}}" energy=-51.29274556057188 free_energy=-51.29274556057188 stress="-3.699337112204869e-06 1.1421961424470719e-06 9.093087354222061e-07 1.1421961424470719e-06 -5.678925621600316e-07 1.1006736621321861e-06 9.093087354222061e-07 1.1006736621321861e-06 -5.341828648234316e-07" pbc="T T T"
Cs      17.12808063      10.52407580       6.57568428        0      -0.00014146       0.00018221       0.00033392
Cs       2.00776437       3.75927982      -2.54566197        1      -0.00019767       0.00068621       0.00018008
K       26.69384071      13.47370606       6.11476160        2      -0.00050053       0.00020557       0.00005784
In      -3.76043838       5.29791949      -0.62987644        3      -0.00003763       0.00032036       0.00067240
I       10.93372936       8.79545225       4.71831278        4       0.00041165      -0.00022091       0.00058097
I        5.14069814      11.87066786       2.01084218        5       0.00054510      -0.00039489      -0.00020301
I        7.07286616       1.70924080       2.62182949        6      -0.00028491       0.00014881      -0.00021953
I       15.05140402      15.03744264       4.50456434        7       0.00023968      -0.00050446      -0.00022461
I       17.49438323       5.68839413       2.08214103        8       0.00044091      -0.00001537      -0.00028331
I        7.07021562      10.45255944       5.93340869        9      -0.00046399       0.00053160       0.00012411
Cs      30.93169094      12.00524457       7.76887868       10       0.00018955      -0.00025686      -0.00039332
Cs      15.81219924       5.24590881      -1.35659665       11       0.00017071      -0.00061262      -0.00027385
K       12.89130222      11.99445690       4.92545138       12       0.00009259      -0.00027819      -0.00020958
In      10.04054461       6.77887926       0.56812880       13       0.00022021      -0.00001697      -0.00076160
I       24.73895879      10.27012825       5.92183652       14      -0.00026829       0.00030080      -0.00063121
I       18.95160810      13.35173822       3.19081828       15      -0.00038640       0.00022972       0.00057960
I       20.87309110       3.18869532       3.81115075       16       0.00019294      -0.00008490      -0.00009875
I       28.85048062      16.52183616       5.69100027       17      -0.00033820       0.00015551       0.00002537
I        3.69182056       4.20748504       0.89205248       18       0.00017258      -0.00020300       0.00054465
I       20.87146403      11.93558743       7.11901417       19      -0.00005684      -0.00017263       0.00019984
