20
Lattice="12.570337328076553 -0.39889114106063706 2.315886540130797 1.1778056160496015 11.988429500042187 -4.325247859109273 -1.0287689650544785 2.1455449283657058 5.953588600726641" Properties=species:S:1:pos:R:3:spacegroup_kinds:I:1:forces:R:3 spacegroup="P 1" unit_cell=conventional occupancy="_JSON {\"0\": {\"Cs\": 1.0}, \"1\": {\"Pb\": 1.0}, \"2\": {\"I\": 1.0}, \"3\": {\"I\": 1.0}, \"4\": {\"I\": 1.0}, \"5\": {\"Cs\": 1.0}, \"6\": {\"Pb\": 1.0}, \"7\": {\"I\": 1.0}, \"8\": {\"I\": 1.0}, \"9\": {\"I\": 1.0}, \"10\": {\"Cs\": 1.0}, \"11\": {\"Pb\": 1.0}, \"12\": {\"I\": 1.0}, \"13\": {\"I\": 1.0}, \"14\": {\"I\": 1.0}, \"15\": {\"Cs\": 1.0}, \"16\": {\"Pb\": 1.0}, \"17\": {\"I\": 1.0}, \"18\": {\"I\": 1.0}, \"19\": {\"I\": 1.0}}" energy=-55.93766732711045 free_energy=-55.93766732711045 stress="-2.0250551669610238e-06 -2.455310113810867e-06 1.4528659721668423e-07 -2.455310113810867e-06 -1.2912745808275249e-06 1.9713435907843623e-06 1.4528659721668423e-07 1.9713435907843623e-06 5.571834642233065e-06" pbc="T T T"
Cs       2.85080594       3.90414205       2.83877908        0       0.00034391       0.00028661      -0.00023898
Pb      12.57118273      -0.39593146       2.31529195        1      -0.00026389       0.00025150       0.00026036
I       12.07927332       0.78690011       5.20189646        2      -0.00012017      -0.00039787      -0.00023828
I        3.16597976      -0.12799669       0.45100042        3      -0.00029365      -0.00027920       0.00016431
I        0.31878964       2.97535905      -1.22625624        4       0.00032977       0.00012690       0.00005630
Cs       3.43970854       9.89835680       0.67615506        5       0.00034611       0.00028653      -0.00023857
Pb       0.58974804       5.99716858      -2.16321314        6      -0.00025560       0.00028076       0.00024827
I        0.09783882       7.18000664       0.72338521        7      -0.00012161      -0.00039992      -0.00023503
I        3.75488009       5.86621960      -1.71162593        8      -0.00027960      -0.00028387       0.00016863
I        0.90769247       8.96957447      -3.38888081        9       0.00032937       0.00012768       0.00005646
Cs       9.13597408       3.70469683       3.99672181       10       0.00034796       0.00028537      -0.00023765
Pb       6.28601102      -0.19648178       1.15734349       11      -0.00024794       0.00023455       0.00027221
I        5.79410495       0.98634546       4.04395381       12      -0.00012120      -0.00039815      -0.00024118
I        9.45115022      -0.32744289       1.60894497       13      -0.00030681      -0.00027826       0.00016163
I        6.60395856       2.77591336      -0.06831280       14       0.00032818       0.00012522       0.00005699
Cs       9.72487713       9.69891116       1.83409832       15       0.00034578       0.00028739      -0.00023862
Pb       6.87491595       5.79772174      -1.00526896       16      -0.00025182       0.00029233       0.00024289
I        6.38300756       6.98056136       1.88132832       17      -0.00012209      -0.00040148      -0.00023421
I       10.04005484       5.66677196      -0.55367825       18      -0.00031616      -0.00028207       0.00016076
I        7.19286139       8.77012688      -2.23093568       19       0.00032946       0.00013596       0.00005371
