20
Lattice="12.164793568597283 0.0 0.0 1.2658405307018656 10.514183446483107 0.0 -1.7583281411359601 3.983472696892522 6.108062906880108" Properties=species:S:1:pos:R:3:oxi_states:R:1 pbc="T T T"
Cs       2.47854601       4.62023066       3.05403145       1.00000000
Pb      -0.00000000       0.00000000       0.00000000       2.00000000
I       -0.87916407       1.99173635       3.05403145      -1.00000000
I        3.04119839      -0.00000000      -0.00000000      -1.00000000
I        0.31646013       2.62854586       0.00000000      -1.00000000
Cs       3.11146627       9.87732238       3.05403145       1.00000000
Pb       0.63292027       5.25709172       0.00000000       2.00000000
I       -0.24624381       7.24882807       3.05403145      -1.00000000
I        3.67411866       5.25709172      -0.00000000      -1.00000000
I        0.94938040       7.88563758       0.00000000      -1.00000000
Cs       8.56094279       4.62023066       3.05403145       1.00000000
Pb       6.08239678       0.00000000       0.00000000       2.00000000
I        5.20323271       1.99173635       3.05403145      -1.00000000
I        9.12359518      -0.00000000      -0.00000000      -1.00000000
I        6.39885692       2.62854586       0.00000000      -1.00000000
Cs       9.19386306       9.87732238       3.05403145       1.00000000
Pb       6.71531705       5.25709172       0.00000000       2.00000000
I        5.83615298       7.24882807       3.05403145      -1.00000000
I        9.75651544       5.25709172      -0.00000000      -1.00000000
I        7.03177718       7.88563758       0.00000000      -1.00000000
