10
Lattice="9.117637003207085 0.0 0.0 -2.5718637262890414 8.049670765217002 0.0 -2.5930034138788214 -2.2486193940215133 6.52070043937917" Properties=species:S:1:pos:R:3 pbc="T T T"
Cs       4.44365638       2.76169728       0.02072633
Cs      -2.02933393       3.21062164       6.49990019
K       -1.29650171      -1.12430970       3.26035022
In      -0.76922776       0.08563992       0.00002680
I       -1.94474100       1.75540522       1.30441748
I        4.35905661       4.21696859       5.21628801
I       -1.11419870       0.38836832       5.21630437
I        3.52851088       5.58390762       1.30443384
I       -1.47366571       7.66748046       1.30442300
I        3.88799666      -1.69516057       5.21629354
