20
Lattice="17.410110327307127 -0.5081164349327038 -0.39880702139153246 4.134251078028291 7.75448907068854 -0.21312831794288667 4.134257818676815 2.389732668821963 7.310087539434292" Properties=species:S:1:pos:R:3:spacegroup_kinds:I:1:forces:R:3 spacegroup="P 1" unit_cell=conventional occupancy="_JSON {\"0\": {\"Cs\": 1.0}, \"1\": {\"Cs\": 1.0}, \"2\": {\"K\": 1.0}, \"3\": {\"In\": 1.0}, \"4\": {\"I\": 1.0}, \"5\": {\"I\": 1.0}, \"6\": {\"I\": 1.0}, \"7\": {\"I\": 1.0}, \"8\": {\"I\": 1.0}, \"9\": {\"I\": 1.0}, \"10\": {\"Cs\": 1.0}, \"11\": {\"Cs\": 1.0}, \"12\": {\"K\": 1.0}, \"13\": {\"In\": 1.0}, \"14\": {\"I\": 1.0}, \"15\": {\"I\": 1.0}, \"16\": {\"I\": 1.0}, \"17\": {\"I\": 1.0}, \"18\": {\"I\": 1.0}, \"19\": {\"I\": 1.0}}" energy=-51.29789358472402 free_energy=-51.29789358472402 stress="-3.503152204076345e-07 -4.4410634957137535e-07 2.524441491526553e-08 -4.4410634957137535e-07 -1.4964945376049458e-06 4.34998503103698e-07 2.524441491526553e-08 4.34998503103698e-07 1.3146125278170657e-07" pbc="T T T"
Cs       4.08509886       2.37630814       1.67883864        0       0.00012170       0.00006295      -0.00012564
Cs      12.88826394       7.51400315       5.21895506        1      -0.00000275      -0.00014486      -0.00009763
K        8.48696544       4.94493124       3.44865595        2      -0.00016156       0.00014910       0.00005339
In      17.41015749      -0.50807622      -0.39887487        3      -0.00007289      -0.00008179      -0.00013983
I        8.72747795       1.71254473       2.03489758        4       0.00005669       0.00010020       0.00000626
I        8.24604472       8.17750890       4.86258532        5       0.00000806       0.00002312       0.00005694
I       11.14385363       5.67935424       1.22777797        6      -0.00008083      -0.00021329       0.00002986
I        5.82986342       4.21115157       5.66993680        7      -0.00011616      -0.00016632      -0.00005760
I        6.56749130       6.44835488       0.88624247        8       0.00007828      -0.00002064       0.00018591
I       10.40594754       3.44155070       6.01118150        9       0.00003693       0.00023688      -0.00000307
Cs      12.79016355       2.12223966       1.47944359       10       0.00008522       0.00008930      -0.00015361
Cs      21.59330357       7.25996603       5.01953654       11       0.00005135      -0.00019433      -0.00005835
K       17.19201870       4.69087909       3.24923932       12      -0.00017565       0.00014911       0.00008847
In       8.70510443      -0.25404112      -0.19956407       13       0.00003506       0.00001691       0.00031309
I       17.43255143       1.45850997       1.83551322       14      -0.00000670       0.00009808       0.00001493
I       16.95107458       7.92346072       4.66320703       15       0.00007190      -0.00010252      -0.00010622
I       19.84889536       5.42523737       1.02839955       16      -0.00003977      -0.00006670      -0.00003532
I       14.53488078       3.95711788       5.47055476       17       0.00001719      -0.00018003      -0.00014019
I       15.27258859       6.19426498       0.68689522       18      -0.00007912       0.00007823       0.00003867
I       19.11098863       3.18749919       5.81173314       19       0.00017304       0.00016659       0.00012995
