80
Lattice="22.20172427257022 0.0 0.0 -7.58594748766014 13.139246472176849 0.0 3.5260170597202856 2.0357468985967184 14.146308332694373" Properties=species:S:1:pos:R:3 pbc="T T T"
Cs       9.56678093       2.81934798       7.06644678
Cs       2.84247443       3.99326228       0.00658825
K        0.88150426       0.50893672       3.53657708
In       1.66919690      -0.38744807       0.00002894
I       10.21300280      -0.17929368       1.41486396
I        2.19624172       6.99185590       5.65830219
I        3.94333697       1.53660631       1.41487870
I        8.46595727       5.27602808       5.65831693
I       10.31793769       4.66079793       1.41486540
I        2.09131826       2.15182593       5.65830364
Cs      11.32978946       3.83722143      14.13960094
Cs       4.60548296       5.01113572       7.07974242
K        2.64451279       1.52681017      10.60973125
In       3.43220543       0.63042538       7.07318311
I       11.97601133       0.83857977       8.48801813
I        3.95925025       8.00972934      12.73145636
I        5.70634550       2.55447976       8.48803286
I       10.22896580       6.29390152      12.73147109
I       12.08094622       5.67867138       8.48801957
I        3.85432679       3.16969937      12.73145780
Cs       5.77380719       9.38897122       7.06644678
Cs      -0.95049932      10.56288551       0.00658825
K       -2.91146948       7.07855996       3.53657708
In      -2.12377685       6.18217517       0.00002894
I        6.42002906       6.39032956       1.41486396
I       -1.59673202      13.56147913       5.65830219
I        0.15036323       8.10622955       1.41487870
I        4.67298353      11.84565131       5.65831693
I        6.52496394      11.23042117       1.41486540
I       -1.70165549       8.72144916       5.65830364
Cs       7.53681572      10.40684467      14.13960094
Cs       0.81250921      11.58075896       7.07974242
K       -1.14846095       8.09643341      10.60973125
In      -0.36076832       7.20004862       7.07318311
I        8.18303759       7.40820301       8.48801813
I        0.16627651      14.57935258      12.73145636
I        1.91337176       9.12410300       8.48803286
I        6.43599206      12.86352476      12.73147109
I        8.28797247      12.24829462       8.48801957
I        0.06135304       9.73932261      12.73145780
Cs      20.66764307       2.81934798       7.06644678
Cs      13.94333656       3.99326228       0.00658825
K       11.98236640       0.50893672       3.53657708
In      12.77005903      -0.38744807       0.00002894
I       21.31386494      -0.17929368       1.41486396
I       13.29710386       6.99185590       5.65830219
I       15.04419911       1.53660631       1.41487870
I       19.56681941       5.27602808       5.65831693
I       21.41879982       4.66079793       1.41486540
I       13.19218039       2.15182593       5.65830364
Cs      22.43065160       3.83722143      14.13960094
Cs      15.70634509       5.01113572       7.07974242
K       13.74537493       1.52681017      10.60973125
In      14.53306756       0.63042538       7.07318311
I       23.07687347       0.83857977       8.48801813
I       15.06011239       8.00972934      12.73145636
I       16.80720764       2.55447976       8.48803286
I       21.32982794       6.29390152      12.73147109
I       23.18180835       5.67867138       8.48801957
I       14.95518892       3.16969937      12.73145780
Cs      16.87466933       9.38897122       7.06644678
Cs      10.15036282      10.56288551       0.00658825
K        8.18939266       7.07855996       3.53657708
In       8.97708529       6.18217517       0.00002894
I       17.52089119       6.39032956       1.41486396
I        9.50413011      13.56147913       5.65830219
I       11.25122536       8.10622955       1.41487870
I       15.77384566      11.84565131       5.65831693
I       17.62582608      11.23042117       1.41486540
I        9.39920665       8.72144916       5.65830364
Cs      18.63767786      10.40684467      14.13960094
Cs      11.91337135      11.58075896       7.07974242
K        9.95240119       8.09643341      10.60973125
In      10.74009382       7.20004862       7.07318311
I       19.28389972       7.40820301       8.48801813
I       11.26713864      14.57935258      12.73145636
I       13.01423389       9.12410300       8.48803286
I       17.53685419      12.86352476      12.73147109
I       19.38883461      12.24829462       8.48801957
I       11.16221518       9.73932261      12.73145780
