80
Lattice="21.85272542409511 2.2424247332284493 0.7286293801001031 -6.194329762383889 13.235337952192193 -0.385147175450023 4.143243560163137 2.4458960460648322 13.811523351394998" Properties=species:S:1:pos:R:3:spacegroup_kinds:I:1:forces:R:3 spacegroup="P 1" unit_cell=conventional occupancy="_JSON {\"0\": {\"Cs\": 1.0}, \"1\": {\"Cs\": 1.0}, \"2\": {\"K\": 1.0}, \"3\": {\"In\": 1.0}, \"4\": {\"I\": 1.0}, \"5\": {\"I\": 1.0}, \"6\": {\"I\": 1.0}, \"7\": {\"I\": 1.0}, \"8\": {\"I\": 1.0}, \"9\": {\"I\": 1.0}, \"10\": {\"Cs\": 1.0}, \"11\": {\"Cs\": 1.0}, \"12\": {\"K\": 1.0}, \"13\": {\"In\": 1.0}, \"14\": {\"I\": 1.0}, \"15\": {\"I\": 1.0}, \"16\": {\"I\": 1.0}, \"17\": {\"I\": 1.0}, \"18\": {\"I\": 1.0}, \"19\": {\"I\": 1.0}, \"20\": {\"Cs\": 1.0}, \"21\": {\"Cs\": 1.0}, \"22\": {\"K\": 1.0}, \"23\": {\"In\": 1.0}, \"24\": {\"I\": 1.0}, \"25\": {\"I\": 1.0}, \"26\": {\"I\": 1.0}, \"27\": {\"I\": 1.0}, \"28\": {\"I\": 1.0}, \"29\": {\"I\": 1.0}, \"30\": {\"Cs\": 1.0}, \"31\": {\"Cs\": 1.0}, \"32\": {\"K\": 1.0}, \"33\": {\"In\": 1.0}, \"34\": {\"I\": 1.0}, \"35\": {\"I\": 1.0}, \"36\": {\"I\": 1.0}, \"37\": {\"I\": 1.0}, \"38\": {\"I\": 1.0}, \"39\": {\"I\": 1.0}, \"40\": {\"Cs\": 1.0}, \"41\": {\"Cs\": 1.0}, \"42\": {\"K\": 1.0}, \"43\": {\"In\": 1.0}, \"44\": {\"I\": 1.0}, \"45\": {\"I\": 1.0}, \"46\": {\"I\": 1.0}, \"47\": {\"I\": 1.0}, \"48\": {\"I\": 1.0}, \"49\": {\"I\": 1.0}, \"50\": {\"Cs\": 1.0}, \"51\": {\"Cs\": 1.0}, \"52\": {\"K\": 1.0}, \"53\": {\"In\": 1.0}, \"54\": {\"I\": 1.0}, \"55\": {\"I\": 1.0}, \"56\": {\"I\": 1.0}, \"57\": {\"I\": 1.0}, \"58\": {\"I\": 1.0}, \"59\": {\"I\": 1.0}, \"60\": {\"Cs\": 1.0}, \"61\": {\"Cs\": 1.0}, \"62\": {\"K\": 1.0}, \"63\": {\"In\": 1.0}, \"64\": {\"I\": 1.0}, \"65\": {\"I\": 1.0}, \"66\": {\"I\": 1.0}, \"67\": {\"I\": 1.0}, \"68\": {\"I\": 1.0}, \"69\": {\"I\": 1.0}, \"70\": {\"Cs\": 1.0}, \"71\": {\"Cs\": 1.0}, \"72\": {\"K\": 1.0}, \"73\": {\"In\": 1.0}, \"74\": {\"I\": 1.0}, \"75\": {\"I\": 1.0}, \"76\": {\"I\": 1.0}, \"77\": {\"I\": 1.0}, \"78\": {\"I\": 1.0}, \"79\": {\"I\": 1.0}}" energy=-206.07402469832542 free_energy=-206.07402469832542 stress="-4.060152809639914e-06 8.787608204158502e-06 -4.0431723708607077e-07 8.787608204158502e-06 -6.230140201281024e-06 -6.77088179529169e-06 -4.0431723708607077e-07 -6.77088179529169e-06 1.3364275298748316e-05" pbc="T T T"
Cs       8.65180955       4.91389893      10.30338550        0      -0.00014063       0.00015176       0.00027412
Cs       3.99910928       6.38934198      -0.15315816        1       0.00009389       0.00021419       0.00002498
K        1.30653766       1.69365499       1.98488293        2       0.00008107      -0.00022695      -0.00026735
In      -4.44457533      11.54113434      -1.30116091        3       0.00026952      -0.00011287      -0.00049066
I        3.16862613      14.20071668       2.65207579        4       0.00053146      -0.00031080      -0.00013534
I        2.93354248       6.13008176       4.17003610        5       0.00036550      -0.00007646      -0.00034796
I        4.30827373       2.53256020       0.43050244        6      -0.00044910       0.00015975      -0.00010926
I        9.69312154       5.34361507       6.12576112        7      -0.00005953       0.00005659       0.00011416
I       10.56555981       6.05706247       1.85687790        8      -0.00006820       0.00027400      -0.00007064
I        2.51672473       1.92760352       5.45278206        9      -0.00006923       0.00021942      -0.00008452
Cs      10.72364975       6.13732443      17.20907959       10      -0.00004445       0.00010252       0.00016953
Cs       6.06941469       7.61192706       6.75296164       11       0.00001974       0.00007064       0.00016119
K        3.37851694       2.91646968       8.89054633       12      -0.00016229      -0.00000203      -0.00006043
In      -2.37269135      12.76397461       5.60469490       13      -0.00016650      -0.00022148       0.00043788
I        5.24077284      15.42378439       9.55840720       14       0.00012711      -0.00003872      -0.00004895
I        5.00582850       7.35425830      11.07601081       15      -0.00010747      -0.00015096       0.00015535
I        6.37999259       3.75497717       7.33600728       16      -0.00012227       0.00024060      -0.00016198
I       11.76478073       6.56623794      13.03084169       17       0.00019854       0.00014620      -0.00001667
I       12.63821017       7.28079099       8.76256054       18       0.00010424      -0.00000655       0.00010660
I        4.58922948       3.15114439      12.35829554       19      -0.00021891       0.00061720      -0.00001577
Cs       5.55405989      11.53199783      10.11086862       20       0.00019764      -0.00013121      -0.00004192
Cs       0.90112648      13.00652030      -0.34490224       21      -0.00010345       0.00025548      -0.00022873
K       -1.79110846       8.31079019       1.79191316       22       0.00007560      -0.00005593      -0.00025107
In      -1.34817380       4.92329935      -1.10952145       23       0.00019997       0.00044294       0.00019538
I        6.26571519       7.58323637       2.84518559       24      -0.00069526      -0.00024302      -0.00009804
I       -0.16206727      12.74851705       3.97856987       25      -0.00022539       0.00000259      -0.00015933
I        1.21063683       9.14985765       0.23723917       26      -0.00016294      -0.00018755       0.00019278
I        6.59686830      11.96129305       5.93324193       27      -0.00008056      -0.00010898      -0.00010075
I        7.47058407      12.67606373       1.66476116       28      -0.00033378      -0.00007175      -0.00051764
I       -0.58072534       8.54580982       5.25963244       29      -0.00019146       0.00039739      -0.00017964
Cs       7.62425644      12.75422607      17.01706084       30       0.00040622       0.00002099       0.00008370
Cs       2.97494211      14.23042227       6.56020801       31      -0.00026234       0.00009408      -0.00011109
K        0.28084534       9.53417087       8.69735618       32      -0.00048719      -0.00017218       0.00026085
In       0.72329690       6.14651886       5.79660039       33       0.00043291      -0.00068293       0.00031047
I        8.33747806       8.80573003       9.75009250       34      -0.00037193      -0.00007867       0.00009980
I        1.90881125      13.97084712      10.88352866       35       0.00005965      -0.00017429       0.00013703
I        3.28190753      10.37333275       7.14324560       36       0.00066671       0.00027215       0.00010124
I        8.66796689      13.18479561      12.83944171       37       0.00029411       0.00022933       0.00028546
I        9.54130231      13.89837060       8.57057087       38      -0.00000816      -0.00009379       0.00042078
I        1.48987720       9.76826220      12.16584848       39       0.00024871      -0.00040482      -0.00015768
Cs      19.57832918       6.03472704      10.66794930       40      -0.00029730       0.00029787       0.00022982
Cs      14.92556916       7.51086920       0.21087379       41       0.00005316      -0.00000849       0.00024028
K       12.23253240       2.81537798       2.34880819       42       0.00015430      -0.00037378      -0.00003822
In       6.48165170      12.66273072      -0.93678241       43      -0.00023151       0.00004155      -0.00002219
I       14.09498807      15.32165188       3.01616767       44       0.00064611       0.00004716      -0.00002193
I       13.85981655       7.25122260       4.53416184       45       0.00007245       0.00002193       0.00011598
I       15.23432914       3.65405238       0.79495170       46       0.00009536       0.00024152      -0.00023504
I       20.61950458       6.46480160       6.49003098       47       0.00014564       0.00015773       0.00012777
I       -0.36105575       4.93578255       1.49275991       48       0.00018993       0.00003647      -0.00000798
I       13.44283214       3.04914439       5.81694912       49       0.00007399      -0.00006733       0.00003645
Cs      21.65033389       7.25855213      17.57358407       50      -0.00032472       0.00008311      -0.00009739
Cs      16.99585949       8.73332241       7.11720661       51      -0.00001777      -0.00006294       0.00017365
K       14.30508457       4.03744003       9.25463581       52      -0.00045301       0.00017865       0.00000978
In       8.55340760      13.88546203       5.96872911       53      -0.00024013      -0.00007128      -0.00041803
I       16.16729526      16.54481503       9.92246857       54      -0.00001791       0.00000158       0.00016870
I       15.93198868       8.47483697      11.44032474       55      -0.00003396       0.00009573      -0.00010955
I       17.30650925       4.87635606       7.70057169       56      -0.00017888       0.00021149      -0.00041917
I       22.69169337       7.68715116      13.39486874       57      -0.00026444      -0.00023369      -0.00000648
I        1.71196619       6.15955469       8.39824980       58      -0.00001551      -0.00011399       0.00001519
I       15.51531108       4.27273188      12.72226047       59       0.00031721      -0.00039744       0.00030767
Cs      16.48064701      12.65301126      10.47557755       60       0.00014497      -0.00002229      -0.00015956
Cs      11.82733490      14.12801080       0.01914983       61      -0.00014186       0.00011534      -0.00006965
K        9.13512225       9.43164065       2.15596427       62       0.00040919       0.00058295      -0.00023600
In       9.57798696       6.04456988      -0.74527703       63       0.00002945      -0.00017593       0.00036390
I       17.19186476       8.70409987       3.20922518       64      -0.00021007       0.00026195       0.00013264
I       10.76399516      13.87002049       4.34248351       65      -0.00036380      -0.00006944       0.00006266
I       12.13711216      10.27151686       0.60176493       66      -0.00026209      -0.00037665       0.00018953
I       17.52343298      13.08228818       6.29788007       67       0.00001887       0.00002722      -0.00017954
I       -3.45603529      11.55403493       1.30045525       68      -0.00000359       0.00033044       0.00036801
I       10.34558520       9.66705060       5.62349635       69       0.00029928      -0.00014865       0.00028589
Cs      18.55082967      13.87577402      17.38176956       70       0.00029807      -0.00029302      -0.00016844
Cs      13.90125123      15.35191084       6.92431237       71      -0.00016243      -0.00002116       0.00003757
K       11.20687993      10.65539559       9.06130744       72       0.00013585       0.00009735       0.00019133
In      11.64965329       7.26771248       6.16092292       73       0.00034724      -0.00009275      -0.00043856
I       19.26378282       9.92636956      10.11446692       74       0.00004523       0.00037858      -0.00004732
I       12.83485399      15.09176644      11.24763471       75       0.00001728       0.00001061       0.00018785
I       14.20867450      11.49516770       7.50793130       76       0.00004840      -0.00027448       0.00002657
I       19.59428040      14.30598371      13.20374995       77      -0.00016012      -0.00040707       0.00019590
I       -1.38510827      12.77707654       8.20677547       78      -0.00015349      -0.00009711      -0.00031545
I       12.41654029      10.88972493      12.53001021       79       0.00014906      -0.00032762      -0.00035249
