80
Lattice="20.27710727741455 0.27451052574321605 -1.8797335019909103 -9.422516293255352 14.756245566521022 1.9377752476345695 -5.9819823855313405 -3.3191246200055087 14.302290756230839" Properties=species:S:1:pos:R:3:spacegroup_kinds:I:1:forces:R:3 spacegroup="P 1" unit_cell=conventional occupancy="_JSON {\"0\": {\"Cs\": 1.0}, \"1\": {\"Cs\": 1.0}, \"2\": {\"Cs\": 1.0}, \"3\": {\"Cs\": 1.0}, \"4\": {\"Pb\": 1.0}, \"5\": {\"Pb\": 1.0}, \"6\": {\"Pb\": 1.0}, \"7\": {\"Pb\": 1.0}, \"8\": {\"I\": 1.0}, \"9\": {\"I\": 1.0}, \"10\": {\"I\": 1.0}, \"11\": {\"I\": 1.0}, \"12\": {\"I\": 1.0}, \"13\": {\"I\": 1.0}, \"14\": {\"I\": 1.0}, \"15\": {\"I\": 1.0}, \"16\": {\"I\": 1.0}, \"17\": {\"I\": 1.0}, \"18\": {\"I\": 1.0}, \"19\": {\"I\": 1.0}, \"20\": {\"Cs\": 1.0}, \"21\": {\"Cs\": 1.0}, \"22\": {\"Cs\": 1.0}, \"23\": {\"Cs\": 1.0}, \"24\": {\"Pb\": 1.0}, \"25\": {\"Pb\": 1.0}, \"26\": {\"Pb\": 1.0}, \"27\": {\"Pb\": 1.0}, \"28\": {\"I\": 1.0}, \"29\": {\"I\": 1.0}, \"30\": {\"I\": 1.0}, \"31\": {\"I\": 1.0}, \"32\": {\"I\": 1.0}, \"33\": {\"I\": 1.0}, \"34\": {\"I\": 1.0}, \"35\": {\"I\": 1.0}, \"36\": {\"I\": 1.0}, \"37\": {\"I\": 1.0}, \"38\": {\"I\": 1.0}, \"39\": {\"I\": 1.0}, \"40\": {\"Cs\": 1.0}, \"41\": {\"Cs\": 1.0}, \"42\": {\"Cs\": 1.0}, \"43\": {\"Cs\": 1.0}, \"44\": {\"Pb\": 1.0}, \"45\": {\"Pb\": 1.0}, \"46\": {\"Pb\": 1.0}, \"47\": {\"Pb\": 1.0}, \"48\": {\"I\": 1.0}, \"49\": {\"I\": 1.0}, \"50\": {\"I\": 1.0}, \"51\": {\"I\": 1.0}, \"52\": {\"I\": 1.0}, \"53\": {\"I\": 1.0}, \"54\": {\"I\": 1.0}, \"55\": {\"I\": 1.0}, \"56\": {\"I\": 1.0}, \"57\": {\"I\": 1.0}, \"58\": {\"I\": 1.0}, \"59\": {\"I\": 1.0}, \"60\": {\"Cs\": 1.0}, \"61\": {\"Cs\": 1.0}, \"62\": {\"Cs\": 1.0}, \"63\": {\"Cs\": 1.0}, \"64\": {\"Pb\": 1.0}, \"65\": {\"Pb\": 1.0}, \"66\": {\"Pb\": 1.0}, \"67\": {\"Pb\": 1.0}, \"68\": {\"I\": 1.0}, \"69\": {\"I\": 1.0}, \"70\": {\"I\": 1.0}, \"71\": {\"I\": 1.0}, \"72\": {\"I\": 1.0}, \"73\": {\"I\": 1.0}, \"74\": {\"I\": 1.0}, \"75\": {\"I\": 1.0}, \"76\": {\"I\": 1.0}, \"77\": {\"I\": 1.0}, \"78\": {\"I\": 1.0}, \"79\": {\"I\": 1.0}}" energy=-223.60175880653065 free_energy=-223.60175880653065 stress="2.260089353934752e-06 -1.0013467044819794e-06 7.73236310377539e-07 -1.0013467044819794e-06 8.743105921977649e-08 -9.591130761757276e-07 7.73236310377539e-07 -9.591130761757276e-07 9.450541892603436e-07" pbc="T T T"
Cs       0.43380118       6.28108440       3.96028291        0      -0.00007620       0.00017583      -0.00004243
Cs      -3.09267597       3.22562683       3.95618081        1      -0.00007575      -0.00026173      -0.00013652
Cs       2.79849282      -3.82145646       8.57364950        2      -0.00000440       0.00015708      -0.00019642
Cs       3.40951609       2.76838311      11.73939355        3       0.00005478       0.00011472      -0.00014940
Pb      -1.07175643       0.35748557       0.40063876        4       0.00020941       0.00024551       0.00005309
Pb       2.62420215       2.33857834       0.19220707        5      -0.00071349      -0.00011920      -0.00000790
Pb      -0.57193101      -0.20881911       6.75663295        6       0.00003317       0.00014969       0.00022690
Pb       3.12388658       1.77240355       6.54858931        7      -0.00007461      -0.00030401      -0.00002999
I       -2.84232543       6.58486373       1.80069283        8       0.00011593      -0.00042778       0.00004071
I        5.72792266       1.33511409      -0.31970327        9       0.00003994      -0.00010968       0.00002287
I        8.73177440      -0.27341081       2.51335729       10       0.00040058       0.00016803      -0.00051297
I        3.94006627       0.19600065      14.66650786       11      -0.00002669       0.00019327      -0.00014103
I       -2.76407257       1.94693741      13.14293384       12       0.00025099       0.00034681       0.00009027
I        3.45801392       2.54048717       3.49627357       13      -0.00034505      -0.00034354       0.00018336
I       -5.87914389       4.24113060       9.07956888       14      -0.00019927       0.00032514      -0.00025990
I        2.26955127      -1.24784578       5.64713865       15      -0.00034024       0.00011390       0.00010702
I       -9.87825326       5.60312051      12.96066516       16      -0.00015806      -0.00032225      -0.00042943
I        6.46274041       0.93348206       6.32865382       17       0.00008622      -0.00033724       0.00019705
I        0.18187183       2.92457486       6.11687843       18      -0.00010008      -0.00030079       0.00003467
I        1.23658361       0.58961491       9.25967827       19       0.00006666      -0.00032089      -0.00025105
Cs      -4.27792786      13.66013222       4.93101749       20      -0.00005060      -0.00008676       0.00005197
Cs      -7.80505127      10.60470349       4.92736689       21       0.00009384       0.00018323       0.00017939
Cs      -1.91339480       3.55758143       9.54247754       22       0.00014578      -0.00026264       0.00003457
Cs      -1.30260877      10.14766884      12.70727488       23       0.00029889       0.00010708       0.00001666
Pb      -5.78502451       7.73786649       1.37055306       24       0.00018219      -0.00011666      -0.00027835
Pb      -2.08812545       9.71750898       1.16109046       25      -0.00003481      -0.00019399       0.00052405
Pb      -5.28296726       7.16856039       7.72691990       26       0.00002083      -0.00029728       0.00014151
Pb      -1.58611225       9.14771289       7.51757252       27      -0.00002520       0.00034067      -0.00041797
I       -7.55216453      13.96147797       2.77024231       28      -0.00026639       0.00029811       0.00001692
I        1.01636941       8.71367247       0.64997247       29       0.00019887      -0.00009169      -0.00030762
I        4.02070711       7.10681223       3.48181463       30      -0.00001574       0.00006652       0.00005280
I       -0.77197242       7.57470152      15.63419332       31      -0.00015558      -0.00003144       0.00014051
I       -7.47347212       9.32555147      14.11118743       32      -0.00004025       0.00001698      -0.00023856
I       -1.25293293       9.91542731       4.46629502       33       0.00006100       0.00037580       0.00052595
I      -10.58974989      11.62002832      10.04619114       34       0.00009559       0.00010560       0.00001721
I       -2.44399262       6.12866224       6.61455847       35       0.00036213       0.00019347      -0.00024914
I      -14.58893533      12.97647015      13.92936525       36       0.00007592       0.00052182       0.00048336
I        1.75111982       8.30880896       7.29910692       37      -0.00028705       0.00012542      -0.00020034
I       -4.52888953      10.30098146       7.08761569       38       0.00002244       0.00020535       0.00000823
I       -3.47403218       7.96315366      10.22966016       39      -0.00018177       0.00041043      -0.00022928
Cs      10.57139478       6.41962477       3.02069861       40       0.00036255      -0.00012778       0.00005599
Cs       7.04530982       3.36280369       3.01668532       41       0.00041377       0.00025840       0.00030506
Cs      12.93666721      -3.68362662       7.63339372       42      -0.00001083      -0.00026108      -0.00003443
Cs      -6.73009095       2.63276622      12.67942532       43       0.00015718      -0.00007579      -0.00041699
Pb       9.06666532       0.49564184      -0.53897386       44       0.00019356       0.00019458       0.00025135
Pb      12.76280170       2.47639333      -0.74621491       45       0.00005011      -0.00030548      -0.00067750
Pb       9.56627635      -0.07174349       5.81659497       46       0.00021960       0.00015197      -0.00013378
Pb      13.26255168       1.90850078       5.60916222       47      -0.00029962       0.00000138       0.00010709
I        7.29642334       6.72134328       0.86097298       48      -0.00004168      -0.00027380      -0.00005691
I       15.86662637       1.47181926      -1.25882507       49      -0.00035596      -0.00002209      -0.00015030
I       -1.40578487      -0.41121242       3.45270168       50       0.00014302       0.00049492       0.00015653
I       14.07795608       0.33298879      13.72467137       51       0.00014663      -0.00034016       0.00001254
I        7.37547814       2.08467997      12.20370183       52       0.00003576      -0.00023171       0.00008118
I       13.59724888       2.67636213       2.55665526       53       0.00015551       0.00016789      -0.00004327
I        4.26014681       4.37908159       8.13964651       54      -0.00028111      -0.00020967      -0.00004005
I       12.40719996      -1.11109787       4.70649758       55      -0.00013727       0.00017844      -0.00011443
I        0.26003752       5.73802513      12.02061528       56      -0.00017861       0.00025039      -0.00038172
I       16.60154777       1.06960643       5.38933727       57       0.00009180      -0.00013887      -0.00021171
I       10.32085027       3.06140214       5.17729561       58      -0.00014661      -0.00020424      -0.00001757
I       11.37590653       0.72544036       8.31950853       59       0.00028525       0.00019548       0.00042641
Cs       5.86159039      13.79629843       3.99082169       60      -0.00018113       0.00023042      -0.00004956
Cs       2.33384276      10.74195294       3.98735641       61      -0.00018057      -0.00034686      -0.00005354
Cs       8.22573073       3.69475644       8.60309614       62       0.00019880       0.00012865      -0.00018830
Cs     -11.43957931      10.00937768      13.64699777       63      -0.00017916       0.00000442       0.00024388
Pb       4.35395665       7.87432954       0.43022904       64      -0.00020295      -0.00037392       0.00020250
Pb       8.05003764       9.85421974       0.22067380       65       0.00038087       0.00034034       0.00026778
Pb       4.85601526       7.30597594       6.78681267       66      -0.00019198      -0.00003330       0.00007152
Pb       8.55217354       9.28611616       6.57723606       67      -0.00017733      -0.00019596       0.00028294
I        2.58606590      14.09950642       1.83049206       68       0.00003290      -0.00014034       0.00010499
I       11.15470852       8.85141805      -0.29097895       69       0.00009569      -0.00013819       0.00005560
I       -6.11863373       6.97010494       4.42129177       70      -0.00005265      -0.00055312       0.00066739
I        9.36721987       7.71222577      14.69582729       71       0.00024952       0.00020834      -0.00024999
I        2.66368398       9.46229139      13.17068242       72       0.00002846       0.00001507       0.00006503
I        8.88485127      10.05417330       3.52586011       73      -0.00008229       0.00018188      -0.00016598
I       -0.45148295      11.75677541       9.10609072       74      -0.00017136       0.00006109       0.00002778
I        7.69558715       6.26644101       5.67502368       75       0.00006312       0.00005625      -0.00004416
I       -4.45158191      13.11606879      12.99036641       76      -0.00000248      -0.00014569       0.00069008
I       11.88924625       8.44727785       6.35835662       77       0.00010100      -0.00016050       0.00008412
I        5.60926585      10.43882822       6.14740603       78      -0.00000866       0.00020776      -0.00003616
I        6.66519032       8.10193470       9.28923699       79      -0.00016681      -0.00006200      -0.00016417
