10
Lattice="10.245373278727616 0.0 0.0 4.134717035851506 8.289711099374427 0.0 8.38703433490547 -1.32694501360904 4.785344574407941" Properties=species:S:1:pos:R:3 pbc="T T T"
Cs       5.69170161       1.74066815       1.19634237
Cs      17.07542285       5.22209732       3.58900181
K       11.38356229       3.48138267       2.39267205
In       0.00000017       0.00000050       0.00000020
I       10.56570712      -0.20348414       2.33681150
I       12.20141748       7.16624910       2.44853260
I       12.40145403       2.62109364       1.23257942
I       10.36566962       4.34167130       3.55276455
I        7.55986493       5.94657702       0.99152701
I       15.20726023       1.01618998       3.79381803
