20
Lattice="18.49627067494901 -1.925161051764049 0.2630701224552726 -3.79118628298508 8.49194640957034 -0.020294253050615895 -0.13020322315918112 -0.03394108532472846 8.827994613755475" Properties=species:S:1:pos:R:3:spacegroup_kinds:I:1:forces:R:3 spacegroup="P 1" unit_cell=conventional occupancy="_JSON {\"0\": {\"Cs\": 1.0}, \"1\": {\"Cs\": 1.0}, \"2\": {\"K\": 1.0}, \"3\": {\"In\": 1.0}, \"4\": {\"I\": 1.0}, \"5\": {\"I\": 1.0}, \"6\": {\"I\": 1.0}, \"7\": {\"I\": 1.0}, \"8\": {\"I\": 1.0}, \"9\": {\"I\": 1.0}, \"10\": {\"Cs\": 1.0}, \"11\": {\"Cs\": 1.0}, \"12\": {\"K\": 1.0}, \"13\": {\"In\": 1.0}, \"14\": {\"I\": 1.0}, \"15\": {\"I\": 1.0}, \"16\": {\"I\": 1.0}, \"17\": {\"I\": 1.0}, \"18\": {\"I\": 1.0}, \"19\": {\"I\": 1.0}}" energy=-51.58763140838379 free_energy=-51.58763140838379 stress="5.707450611757277e-06 1.1402623580325673e-06 -7.047086153332947e-07 1.1402623580325673e-06 7.054303483219195e-06 1.862344381644499e-06 -7.047086153332947e-07 1.862344381644499e-06 5.880423253690775e-06" pbc="T T T"
Cs       1.18897564       5.73859453       8.88157707        0      -0.00015318       0.00025469       0.00017226
Cs       5.53667400       2.58788258       8.91116072        1      -0.00050065      -0.00018381       0.00027125
K        0.69805281       0.41547245       4.42671630        2       0.00051151       0.00010610       0.00045919
In       0.76474845       0.43253003       0.01305284        3      -0.00030916       0.00000622       0.00049249
I        2.17447074       2.39595302       1.80828343        4       0.00020303      -0.00070182      -0.00007360
I        4.68057706       5.96501170       7.15749683        5       0.00035220      -0.00010350      -0.00061484
I       -0.70680639       8.63839510       7.08921942        6      -0.00024572       0.00029380      -0.00019192
I        7.56207879      -0.27855635       1.87559952        7       0.00017961       0.00041889       0.00039421
I       -2.06484993       6.68823200       1.76496661        8      -0.00001288       0.00035401      -0.00060460
I       -0.32747000       2.63497424       7.06933040        9      -0.00002500      -0.00044387      -0.00030338
Cs      10.43711099       4.77601398       9.01311216       10      -0.00015328       0.00025487       0.00017210
Cs      14.78480932       1.62530208       9.04269575       11      -0.00050055      -0.00018399       0.00027141
K        9.94618815      -0.54710808       4.55825119       12       0.00051148       0.00010610       0.00046014
In      10.01288382      -0.53005050       0.14458871       13      -0.00030931       0.00000625       0.00048788
I       11.42260604       1.43337243       1.93981835       14       0.00020348      -0.00070121      -0.00007283
I       13.92871244       5.00243123       7.28903203       15       0.00035174      -0.00010410      -0.00061561
I        8.54132903       7.67581455       7.22075436       16      -0.00024643       0.00029389      -0.00019125
I       16.81021405      -1.24113685       2.00713470       17       0.00018032       0.00041881       0.00039354
I        7.18328536       5.72565156       1.89650154       18      -0.00001254       0.00035329      -0.00060383
I        8.92066528       1.67239380       7.20086532       19      -0.00002465      -0.00044459      -0.00030261
