20
Lattice="18.36432532856305 -0.0407978726189832 0.002485488450621979 4.589785974911284 7.9961473937917535 -0.021651486873993944 4.57380678799337 2.6227114667330684 6.933066588323808" Properties=species:S:1:pos:R:3:spacegroup_kinds:I:1:forces:R:3 spacegroup="P 1" unit_cell=conventional occupancy="_JSON {\"0\": {\"Cs\": 1.0}, \"1\": {\"Cs\": 1.0}, \"2\": {\"K\": 1.0}, \"3\": {\"In\": 1.0}, \"4\": {\"I\": 1.0}, \"5\": {\"I\": 1.0}, \"6\": {\"I\": 1.0}, \"7\": {\"I\": 1.0}, \"8\": {\"I\": 1.0}, \"9\": {\"I\": 1.0}, \"10\": {\"Cs\": 1.0}, \"11\": {\"Cs\": 1.0}, \"12\": {\"K\": 1.0}, \"13\": {\"In\": 1.0}, \"14\": {\"I\": 1.0}, \"15\": {\"I\": 1.0}, \"16\": {\"I\": 1.0}, \"17\": {\"I\": 1.0}, \"18\": {\"I\": 1.0}, \"19\": {\"I\": 1.0}}" energy=-51.297888852650885 free_energy=-51.297888852650885 stress="2.7850748730658734e-06 1.275135428346346e-06 -8.04703910588903e-06 1.275135428346346e-06 -5.965373867261681e-06 -8.999751692366593e-07 -8.04703910588903e-06 -8.999751692366593e-07 -4.456722430055552e-07" pbc="T T T"
Cs       4.59956620       2.63670542       1.91761443        0      -0.00025470      -0.00032168      -0.00006747
Cs      13.74676822       7.96262292       4.99584597        1      -0.00013538      -0.00031799      -0.00023991
K        9.17219525       5.29908377       3.45646040        2       0.00035818       0.00006311      -0.00003295
In      18.36404731      -0.04081462       0.00240840        3       0.00036146       0.00023365       0.00034277
I        6.95850445       3.20253300       5.24837900        4       0.00063919       0.00015866      -0.00036005
I       11.38695644       7.39563666       1.66450085        5       0.00029655       0.00025692      -0.00047102
I        9.87522414       2.28685135       1.74216934        6      -0.00028043      -0.00004051      -0.00023942
I        8.47083630       8.31151564       5.17049848        7      -0.00029584      -0.00060225      -0.00035423
I        6.24688077       6.19302314       1.67600128        8       0.00015690      -0.00005875       0.00067396
I       12.09895552       4.40532735       5.23563024        9       0.00043332      -0.00035570       0.00060731
Cs      13.78171276       2.61634521       1.91882545       10      -0.00017642      -0.00040252      -0.00001470
Cs      22.92891499       7.94224582       4.99711628       11      -0.00007585      -0.00039920      -0.00029236
K       18.35425379       5.27873139       3.45772273       12       0.00089163      -0.00011783      -0.00016672
In       9.18194391      -0.02036385       0.00128479       13       0.00000954      -0.00019348      -0.00050215
I       16.14087292       3.18217716       5.24947755       14      -0.00038899      -0.00009682       0.00029827
I       20.56931251       7.37530937       1.66563224       15      -0.00053364       0.00006771       0.00016899
I       19.05737139       2.26637183       1.74332556       16      -0.00019970       0.00035380       0.00006826
I       17.65295403       8.29081598       5.17159840       17       0.00001447       0.00076929       0.00056892
I       15.42916922       6.17253398       1.67737058       18      -0.00041234       0.00040732       0.00012326
I       21.28130999       4.38469829       5.23697057       19      -0.00040796       0.00059626      -0.00011077
