40
Lattice="16.737196271945454 0.0 0.0 -8.368598135972723 14.494837159630963 0.0 0.0 0.0 7.945912994650824" Properties=species:S:1:pos:R:3 pbc="T T T"
Cs       5.85162585       2.42362163       7.93838849
Cs       1.66732678       4.83942782       0.00741169
K        1.66733190       0.00780817       3.97295906
In       1.66734424       0.00781326       0.00003168
I        7.84147221       0.01282927       1.58944972
I       -0.32252970       7.25017329       6.35648719
I        2.76893239       1.90575759       1.58946104
I        4.75005898       5.35731862       6.35649851
I        6.94448706       5.35227540       1.58944516
I        0.57446517       1.91078893       6.35648264
Cs       1.66732678       9.67104021       7.93838849
Cs      -2.51697229      12.08684640       0.00741169
K       -2.51696717       7.25522675       3.97295906
In      -2.51695483       7.25523184       0.00003168
I        3.65717314       7.26024785       1.58944972
I       -4.50682877      14.49759187       6.35648719
I       -1.41536668       9.15317617       1.58946104
I        0.56575992      12.60473720       6.35649851
I        2.76018800      12.59969398       1.58944516
I       -3.60983390       9.15820751       6.35648264
Cs      14.22022399       2.42362163       7.93838849
Cs      10.03592492       4.83942782       0.00741169
K       10.03593004       0.00780817       3.97295906
In      10.03594238       0.00781326       0.00003168
I       16.21007034       0.01282927       1.58944972
I        8.04606844       7.25017329       6.35648719
I       11.13753053       1.90575759       1.58946104
I       13.11865712       5.35731862       6.35649851
I       15.31308520       5.35227540       1.58944516
I        8.94306331       1.91078893       6.35648264
Cs      10.03592492       9.67104021       7.93838849
Cs       5.85162585      12.08684640       0.00741169
K        5.85163097       7.25522675       3.97295906
In       5.85164331       7.25523184       0.00003168
I       12.02577128       7.26024785       1.58944972
I        3.86176937      14.49759187       6.35648719
I        6.95323146       9.15317617       1.58946104
I        8.93435805      12.60473720       6.35649851
I       11.12878613      12.59969398       1.58944516
I        4.75876424       9.15820751       6.35648264
