40
Lattice="18.597596003711363 -1.7218548513297087e-07 1.1560705904385611e-07 -9.29879815097326 16.105990816493907 -2.632982777512204e-07 5.493304160399649e-08 -1.1288642107531716e-07 8.828497274965041" Properties=species:S:1:pos:R:3:spacegroup_kinds:I:1:forces:R:3 spacegroup="P 1" unit_cell=conventional occupancy="_JSON {\"0\": {\"Cs\": 1.0}, \"1\": {\"Cs\": 1.0}, \"2\": {\"K\": 1.0}, \"3\": {\"In\": 1.0}, \"4\": {\"I\": 1.0}, \"5\": {\"I\": 1.0}, \"6\": {\"I\": 1.0}, \"7\": {\"I\": 1.0}, \"8\": {\"I\": 1.0}, \"9\": {\"I\": 1.0}, \"10\": {\"Cs\": 1.0}, \"11\": {\"Cs\": 1.0}, \"12\": {\"K\": 1.0}, \"13\": {\"In\": 1.0}, \"14\": {\"I\": 1.0}, \"15\": {\"I\": 1.0}, \"16\": {\"I\": 1.0}, \"17\": {\"I\": 1.0}, \"18\": {\"I\": 1.0}, \"19\": {\"I\": 1.0}, \"20\": {\"Cs\": 1.0}, \"21\": {\"Cs\": 1.0}, \"22\": {\"K\": 1.0}, \"23\": {\"In\": 1.0}, \"24\": {\"I\": 1.0}, \"25\": {\"I\": 1.0}, \"26\": {\"I\": 1.0}, \"27\": {\"I\": 1.0}, \"28\": {\"I\": 1.0}, \"29\": {\"I\": 1.0}, \"30\": {\"Cs\": 1.0}, \"31\": {\"Cs\": 1.0}, \"32\": {\"K\": 1.0}, \"33\": {\"In\": 1.0}, \"34\": {\"I\": 1.0}, \"35\": {\"I\": 1.0}, \"36\": {\"I\": 1.0}, \"37\": {\"I\": 1.0}, \"38\": {\"I\": 1.0}, \"39\": {\"I\": 1.0}}" energy=-103.17526179038087 free_energy=-103.17526179038087 stress="3.653834650246984e-06 -2.1934399770775558e-08 1.4282511922915018e-08 -2.1934399770775558e-08 3.67771020031744e-06 -2.4894371398782672e-08 1.4282511922915018e-08 -2.4894371398782672e-08 1.104231603876733e-06" pbc="T T T"
Cs       6.50203861       2.69298660       8.79756351        0       0.00005362       0.00007350       0.00023253
Cs       1.85263947       5.37731833       0.03033049        1       0.00005258       0.00007316       0.00015721
K        1.85261955       0.00869585       4.41443411        2       0.00008390      -0.00002745      -0.00015572
In       1.85263490       0.00855851       0.00017760        3       0.00007158       0.00018729      -0.00026258
I        8.71324397       0.02849535       1.76644823        4       0.00007390      -0.00035537      -0.00024299
I       -0.35844525       8.04225844       7.06223580        5      -0.00046686      -0.00029454       0.00003762
I        3.08865131       2.11038904       1.76635614        6       0.00009998       0.00000278      -0.00002336
I        5.26581963       5.95982099       7.06214398        7       0.00042324       0.00044066       0.00025706
I        7.70434581       5.94023841       1.76638558        8      -0.00030805       0.00020508      -0.00014394
I        0.65066607       2.13004425       7.06216956        9      -0.00008389      -0.00030511       0.00014416
Cs       1.85263953      10.74598201       8.79756338       10       0.00005362       0.00007350       0.00023253
Cs      -2.79675960      13.43031374       0.03033036       11       0.00005258       0.00007316       0.00015721
K       -2.79677953       8.06169126       4.41443398       12       0.00008390      -0.00002745      -0.00015572
In      -2.79676418       8.06155392       0.00017747       13       0.00007158       0.00018729      -0.00026258
I        4.06384490       8.08149076       1.76644809       14       0.00007390      -0.00035537      -0.00024299
I        4.29095383      -0.01073697       7.06223593       15      -0.00046686      -0.00029454       0.00003762
I       -1.56074776      10.16338444       1.76635601       16       0.00009998       0.00000278      -0.00002336
I        0.61642056      14.01281640       7.06214385       17       0.00042324       0.00044066       0.00025706
I        3.05494673      13.99323382       1.76638545       18      -0.00030805       0.00020508      -0.00014394
I       -3.99873300      10.18303966       7.06216943       19      -0.00008389      -0.00030511       0.00014416
Cs      15.80083661       2.69298651       8.79756357       20       0.00005362       0.00007350       0.00023253
Cs      11.15143748       5.37731824       0.03033055       21       0.00005258       0.00007316       0.00015721
K       11.15141755       0.00869576       4.41443417       22       0.00008390      -0.00002745      -0.00015572
In      11.15143290       0.00855842       0.00017766       23       0.00007158       0.00018729      -0.00026258
I       18.01204197       0.02849527       1.76644828       24       0.00007390      -0.00035537      -0.00024299
I        8.94035276       8.04225835       7.06223586       25      -0.00046686      -0.00029454       0.00003762
I       12.38744931       2.11038895       1.76635620       26       0.00009998       0.00000278      -0.00002336
I       14.56461764       5.95982090       7.06214404       27       0.00042324       0.00044066       0.00025706
I       -1.59445219       5.94023850       1.76638552       28      -0.00030805       0.00020508      -0.00014394
I        9.94946407       2.13004416       7.06216962       29      -0.00008389      -0.00030511       0.00014416
Cs      11.15143753      10.74598192       8.79756344       30       0.00005362       0.00007350       0.00023253
Cs       6.50203840      13.43031365       0.03033042       31       0.00005258       0.00007316       0.00015721
K        6.50201847       8.06169117       4.41443404       32       0.00008390      -0.00002745      -0.00015572
In       6.50203382       8.06155383       0.00017753       33       0.00007158       0.00018729      -0.00026258
I       13.36264290       8.08149067       1.76644815       34       0.00007390      -0.00035537      -0.00024299
I       13.58975183      -0.01073706       7.06223599       35      -0.00046686      -0.00029454       0.00003762
I        7.73805024      10.16338436       1.76635607       36       0.00009998       0.00000278      -0.00002336
I        9.91521856      14.01281631       7.06214391       37       0.00042324       0.00044066       0.00025706
I       -6.24385127      13.99323391       1.76638539       38      -0.00030805       0.00020508      -0.00014394
I        5.30006500      10.18303957       7.06216949       39      -0.00008389      -0.00030511       0.00014416
