40
Lattice="12.774139476205281 8.345293399846967e-10 -8.379480716211246e-16 8.345293399639902e-10 12.774139476205859 8.82655375259916e-18 -8.375845705931168e-16 8.744163404949341e-18 12.774139467049897" Properties=species:S:1:pos:R:3:spacegroup_kinds:I:1:forces:R:3 spacegroup="P 1" unit_cell=conventional occupancy="_JSON {\"0\": {\"Cs\": 1.0}, \"1\": {\"Pb\": 1.0}, \"2\": {\"I\": 1.0}, \"3\": {\"I\": 1.0}, \"4\": {\"I\": 1.0}, \"5\": {\"Cs\": 1.0}, \"6\": {\"Pb\": 1.0}, \"7\": {\"I\": 1.0}, \"8\": {\"I\": 1.0}, \"9\": {\"I\": 1.0}, \"10\": {\"Cs\": 1.0}, \"11\": {\"Pb\": 1.0}, \"12\": {\"I\": 1.0}, \"13\": {\"I\": 1.0}, \"14\": {\"I\": 1.0}, \"15\": {\"Cs\": 1.0}, \"16\": {\"Pb\": 1.0}, \"17\": {\"I\": 1.0}, \"18\": {\"I\": 1.0}, \"19\": {\"I\": 1.0}, \"20\": {\"Cs\": 1.0}, \"21\": {\"Pb\": 1.0}, \"22\": {\"I\": 1.0}, \"23\": {\"I\": 1.0}, \"24\": {\"I\": 1.0}, \"25\": {\"Cs\": 1.0}, \"26\": {\"Pb\": 1.0}, \"27\": {\"I\": 1.0}, \"28\": {\"I\": 1.0}, \"29\": {\"I\": 1.0}, \"30\": {\"Cs\": 1.0}, \"31\": {\"Pb\": 1.0}, \"32\": {\"I\": 1.0}, \"33\": {\"I\": 1.0}, \"34\": {\"I\": 1.0}, \"35\": {\"Cs\": 1.0}, \"36\": {\"Pb\": 1.0}, \"37\": {\"I\": 1.0}, \"38\": {\"I\": 1.0}, \"39\": {\"I\": 1.0}}" energy=-111.84593944132625 free_energy=-111.84593944132625 stress="2.625738380935107e-07 -2.2323582728268977e-10 -5.049907717472292e-18 -2.2323582728268977e-10 2.6257380521187776e-07 -6.8343758789415295e-19 -5.049907717472292e-18 -6.8343758789415295e-19 2.6350065675335745e-07" pbc="T T T"
Cs       3.19401249       3.19305724       3.19353487        0       0.00003870      -0.00003870      -0.00000000
Pb       0.00000440      -0.00000440       0.00000000        1       0.00010047      -0.00010047      -0.00000000
I       -0.00012309       0.00012309       3.19353487        2       0.00001052      -0.00001052       0.00000000
I        3.19361815       0.00012309       0.00000000        3      -0.00016021      -0.00001052      -0.00000000
I       -0.00012309       3.19345159       0.00000000        4       0.00001052       0.00016021      -0.00000000
Cs       3.19401249       3.19305724       9.58060460        5       0.00003870      -0.00003870      -0.00000000
Pb       0.00000440      -0.00000440       6.38706973        6       0.00010047      -0.00010047      -0.00000000
I       -0.00012309       0.00012309       9.58060460        7       0.00001052      -0.00001052       0.00000000
I        3.19361815       0.00012309       6.38706973        8      -0.00016021      -0.00001052      -0.00000000
I       -0.00012309       3.19345159       6.38706973        9       0.00001052       0.00016021      -0.00000000
Cs       3.19401249       9.58012698       3.19353487       10       0.00003870      -0.00003870      -0.00000000
Pb       0.00000440       6.38706534       0.00000000       11       0.00010047      -0.00010047      -0.00000000
I       -0.00012309       6.38719283       3.19353487       12       0.00001052      -0.00001052       0.00000000
I        3.19361815       6.38719283       0.00000000       13      -0.00016021      -0.00001052      -0.00000000
I       -0.00012309       9.58052132       0.00000000       14       0.00001052       0.00016021      -0.00000000
Cs       3.19401249       9.58012698       9.58060460       15       0.00003870      -0.00003870      -0.00000000
Pb       0.00000440       6.38706534       6.38706973       16       0.00010047      -0.00010047      -0.00000000
I       -0.00012309       6.38719283       9.58060460       17       0.00001052      -0.00001052       0.00000000
I        3.19361815       6.38719283       6.38706973       18      -0.00016021      -0.00001052      -0.00000000
I       -0.00012309       9.58052132       6.38706973       19       0.00001052       0.00016021      -0.00000000
Cs       9.58108223       3.19305724       3.19353487       20       0.00003870      -0.00003870      -0.00000000
Pb       6.38707414      -0.00000440       0.00000000       21       0.00010047      -0.00010047      -0.00000000
I        6.38694665       0.00012309       3.19353487       22       0.00001052      -0.00001052       0.00000000
I        9.58068789       0.00012309       0.00000000       23      -0.00016021      -0.00001052      -0.00000000
I        6.38694665       3.19345159       0.00000000       24       0.00001052       0.00016021      -0.00000000
Cs       9.58108223       3.19305724       9.58060460       25       0.00003870      -0.00003870      -0.00000000
Pb       6.38707414      -0.00000440       6.38706973       26       0.00010047      -0.00010047      -0.00000000
I        6.38694665       0.00012309       9.58060460       27       0.00001052      -0.00001052       0.00000000
I        9.58068789       0.00012309       6.38706973       28      -0.00016021      -0.00001052      -0.00000000
I        6.38694665       3.19345159       6.38706973       29       0.00001052       0.00016021      -0.00000000
Cs       9.58108223       9.58012698       3.19353487       30       0.00003870      -0.00003870      -0.00000000
Pb       6.38707414       6.38706534       0.00000000       31       0.00010047      -0.00010047      -0.00000000
I        6.38694665       6.38719283       3.19353487       32       0.00001052      -0.00001052       0.00000000
I        9.58068789       6.38719283       0.00000000       33      -0.00016021      -0.00001052      -0.00000000
I        6.38694665       9.58052132       0.00000000       34       0.00001052       0.00016021      -0.00000000
Cs       9.58108223       9.58012698       9.58060460       35       0.00003870      -0.00003870      -0.00000000
Pb       6.38707414       6.38706534       6.38706973       36       0.00010047      -0.00010047      -0.00000000
I        6.38694665       6.38719283       9.58060460       37       0.00001052      -0.00001052       0.00000000
I        9.58068789       6.38719283       6.38706973       38      -0.00016021      -0.00001052      -0.00000000
I        6.38694665       9.58052132       6.38706973       39       0.00001052       0.00016021      -0.00000000
