40
Lattice="19.28089336621519 0.0 0.0 -5.572494546950649 16.991567549331346 0.0 0.0 0.0 7.671191618516066" Properties=species:S:1:pos:R:3 pbc="T T T"
Cs       3.45527724       6.97096228      -0.00005338
Cs       7.59750856       4.13903435      -0.00005338
K        2.09930448       1.30709530       3.83561407
In       2.09931722       1.30711552       0.00004911
I        3.89649262       3.53470846       1.53479239
I        7.15634502       7.57529723       6.13648081
I        4.62701974       1.30708140       6.13647551
I        9.21200938       1.30708140       1.53478708
I       -2.05569226       6.26818627       1.53475160
I       -0.73055502       2.22759750       6.13644002
Cs       0.66902997      15.46674605      -0.00005338
Cs       4.81126129      12.63481813      -0.00005338
K       -0.68694279       9.80287907       3.83561407
In      -0.68693005       9.80289930       0.00004911
I        1.11024535      12.03049223       1.53479239
I        4.37009775      16.07108100       6.13648081
I        1.84077247       9.80286517       6.13647551
I        6.42576211       9.80286517       1.53478708
I       -4.84193953      14.76397005       1.53475160
I       -3.51680229      10.72338128       6.13644002
Cs      13.09572393       6.97096228      -0.00005338
Cs      17.23795525       4.13903435      -0.00005338
K       11.73975116       1.30709530       3.83561407
In      11.73976391       1.30711552       0.00004911
I       13.53693930       3.53470846       1.53479239
I       16.79679171       7.57529723       6.13648081
I       14.26746642       1.30708140       6.13647551
I       18.85245607       1.30708140       1.53478708
I        7.58475443       6.26818627       1.53475160
I        8.90989167       2.22759750       6.13644002
Cs      10.30947665      15.46674605      -0.00005338
Cs      14.45170797      12.63481813      -0.00005338
K        8.95350389       9.80287907       3.83561407
In       8.95351663       9.80289930       0.00004911
I       10.75069203      12.03049223       1.53479239
I       14.01054443      16.07108100       6.13648081
I       11.48121915       9.80286517       6.13647551
I       16.06620879       9.80286517       1.53478708
I        4.79850715      14.76397005       1.53475160
I        6.12364439      10.72338128       6.13644002
