20
Lattice="17.41623044961766 -0.5117168935970628 -0.40016523439358087 4.134383693300477 7.75186657675404 -0.21251754797552208 4.134793494870572 2.3891208919623748 7.309232016969177" Properties=species:S:1:pos:R:3:spacegroup_kinds:I:1:forces:R:3 spacegroup="P 1" unit_cell=conventional occupancy="_JSON {\"0\": {\"Cs\": 1.0}, \"1\": {\"Cs\": 1.0}, \"2\": {\"K\": 1.0}, \"3\": {\"In\": 1.0}, \"4\": {\"I\": 1.0}, \"5\": {\"I\": 1.0}, \"6\": {\"I\": 1.0}, \"7\": {\"I\": 1.0}, \"8\": {\"I\": 1.0}, \"9\": {\"I\": 1.0}, \"10\": {\"Cs\": 1.0}, \"11\": {\"Cs\": 1.0}, \"12\": {\"K\": 1.0}, \"13\": {\"In\": 1.0}, \"14\": {\"I\": 1.0}, \"15\": {\"I\": 1.0}, \"16\": {\"I\": 1.0}, \"17\": {\"I\": 1.0}, \"18\": {\"I\": 1.0}, \"19\": {\"I\": 1.0}}" energy=-51.29789332290995 free_energy=-51.29789332290995 stress="1.2308329071458107e-07 6.022082612726249e-07 -2.4084018495933666e-08 6.022082612726249e-07 -4.4476573438860036e-07 -4.842646194016067e-07 -2.4084018495933666e-08 -4.842646194016067e-07 -5.511990867715596e-07" pbc="T T T"
Cs       4.08577104       2.37606816       1.67744054        0       0.00004530      -0.00000094      -0.00001338
Cs      12.89132048       7.50920465       5.21944476        1       0.00004989      -0.00002710      -0.00020809
K        8.48887082       4.94240080       3.44812960        2      -0.00022377       0.00013739       0.00014940
In      17.41631945      -0.51168597      -0.40033544        3      -0.00029890      -0.00007729       0.00030436
I        8.73302866       1.71027748       2.03439716        4       0.00008588       0.00009847       0.00000304
I        8.24421208       8.17476036       4.86213429        5       0.00000076      -0.00007299       0.00002086
I       11.14624736       5.67634129       1.22819027        6      -0.00011384      -0.00022701      -0.00005891
I        5.83115420       4.20916787       5.66871491        7       0.00016948      -0.00008003      -0.00026437
I        6.56720481       6.44342646       0.88585647        8       0.00019011       0.00017826       0.00020117
I       10.40989025       3.44143364       6.01071528        9       0.00012769      -0.00007952      -0.00009384
Cs      12.79388327       2.12021323       1.47736494       10       0.00007746      -0.00002985      -0.00003840
Cs      21.59943483       7.25334786       5.01935947       11       0.00003778      -0.00002037      -0.00020392
K       17.19697282       4.68655678       3.24804983       12      -0.00015767       0.00007278       0.00013431
In       8.70816566      -0.25586116      -0.20020821       13       0.00006016       0.00007158      -0.00007514
I       17.44115337       1.45441698       1.83429817       14       0.00006519       0.00010262       0.00005299
I       16.95232612       7.91884767       4.66200929       15       0.00000843       0.00019294       0.00024739
I       19.85435258       5.42046317       1.02811652       16      -0.00001682      -0.00012473      -0.00013638
I       14.53931575       3.95337162       5.46857951       17      -0.00012227      -0.00038737       0.00001160
I       15.27534800       6.18754412       0.68580820       18       0.00001342       0.00029857       0.00005746
I       19.11803827       3.18555686       5.81062514       19       0.00000172      -0.00002542      -0.00009014
