10
Lattice="12.337797115091055 -3.3095307129734897 -0.09584881363290619 1.6560637634030817 6.161605904496092 0.29271015223864744 -0.026677568209855798 -0.2925812249357247 6.380439665031225" Properties=species:S:1:pos:R:3:spacegroup_kinds:I:1:forces:R:3 spacegroup="P 1" unit_cell=conventional occupancy="_JSON {\"0\": {\"Cs\": 1.0}, \"1\": {\"Pb\": 1.0}, \"2\": {\"I\": 1.0}, \"3\": {\"I\": 1.0}, \"4\": {\"I\": 1.0}, \"5\": {\"Cs\": 1.0}, \"6\": {\"Pb\": 1.0}, \"7\": {\"I\": 1.0}, \"8\": {\"I\": 1.0}, \"9\": {\"I\": 1.0}}" energy=-27.96148209032607 free_energy=-27.96148209032607 stress="4.897328648455439e-06 1.1226919217000485e-06 9.95307964126071e-06 1.1226919217000485e-06 -3.0144350490211084e-06 8.31675035904813e-06 9.95307964126071e-06 8.31675035904813e-06 5.498493101791278e-06" pbc="T T T"
Cs       3.89941845       2.10715146       3.31154010        0       0.00003727      -0.00000875      -0.00003103
Pb       0.00005098      -0.00015546       0.00004253        1       0.00011370       0.00004053       0.00047095
I       -0.01363579      -0.14613061       3.19090211        2       0.00005665       0.00002209      -0.00088338
I        3.08456030      -0.82761247      -0.02372916        3      -0.00020902       0.00006021       0.00022107
I        0.82809860       3.08075632       0.14645923        4       0.00000140      -0.00011408       0.00022239
Cs      10.06831701       0.45238611       3.26361569        5       0.00003727      -0.00000875      -0.00003103
Pb       6.16894954      -1.65492082      -0.04788187        6       0.00011370       0.00004053       0.00047095
I        6.15526277      -1.80089597       3.14297771        7       0.00005665       0.00002209      -0.00088338
I        9.25345886      -2.48237783      -0.07165357        8      -0.00020902       0.00006021       0.00022107
I        6.99699716       1.42599097       0.09853482        9       0.00000140      -0.00011408       0.00022239
