80
Lattice="21.443893339736807 -0.2898482263883401 3.9410657267755917 -8.455386005672295 14.574581492506447 -1.2643449242559008 -2.2416649065683187 -0.2374069793814604 12.163889774882165" Properties=species:S:1:pos:R:3:spacegroup_kinds:I:1:forces:R:3 spacegroup="P 1" unit_cell=conventional occupancy="_JSON {\"0\": {\"Cs\": 1.0}, \"1\": {\"Cs\": 1.0}, \"2\": {\"Cs\": 1.0}, \"3\": {\"Cs\": 1.0}, \"4\": {\"Pb\": 1.0}, \"5\": {\"Pb\": 1.0}, \"6\": {\"Pb\": 1.0}, \"7\": {\"Pb\": 1.0}, \"8\": {\"I\": 1.0}, \"9\": {\"I\": 1.0}, \"10\": {\"I\": 1.0}, \"11\": {\"I\": 1.0}, \"12\": {\"I\": 1.0}, \"13\": {\"I\": 1.0}, \"14\": {\"I\": 1.0}, \"15\": {\"I\": 1.0}, \"16\": {\"I\": 1.0}, \"17\": {\"I\": 1.0}, \"18\": {\"I\": 1.0}, \"19\": {\"I\": 1.0}, \"20\": {\"Cs\": 1.0}, \"21\": {\"Cs\": 1.0}, \"22\": {\"Cs\": 1.0}, \"23\": {\"Cs\": 1.0}, \"24\": {\"Pb\": 1.0}, \"25\": {\"Pb\": 1.0}, \"26\": {\"Pb\": 1.0}, \"27\": {\"Pb\": 1.0}, \"28\": {\"I\": 1.0}, \"29\": {\"I\": 1.0}, \"30\": {\"I\": 1.0}, \"31\": {\"I\": 1.0}, \"32\": {\"I\": 1.0}, \"33\": {\"I\": 1.0}, \"34\": {\"I\": 1.0}, \"35\": {\"I\": 1.0}, \"36\": {\"I\": 1.0}, \"37\": {\"I\": 1.0}, \"38\": {\"I\": 1.0}, \"39\": {\"I\": 1.0}, \"40\": {\"Cs\": 1.0}, \"41\": {\"Cs\": 1.0}, \"42\": {\"Cs\": 1.0}, \"43\": {\"Cs\": 1.0}, \"44\": {\"Pb\": 1.0}, \"45\": {\"Pb\": 1.0}, \"46\": {\"Pb\": 1.0}, \"47\": {\"Pb\": 1.0}, \"48\": {\"I\": 1.0}, \"49\": {\"I\": 1.0}, \"50\": {\"I\": 1.0}, \"51\": {\"I\": 1.0}, \"52\": {\"I\": 1.0}, \"53\": {\"I\": 1.0}, \"54\": {\"I\": 1.0}, \"55\": {\"I\": 1.0}, \"56\": {\"I\": 1.0}, \"57\": {\"I\": 1.0}, \"58\": {\"I\": 1.0}, \"59\": {\"I\": 1.0}, \"60\": {\"Cs\": 1.0}, \"61\": {\"Cs\": 1.0}, \"62\": {\"Cs\": 1.0}, \"63\": {\"Cs\": 1.0}, \"64\": {\"Pb\": 1.0}, \"65\": {\"Pb\": 1.0}, \"66\": {\"Pb\": 1.0}, \"67\": {\"Pb\": 1.0}, \"68\": {\"I\": 1.0}, \"69\": {\"I\": 1.0}, \"70\": {\"I\": 1.0}, \"71\": {\"I\": 1.0}, \"72\": {\"I\": 1.0}, \"73\": {\"I\": 1.0}, \"74\": {\"I\": 1.0}, \"75\": {\"I\": 1.0}, \"76\": {\"I\": 1.0}, \"77\": {\"I\": 1.0}, \"78\": {\"I\": 1.0}, \"79\": {\"I\": 1.0}}" energy=-226.47985080368608 free_energy=-226.47985080368608 stress="4.019813409683746e-06 7.253611308334714e-06 -5.799489034303089e-06 7.253611308334714e-06 5.3155174440908285e-06 1.8055092166752318e-05 -5.799489034303089e-06 1.8055092166752318e-05 -8.80175821985434e-06" pbc="T T T"
Cs       1.81094228       8.36047035       3.64673756        0       0.00019300      -0.00014216      -0.00007049
Cs      -1.43555519       4.78910925       2.97721918        1      -0.00021337      -0.00002959       0.00003170
Cs       3.25739419      -0.79617584      10.01933706        2       0.00012962      -0.00001542      -0.00002015
Cs       6.50441664       2.77525170      10.68815421        3       0.00012508      -0.00014434       0.00011413
Pb      -1.83360072       0.09203799      12.24560681        4       0.00017646      -0.00006652      -0.00006870
Pb       1.41352514       3.66325377      12.91491709        5       0.00006636      -0.00007051       0.00023127
Pb      -0.71280886       0.21095934       6.16339663        6       0.00010716       0.00031438       0.00025913
Pb       2.53452754       3.78212913       6.83297676        7      -0.00053337      -0.00005623      -0.00026226
I        0.56701399       3.59552226      -0.37776286        8       0.00006628       0.00001188       0.00010413
I        3.49649540       0.63455386       1.21061064        9      -0.00029413       0.00026836      -0.00036137
I        9.86586034       0.78680960       4.97650844       10       0.00026651      -0.00010475      -0.00036308
I        4.50194768       3.96814696      14.04329421       11      -0.00021545       0.00042339      -0.00010417
I        1.57256003       6.92943687      12.45569336       12      -0.00010173       0.00000488      -0.00018139
I        2.39122397       4.50280871       3.67540318       13       0.00036013       0.00003400      -0.00033918
I       -0.75106065       3.45580767       6.77488659       14       0.00000184       0.00009453       0.00030287
I        2.57270704       0.53733335       6.22122003       15       0.00002360      -0.00014056       0.00004017
I       -4.79726752       6.77773688       8.68905775       16      -0.00018086      -0.00006171      -0.00001036
I        5.81983580       4.10851694       6.88998455       17       0.00019286       0.00004686       0.00030804
I        2.49603947       7.02698800       7.44446916       18       0.00009125       0.00010465       0.00010993
I        2.67725042       3.06131024       9.99056441       19      -0.00003162      -0.00002384       0.00013696
Cs      -2.41673792      15.64778755       3.01458476       20       0.00018646      -0.00019213      -0.00015314
Cs      -5.66326345      12.07637931       2.34504041       21      -0.00017842       0.00005006      -0.00003268
Cs      -0.97029236       6.49112828       9.38718352       22       0.00012023      -0.00005936      -0.00012232
Cs       2.27673622      10.06250612      10.05600682       23       0.00010662      -0.00002787      -0.00003222
Pb      -6.06124057       7.37928879      11.61344052       24      -0.00005749       0.00018240      -0.00014138
Pb      -2.81403967      10.95046844      12.28282796       25      -0.00041230       0.00030923      -0.00020832
Pb      16.50338174       7.20853869       9.47234134       26       0.00030437      -0.00035312       0.00002632
Pb      -1.69335555      11.06938658       6.20072686       27       0.00031906       0.00004634      -0.00006830
I       -3.66071675      10.88281084      -1.00995047       28       0.00018358      -0.00007097       0.00013984
I       -0.73129965       7.92198315       0.57837436       29       0.00004894      -0.00015708      -0.00012868
I        5.63813151       8.07409818       4.34422842       30       0.00025512      -0.00015527       0.00009787
I        0.27416223      11.25555306      13.41106724       31       0.00012045       0.00002046       0.00010266
I       -2.65513066      14.21665672      11.82352842       32      -0.00000560       0.00007240      -0.00014664
I       -1.83646891      11.79010616       3.04320802       33       0.00031191       0.00001563      -0.00015057
I       -4.97871104      10.74308560       6.14273345       34      -0.00023547       0.00019592       0.00027727
I       -1.65491932       7.82455223       5.58905414       35      -0.00021575       0.00006235       0.00006620
I       -0.56956859      -0.50955731       9.32122084       36      -0.00020076      -0.00008984       0.00013702
I        1.59226721      11.39580792       6.25786240       37      -0.00029184       0.00002456       0.00023951
I       -1.73166140      14.31434976       6.81230310       38      -0.00004573      -0.00009528       0.00004772
I       -1.55043729      10.34861167       9.35841125       39      -0.00003420      -0.00002537      -0.00000197
Cs      12.53287249       8.21556140       5.61728217       40       0.00029321      -0.00014863      -0.00016080
Cs       9.28637125       4.64418384       4.94774969       41      -0.00016906      -0.00004853      -0.00004347
Cs      13.97936473      -0.94109340      11.98989847       42       0.00010636       0.00000186      -0.00013082
Cs      -4.21752896       2.92015134       8.71763416       43       0.00016148      -0.00005275       0.00000678
Pb       8.88840611      -0.05295984      14.21622066       44      -0.00006847       0.00027299      -0.00041504
Pb      12.13550475       3.51828998      14.88548709       45      -0.00005599       0.00019600      -0.00004103
Pb      10.00916727       0.06615043       8.13392309       46       0.00008390      -0.00029629       0.00027079
Pb      13.25636790       3.63720779       8.80345636       47       0.00007077      -0.00017045      -0.00011388
I       11.28895660       3.45060810       1.59276625       48       0.00007428      -0.00007271       0.00013538
I       14.21838019       0.48975472       3.18110208       49      -0.00009013      -0.00014226      -0.00019863
I       20.58779711       0.64188805       6.94697403       50       0.00022104      -0.00014654      -0.00013520
I       15.22384041       3.82330433      16.01379564       51      -0.00005046       0.00011301       0.00001363
I       12.29455062       6.78443267      14.42626165       52      -0.00021047       0.00012020      -0.00027060
I       13.11319871       4.35787814       5.64594456       53       0.00025969       0.00006699      -0.00026504
I        9.97085209       3.31083906       8.74540587       54      -0.00006103       0.00034891       0.00031144
I       13.29469640       0.39240350       8.19176635       55      -0.00008937      -0.00007516       0.00003341
I        5.92471535       6.63278714      10.65962956       56      -0.00020909      -0.00001793      -0.00010142
I       16.54190448       3.96355660       8.86055438       57      -0.00028608       0.00017998       0.00029921
I       13.21803801       6.88204515       9.41501380       58      -0.00018817       0.00019201       0.00010374
I       13.39919954       2.91638906      11.96109754       59      -0.00006406      -0.00001227       0.00007730
Cs       8.30517153      15.50282985       4.98509250       60       0.00026614      -0.00009658      -0.00007276
Cs       5.05868951      11.93145571       4.31556670       61      -0.00023465       0.00004044       0.00005250
Cs       9.75163734       6.34620908      11.35769286       62       0.00017224      -0.00007047       0.00000045
Cs      -8.44520694      10.20744892       8.08545616       63       0.00010958      -0.00006008       0.00012037
Pb       4.66065742       7.23443994      13.58399771       64       0.00011260      -0.00021201      -0.00014279
Pb       7.90778887      10.80556482      14.25333681       65       0.00014205       0.00021034      -0.00002706
Pb       5.78155558       7.35335391       7.50176921       66      -0.00035386       0.00011557       0.00026542
Pb       9.02870843      10.92435912       8.17123265       67      -0.00025812       0.00048664       0.00010411
I        7.06127062      10.73792026       0.96059458       68       0.00002745      -0.00005475       0.00011613
I        9.99070121       7.77696299       2.54893022       69      -0.00015121       0.00011151      -0.00022527
I       16.36006879       7.92918911       6.31476261       70       0.00022962      -0.00016844       0.00011506
I       10.99620144      11.11057004      15.38165322       71      -0.00025363       0.00022413      -0.00008277
I        8.06677652      14.07182196      13.79402721       72      -0.00004390      -0.00012524      -0.00011356
I        8.88548846      11.64517530       5.01373575       73       0.00029497       0.00000415      -0.00015731
I        5.74316463      10.59820340       8.11325061       74       0.00004073      -0.00000621       0.00025056
I        9.06691787       7.67977375       7.55958033       75       0.00016843      -0.00037188      -0.00000597
I       10.15234672      -0.65448077      11.29166400       76      -0.00021836      -0.00008596       0.00045979
I       12.31414645      11.25095286       8.22837592       77      -0.00005822      -0.00028013       0.00022376
I        8.99036826      14.16940338       8.78287054       78      -0.00018347      -0.00015040       0.00001863
I        9.17152581      10.20367688      11.32897181       79      -0.00004555      -0.00001943      -0.00008045
