40
Lattice="17.49354322045118 0.0 0.0 -0.07409604523581283 8.46612284034139 0.0 -3.2825351472853184 -1.0461679464253062 13.842285015453752" Properties=species:S:1:pos:R:3 pbc="T T T"
Cs       3.78897087       7.66580902       3.46057126
Cs      -0.06923811       3.43292289       3.46057126
Cs       2.68838521      -0.00554742      10.38171376
Cs       6.54661224       4.22768929      10.38171376
Pb       0.54359425       0.12028384       0.00000103
Pb       4.33633778       4.23306142       0.00000000
Pb      -1.09767332      -0.40280014       6.92114148
Pb       3.23866989       3.83017103       6.92114639
I        2.04801002       5.99341834       0.57523672
I        3.07320510       1.76034285       0.57540226
I        7.72817555      -0.06137331       3.46057126
I        4.42934154       1.66702851      13.26686515
I        3.40414786       5.90007586      13.26703070
I        4.79943972       4.17150864       3.46057126
I        0.67960713       5.55729833       6.34590580
I        1.70480221       1.32422284       6.34574026
I       -1.25086652       7.72198984      10.38171376
I        5.79774443       2.10314851       7.49656237
I        4.77255076       6.33619586       7.49639683
I        1.67787397       3.48874895      10.38171376
Cs      12.53574248       7.66580902       3.46057126
Cs       8.67753350       3.43292289       3.46057126
Cs      11.43515682      -0.00554742      10.38171376
Cs      15.29338385       4.22768929      10.38171376
Pb       9.29036586       0.12028384       0.00000103
Pb      13.08310939       4.23306142       0.00000000
Pb       7.64909829      -0.40280014       6.92114148
Pb      11.98544150       3.83017103       6.92114639
I       10.79478163       5.99341834       0.57523672
I       11.81997671       1.76034285       0.57540226
I       16.47494716      -0.06137331       3.46057126
I       13.17611315       1.66702851      13.26686515
I       12.15091947       5.90007586      13.26703070
I       13.54621133       4.17150864       3.46057126
I        9.42637874       5.55729833       6.34590580
I       10.45157382       1.32422284       6.34574026
I        7.49590509       7.72198984      10.38171376
I       14.54451605       2.10314851       7.49656237
I       13.51932237       6.33619586       7.49639683
I       10.42464559       3.48874895      10.38171376
