40
Lattice="17.2004035677261 0.030199003824788722 2.0676895650031795 -0.06121627848424347 9.146769584698086 0.3634927934556174 -1.5049397332509142 -0.510832666016538 12.538956715025714" Properties=species:S:1:pos:R:3:spacegroup_kinds:I:1:forces:R:3 spacegroup="P 1" unit_cell=conventional occupancy="_JSON {\"0\": {\"Cs\": 1.0}, \"1\": {\"Cs\": 1.0}, \"2\": {\"Cs\": 1.0}, \"3\": {\"Cs\": 1.0}, \"4\": {\"Pb\": 1.0}, \"5\": {\"Pb\": 1.0}, \"6\": {\"Pb\": 1.0}, \"7\": {\"Pb\": 1.0}, \"8\": {\"I\": 1.0}, \"9\": {\"I\": 1.0}, \"10\": {\"I\": 1.0}, \"11\": {\"I\": 1.0}, \"12\": {\"I\": 1.0}, \"13\": {\"I\": 1.0}, \"14\": {\"I\": 1.0}, \"15\": {\"I\": 1.0}, \"16\": {\"I\": 1.0}, \"17\": {\"I\": 1.0}, \"18\": {\"I\": 1.0}, \"19\": {\"I\": 1.0}, \"20\": {\"Cs\": 1.0}, \"21\": {\"Cs\": 1.0}, \"22\": {\"Cs\": 1.0}, \"23\": {\"Cs\": 1.0}, \"24\": {\"Pb\": 1.0}, \"25\": {\"Pb\": 1.0}, \"26\": {\"Pb\": 1.0}, \"27\": {\"Pb\": 1.0}, \"28\": {\"I\": 1.0}, \"29\": {\"I\": 1.0}, \"30\": {\"I\": 1.0}, \"31\": {\"I\": 1.0}, \"32\": {\"I\": 1.0}, \"33\": {\"I\": 1.0}, \"34\": {\"I\": 1.0}, \"35\": {\"I\": 1.0}, \"36\": {\"I\": 1.0}, \"37\": {\"I\": 1.0}, \"38\": {\"I\": 1.0}, \"39\": {\"I\": 1.0}}" energy=-113.01605764897946 free_energy=-113.01605764897946 stress="-6.345816320646225e-07 -5.627778035776998e-06 2.387588601858748e-06 -5.627778035776998e-06 -4.081593151274685e-06 -7.438268826829679e-06 2.387588601858748e-06 -7.438268826829679e-06 -1.942269638003682e-06" pbc="T T T"
Cs       4.14003354       8.43902140       4.02410482        0       0.00004849      -0.00013649       0.00012288
Cs       0.34108196       3.85765772       3.38239770        1       0.00006554       0.00036768       0.00019406
Cs       3.90979820       0.46165537      10.04370916        2       0.00000399      -0.00013328       0.00003242
Cs       7.70821937       5.04045273      10.68546827        3       0.00041805       0.00047881       0.00034357
Pb       0.50782426       0.12410086       0.06603590        4      -0.00011094       0.00024105       0.00045415
Pb       4.77731360       4.70560890       0.76481821        5      -0.00001929      -0.00028707       0.00008094
Pb      -0.24456443      -0.13126788       6.33601190        6       0.00052000       0.00005268      -0.00067373
Pb       4.02502507       4.44999958       7.03423671        7      -0.00031027      -0.00014329      -0.00021439
I        2.06541061       6.49798830       1.04213632        8      -0.00004468      -0.00006437      -0.00000220
I        3.06999793       1.92626915       0.97773828        9      -0.00001174       0.00021234      -0.00017205
I        8.00292988       0.09516709       4.15077254       10       0.00004737       0.00017025      -0.00006401
I        5.98388695       2.40182251      13.02673551       11       0.00017341      -0.00028552       0.00002644
I        4.97974319       6.97398899      13.08998780       12      -0.00015200      -0.00026427       0.00021735
I        5.12954700       4.66557753       3.99073347       13      -0.00004194      -0.00013126      -0.00032656
I        1.43905239       6.28490710       6.26741742       14      -0.00022383       0.00016648       0.00006372
I        2.44314618       1.71346815       6.20211068       15      -0.00040870      -0.00013350       0.00030880
I        0.10846691      -0.34343194       9.55460947       16       0.00006999      -0.00010586      -0.00014831
I        6.61145187       2.61457065       7.80062970       17      -0.00006648      -0.00033478      -0.00012836
I        5.60727287       7.18617207       7.86654535       18       0.00004287       0.00027808      -0.00000592
I        2.92048526       4.23496956      10.07820520       19      -0.00000053       0.00005241      -0.00010906
Cs      12.74023536       8.45412091       5.05794962       20       0.00004832      -0.00013649       0.00012283
Cs       8.94128372       3.87275722       4.41624247       21       0.00006563       0.00036767       0.00019411
Cs      12.51000001       0.47675487      11.07755394       22       0.00000383      -0.00013327       0.00003242
Cs      -0.89198241       5.02535323       9.65162349       23       0.00041800       0.00047880       0.00034359
Pb       9.10802598       0.13920036       1.09988065       24      -0.00011059       0.00024103       0.00045425
Pb      13.37751547       4.72070841       1.79866302       25      -0.00001977      -0.00028713       0.00008088
Pb       8.35563732      -0.11616837       7.36985667       26       0.00052020       0.00005267      -0.00067371
Pb      12.62522699       4.46509911       8.06808156       27      -0.00031101      -0.00014341      -0.00021461
I       10.66561238       6.51308781       2.07598111       28      -0.00004462      -0.00006440      -0.00000221
I       11.67019970       1.94136865       2.01158307       29      -0.00001168       0.00021237      -0.00017206
I       16.60313163       0.11026659       5.18461730       30       0.00004749       0.00017025      -0.00006384
I       14.58408868       2.41692206      14.06058028       31       0.00017375      -0.00028579       0.00002647
I       13.57994491       6.98908843      14.12383255       32      -0.00015164      -0.00026399       0.00021741
I       13.72974876       4.68067704       5.02457823       33      -0.00004182      -0.00013127      -0.00032645
I       10.03925414       6.30000664       7.30126219       34      -0.00022362       0.00016630       0.00006377
I       11.04334792       1.72856761       7.23595544       35      -0.00040849      -0.00013330       0.00030887
I        8.70866869      -0.32833244      10.58845422       36       0.00007002      -0.00010587      -0.00014817
I       15.21165359       2.62967021       8.83447446       37      -0.00006610      -0.00033508      -0.00012831
I       14.20747458       7.20127151       8.90039010       38       0.00004325       0.00027841      -0.00000584
I       11.52068704       4.25006906      11.11204999       39      -0.00000047       0.00005240      -0.00010912
