160
Lattice="17.49354322045118 0.0 0.0 -2.806449186380695 16.698704969276573 0.0 0.867822375858435 -3.068246746525854 25.41592456134007" Properties=species:S:1:pos:R:3 pbc="T T T"
Cs       3.49240106       7.43613814       3.17699057
Cs       0.29875635       3.26163719       3.17699057
Cs       5.37227281      -0.38060232       9.53097171
Cs       8.56593557       3.79424921       9.53097171
Pb       0.54359425       0.12028384       0.00000103
Pb       3.67177351       4.17467624       0.00000000
Pb       0.21695559      -0.76706169       6.35398114
Pb       4.43232878       3.52780814       6.35398502
I        1.27359918       5.89153099       0.52809074
I        2.96335853       1.71684068       0.52825629
I        8.64475309      -0.18446334       3.17699057
I        7.59107017       1.16419007      12.17968839
I        5.90131222       5.33885224      12.17985393
I        5.05145299       3.99003343       3.17699057
I        1.45448539       5.25199515       5.82589040
I        3.14424474       1.07730484       5.82572486
I        0.21987373       7.24035409       9.53097171
I        7.41018396       1.80372591       6.88225504
I        5.72042601       5.97838808       6.88208950
I        3.81317850       3.06549838       9.53097171
Cs       3.92631224       5.90201477      15.88495285
Cs       0.73266754       1.72751381      15.88495285
Cs       5.80618400      -1.91472569      22.23893399
Cs       8.99984676       2.26012584      22.23893399
Pb       0.97750544      -1.41383954      12.70796331
Pb       4.10568470       2.64055287      12.70796228
Pb       0.65086678      -2.30118506      19.06194342
Pb       4.86623997       1.99368476      19.06194731
I        1.70751037       4.35740762      13.23605303
I        3.39726972       0.18271731      13.23621857
I        9.07866427      -1.71858672      15.88495285
I        8.02498136      -0.36993330      24.88765067
I        6.33522340       3.80472887      24.88781621
I        5.48536418       2.45591005      15.88495285
I        1.88839657       3.71787178      18.53385268
I        3.57815593      -0.45681853      18.53368714
I        0.65378492       5.70623072      22.23893399
I        7.84409515       0.26960253      19.59021732
I        6.15433720       4.44426471      19.59005178
I        4.24708969       1.53137501      22.23893399
Cs       2.08917646      15.78549062       3.17699057
Cs      -1.10446824      11.61098967       3.17699057
Cs       3.96904822       7.96875016       9.53097171
Cs       7.16271098      12.14360170       9.53097171
Pb      -0.85963034       8.46963632       0.00000103
Pb       2.26854892      12.52402873       0.00000000
Pb      -1.18626900       7.58229080       6.35398114
Pb       3.02910419      11.87716062       6.35398502
I       -0.12962541      14.24088348       0.52809074
I        1.56013394      10.06619316       0.52825629
I        7.24152849       8.16488914       3.17699057
I        6.18784558       9.51354255      12.17968839
I        4.49808762      13.68820473      12.17985393
I        3.64822839      12.33938591       3.17699057
I        0.05126079      13.60134764       5.82589040
I        1.74102015       9.42665733       5.82572486
I       -1.18335086      15.58970658       9.53097171
I        6.00695937      10.15307839       6.88225504
I        4.31720142      14.32774056       6.88208950
I        2.40995391      11.41485086       9.53097171
Cs       2.52308765      14.25136725      15.88495285
Cs      -0.67055705      10.07686630      15.88495285
Cs       4.40295940       6.43462679      22.23893399
Cs       7.59662217      10.60947832      22.23893399
Pb      -0.42571915       6.93551295      12.70796331
Pb       2.70246010      10.98990535      12.70796228
Pb      -0.75235781       6.04816742      19.06194342
Pb       3.46301538      10.34303725      19.06194731
I        0.30428578      12.70676010      13.23605303
I        1.99404513       8.53206979      13.23621857
I        7.67543968       6.63076577      15.88495285
I        6.62175676       7.97941918      24.88765067
I        4.93199881      12.15408135      24.88781621
I        4.08213958      10.80526254      15.88495285
I        0.48517198      12.06722427      18.53385268
I        2.17493133       7.89253395      18.53368714
I       -0.74943968      14.05558320      22.23893399
I        6.44087056       8.61895502      19.59021732
I        4.75111261      12.79361719      19.59005178
I        2.84386509       9.88072749      22.23893399
Cs      12.23917267       7.43613814       3.17699057
Cs       9.04552796       3.26163719       3.17699057
Cs      14.11904442      -0.38060232       9.53097171
Cs      17.31270718       3.79424921       9.53097171
Pb       9.29036586       0.12028384       0.00000103
Pb      12.41854512       4.17467624       0.00000000
Pb       8.96372720      -0.76706169       6.35398114
Pb      13.17910039       3.52780814       6.35398502
I       10.02037079       5.89153099       0.52809074
I       11.71013014       1.71684068       0.52825629
I       17.39152470      -0.18446334       3.17699057
I       16.33784178       1.16419007      12.17968839
I       14.64808383       5.33885224      12.17985393
I       13.79822460       3.99003343       3.17699057
I       10.20125700       5.25199515       5.82589040
I       11.89101635       1.07730484       5.82572486
I        8.96664534       7.24035409       9.53097171
I       16.15695557       1.80372591       6.88225504
I       14.46719762       5.97838808       6.88208950
I       12.55995011       3.06549838       9.53097171
Cs      12.67308385       5.90201477      15.88495285
Cs       9.47943915       1.72751381      15.88495285
Cs      14.55295561      -1.91472569      22.23893399
Cs      17.74661837       2.26012584      22.23893399
Pb       9.72427705      -1.41383954      12.70796331
Pb      12.85245631       2.64055287      12.70796228
Pb       9.39763839      -2.30118506      19.06194342
Pb      13.61301158       1.99368476      19.06194731
I       10.45428198       4.35740762      13.23605303
I       12.14404133       0.18271731      13.23621857
I       17.82543588      -1.71858672      15.88495285
I       16.77175297      -0.36993330      24.88765067
I       15.08199501       3.80472887      24.88781621
I       14.23213579       2.45591005      15.88495285
I       10.63516818       3.71787178      18.53385268
I       12.32492754      -0.45681853      18.53368714
I        9.40055653       5.70623072      22.23893399
I       16.59086676       0.26960253      19.59021732
I       14.90110881       4.44426471      19.59005178
I       12.99386130       1.53137501      22.23893399
Cs      10.83594807      15.78549062       3.17699057
Cs       7.64230337      11.61098967       3.17699057
Cs      12.71581983       7.96875016       9.53097171
Cs      15.90948259      12.14360170       9.53097171
Pb       7.88714127       8.46963632       0.00000103
Pb      11.01532053      12.52402873       0.00000000
Pb       7.56050261       7.58229080       6.35398114
Pb      11.77587580      11.87716062       6.35398502
I        8.61714620      14.24088348       0.52809074
I       10.30690555      10.06619316       0.52825629
I       15.98830010       8.16488914       3.17699057
I       14.93461719       9.51354255      12.17968839
I       13.24485923      13.68820473      12.17985393
I       12.39500000      12.33938591       3.17699057
I        8.79803240      13.60134764       5.82589040
I       10.48779176       9.42665733       5.82572486
I        7.56342075      15.58970658       9.53097171
I       14.75373098      10.15307839       6.88225504
I       13.06397303      14.32774056       6.88208950
I       11.15672552      11.41485086       9.53097171
Cs      11.26985926      14.25136725      15.88495285
Cs       8.07621456      10.07686630      15.88495285
Cs      13.14973101       6.43462679      22.23893399
Cs      16.34339378      10.60947832      22.23893399
Pb       8.32105246       6.93551295      12.70796331
Pb      11.44923171      10.98990535      12.70796228
Pb       7.99441380       6.04816742      19.06194342
Pb      12.20978699      10.34303725      19.06194731
I        9.05105739      12.70676010      13.23605303
I       10.74081674       8.53206979      13.23621857
I       16.42221129       6.63076577      15.88495285
I       15.36852837       7.97941918      24.88765067
I       13.67877042      12.15408135      24.88781621
I       12.82891119      10.80526254      15.88495285
I        9.23194359      12.06722427      18.53385268
I       10.92170294       7.89253395      18.53368714
I        7.99733193      14.05558320      22.23893399
I       15.18764217       8.61895502      19.59021732
I       13.49788422      12.79361719      19.59005178
I       11.59063670       9.88072749      22.23893399
