80
Lattice="18.474511765936295 -0.05536742129929251 -0.025784369302188026 9.203704966468685 15.891020123927415 0.035309631662385245 9.163549122012515 5.308871150871568 13.882512701997022" Properties=species:S:1:pos:R:3:spacegroup_kinds:I:1:forces:R:3 spacegroup="P 1" unit_cell=conventional occupancy="_JSON {\"0\": {\"Cs\": 1.0}, \"1\": {\"Cs\": 1.0}, \"2\": {\"K\": 1.0}, \"3\": {\"In\": 1.0}, \"4\": {\"I\": 1.0}, \"5\": {\"I\": 1.0}, \"6\": {\"I\": 1.0}, \"7\": {\"I\": 1.0}, \"8\": {\"I\": 1.0}, \"9\": {\"I\": 1.0}, \"10\": {\"Cs\": 1.0}, \"11\": {\"Cs\": 1.0}, \"12\": {\"K\": 1.0}, \"13\": {\"In\": 1.0}, \"14\": {\"I\": 1.0}, \"15\": {\"I\": 1.0}, \"16\": {\"I\": 1.0}, \"17\": {\"I\": 1.0}, \"18\": {\"I\": 1.0}, \"19\": {\"I\": 1.0}, \"20\": {\"Cs\": 1.0}, \"21\": {\"Cs\": 1.0}, \"22\": {\"K\": 1.0}, \"23\": {\"In\": 1.0}, \"24\": {\"I\": 1.0}, \"25\": {\"I\": 1.0}, \"26\": {\"I\": 1.0}, \"27\": {\"I\": 1.0}, \"28\": {\"I\": 1.0}, \"29\": {\"I\": 1.0}, \"30\": {\"Cs\": 1.0}, \"31\": {\"Cs\": 1.0}, \"32\": {\"K\": 1.0}, \"33\": {\"In\": 1.0}, \"34\": {\"I\": 1.0}, \"35\": {\"I\": 1.0}, \"36\": {\"I\": 1.0}, \"37\": {\"I\": 1.0}, \"38\": {\"I\": 1.0}, \"39\": {\"I\": 1.0}, \"40\": {\"Cs\": 1.0}, \"41\": {\"Cs\": 1.0}, \"42\": {\"K\": 1.0}, \"43\": {\"In\": 1.0}, \"44\": {\"I\": 1.0}, \"45\": {\"I\": 1.0}, \"46\": {\"I\": 1.0}, \"47\": {\"I\": 1.0}, \"48\": {\"I\": 1.0}, \"49\": {\"I\": 1.0}, \"50\": {\"Cs\": 1.0}, \"51\": {\"Cs\": 1.0}, \"52\": {\"K\": 1.0}, \"53\": {\"In\": 1.0}, \"54\": {\"I\": 1.0}, \"55\": {\"I\": 1.0}, \"56\": {\"I\": 1.0}, \"57\": {\"I\": 1.0}, \"58\": {\"I\": 1.0}, \"59\": {\"I\": 1.0}, \"60\": {\"Cs\": 1.0}, \"61\": {\"Cs\": 1.0}, \"62\": {\"K\": 1.0}, \"63\": {\"In\": 1.0}, \"64\": {\"I\": 1.0}, \"65\": {\"I\": 1.0}, \"66\": {\"I\": 1.0}, \"67\": {\"I\": 1.0}, \"68\": {\"I\": 1.0}, \"69\": {\"I\": 1.0}, \"70\": {\"Cs\": 1.0}, \"71\": {\"Cs\": 1.0}, \"72\": {\"K\": 1.0}, \"73\": {\"In\": 1.0}, \"74\": {\"I\": 1.0}, \"75\": {\"I\": 1.0}, \"76\": {\"I\": 1.0}, \"77\": {\"I\": 1.0}, \"78\": {\"I\": 1.0}, \"79\": {\"I\": 1.0}}" energy=-205.19156847504397 free_energy=-205.19156847504397 stress="-1.2157669164976015e-06 6.493606992419961e-08 8.836551517052944e-07 6.493606992419961e-08 2.7800291290508505e-06 3.3354841797242737e-06 8.836551517052944e-07 3.3354841797242737e-06 -1.871928236584841e-06" pbc="T T T"
Cs       4.58786788       2.63709759       1.92610864        0      -0.00008087      -0.00005665       0.00014777
Cs      13.83325261       7.93566053       5.01882863        1      -0.00032737      -0.00040029       0.00051002
K        9.21025803       5.28605071       3.47314786        2      -0.00001864      -0.00030851      -0.00010937
In      18.47437203      -0.05545812      -0.02562524        3      -0.00010645       0.00067309      -0.00021220
I        6.97364138       3.19362021       5.24757075        4      -0.00030517       0.00000731      -0.00014461
I       11.44749099       7.37794592       1.69906910        5       0.00015065       0.00010620      -0.00030958
I        9.92443687       2.32249236       1.67956843        6      -0.00018528       0.00028925      -0.00012577
I        8.49723093       8.24935797       5.26671641        7      -0.00003683      -0.00006800       0.00038545
I        6.25275992       6.18659595       1.75530821        8      -0.00011430       0.00029687      -0.00006804
I       12.16809104       4.38504522       5.19062034        9       0.00010876       0.00035384       0.00000475
Cs       9.17127773       5.29197026       8.86730727       10      -0.00035770      -0.00023151      -0.00011762
Cs      18.41420430      10.58991951      11.96046847       11      -0.00011836      -0.00014242       0.00030603
K       13.79169861       7.94040672      10.41437248       12       0.00067143       0.00029647       0.00008354
In      23.05621390       2.59891080       6.91561558       13      -0.00024727       0.00012670      -0.00016344
I       11.55548771       5.84864289      12.18915072       14       0.00004758       0.00002706       0.00028711
I       16.02847567      10.03262569       8.63964776       15       0.00025618       0.00017033      -0.00030011
I       14.50609963       4.97708396       8.62096962       16      -0.00024460      -0.00007218      -0.00032024
I       13.07771741      10.90388424      12.20823910       17       0.00029133       0.00019697      -0.00007666
I       10.83431700       8.84205079       8.69756496       18      -0.00034095       0.00021974      -0.00028274
I       16.75028797       7.03947532      12.13131944       19       0.00014027      -0.00018498       0.00016129
Cs       9.19129350      10.58293357       1.94362100       20      -0.00035552      -0.00038189      -0.00006002
Cs      18.43453012      15.88083592       5.03680836       21      -0.00000648      -0.00025203       0.00028338
K       13.81170225      13.23147624       3.49077734       22       0.00074889       0.00028653       0.00012466
In      23.07622450       7.89001303      -0.00793122       23       0.00050412       0.00016258      -0.00030808
I       11.57548986      11.13937349       5.26556383       24       0.00030171       0.00022269       0.00008279
I       16.04866884      15.32386733       1.71597791       25      -0.00004667       0.00000009       0.00000958
I       14.52642941      10.26814416       1.69739206       26      -0.00038683      -0.00036629      -0.00061483
I       13.09761531      16.19507293       5.28452131       27       0.00029883       0.00016122      -0.00009188
I       10.85433042      14.13303773       1.77371529       28      -0.00002864       0.00001279      -0.00003350
I       16.77047535      12.33037220       5.20759609       29       0.00006539      -0.00031102       0.00018855
Cs      13.77148388      13.23694216       8.88508119       30      -0.00016384      -0.00018755       0.00014493
Cs      23.01642521      18.53550955      11.97794505       31      -0.00006243      -0.00029739       0.00038843
K       18.39391795      15.88627054      10.43190449       32      -0.00008523      -0.00044458      -0.00010302
In      27.65794332      10.54450141       6.93331538       33       0.00036613       0.00040569      -0.00038674
I       16.15705673      13.79383910      12.20633357       34      -0.00025393       0.00001190      -0.00005195
I       20.63097719      17.97804779       8.65756725       35      -0.00010551      -0.00014072      -0.00005214
I       19.10777926      12.92258113       8.63834453       36      -0.00014223       0.00017930      -0.00011016
I       17.68087779      18.84952920      12.22551821       37      -0.00015074      -0.00027811       0.00011997
I       15.43600697      16.78640345       8.71428318       38       0.00006078       0.00013265       0.00008265
I       21.35150673      14.98505780      12.14972442       39       0.00011467       0.00013823       0.00027715
Cs      13.82592219       2.60973418       1.91310102       40      -0.00035248      -0.00012662      -0.00000817
Cs      23.07067710       7.90783544       5.00592004       41      -0.00014453      -0.00020989       0.00030525
K       18.44746663       5.25823473       3.46017503       42       0.00045244       0.00025529       0.00014929
In       9.23712567      -0.02764694      -0.01279817       43       0.00030144      -0.00057778      -0.00009128
I       16.21059288       3.16659135       5.23468026       44       0.00030775       0.00010715      -0.00010117
I       20.68463096       7.35048028       1.68597660       45      -0.00010913       0.00000764       0.00024800
I       19.16096416       2.29506717       1.66682981       46      -0.00009642      -0.00023809      -0.00051835
I       17.73397151       8.22147155       5.25421137       47       0.00040113       0.00012984      -0.00013220
I       15.49023573       6.15953532       1.74239251       48       0.00008996       0.00002836      -0.00004860
I       21.40559739       4.35786214       5.17806583       49       0.00006369      -0.00021638      -0.00008806
Cs      18.40747718       5.26412302       8.85417059       50      -0.00002645      -0.00021565       0.00017624
Cs      27.65109149      10.56224408      11.94741982       51      -0.00012704      -0.00007635       0.00047735
K       23.02974481       7.91299980      10.40141180       52      -0.00049426      -0.00045340      -0.00019608
In      13.81888503       2.62685945       6.92845309       53       0.00021411      -0.00053938      -0.00023109
I       20.79308423       5.82047625      12.17646757       54      -0.00021015       0.00010110      -0.00022311
I       25.26598113      10.00535249       8.62665006       55      -0.00026915      -0.00049754       0.00009086
I       23.74412881       4.94891241       8.60792486       56      -0.00007686       0.00032328       0.00018268
I       22.31557959      10.87645437      12.19494226       57       0.00001655      -0.00011761       0.00015149
I       20.07113835       8.81406189       8.68468429       58       0.00033140      -0.00004553       0.00008060
I       25.98732312       7.01148482      12.11844506       59       0.00022114       0.00021450       0.00016625
Cs      18.42775101      10.55492850       1.93054400       60       0.00004495      -0.00008021       0.00015313
Cs      27.67108210      15.85314755       5.02370900       61      -0.00021190      -0.00009862       0.00057823
K       23.04977388      13.20405885       3.47779203       62      -0.00052232      -0.00043403      -0.00013920
In      13.83898673       7.91778243       0.00488679       63       0.00017582       0.00060334      -0.00030171
I       20.81337618      11.11157878       5.25287686       64      -0.00070762      -0.00005061       0.00009126
I       25.28586174      15.29609980       1.70302104       65       0.00036930      -0.00012261      -0.00028058
I       23.76414436      10.24022054       1.68430228       66      -0.00013231      -0.00010799      -0.00013212
I       22.33587619      16.16732528       5.27116629       67       0.00012122       0.00059685       0.00063648
I       20.09128590      14.10484689       1.76096443       68      -0.00006226       0.00031362      -0.00028627
I       26.00747943      12.30243381       5.19465445       69       0.00018386       0.00013516       0.00010103
Cs      23.00936228      13.20973103       8.87221998       70      -0.00041352      -0.00000905      -0.00015532
Cs      32.25404454      18.50745332      11.96489134       71      -0.00011708      -0.00008809       0.00035823
K       27.63116188      15.85839495      10.41896041       72       0.00027789       0.00020346       0.00013093
In      18.42079010      10.57213263       6.94613244       73       0.00017666       0.00040573      -0.00021957
I       25.39409738      13.76660160      12.19307112       74      -0.00013248      -0.00005442       0.00049201
I       29.86792917      17.95064771       8.64488311       75       0.00048927       0.00014016      -0.00023928
I       28.34452645      12.89516921       8.62552858       76       0.00010250      -0.00016188      -0.00046274
I       26.91745178      18.82150443      12.21296837       77       0.00031351       0.00050210       0.00014527
I       24.67365963      16.75947730       8.70154653       78      -0.00029644       0.00024355      -0.00027625
I       30.58897843      14.95758102      12.13703574       79      -0.00000705      -0.00014275      -0.00012877
