20
Lattice="16.379894744325025 2.044656528683051 1.0876560899751193 -1.3677727806292352 9.786415040472368 -0.9193814282872078 -0.8999898264001793 -3.1494294465482855 9.332116302955237" Properties=species:S:1:pos:R:3:spacegroup_kinds:I:1:forces:R:3 spacegroup="P 1" unit_cell=conventional occupancy="_JSON {\"0\": {\"Cs\": 1.0}, \"1\": {\"Cs\": 1.0}, \"2\": {\"K\": 1.0}, \"3\": {\"In\": 1.0}, \"4\": {\"I\": 1.0}, \"5\": {\"I\": 1.0}, \"6\": {\"I\": 1.0}, \"7\": {\"I\": 1.0}, \"8\": {\"I\": 1.0}, \"9\": {\"I\": 1.0}, \"10\": {\"Cs\": 1.0}, \"11\": {\"Cs\": 1.0}, \"12\": {\"K\": 1.0}, \"13\": {\"In\": 1.0}, \"14\": {\"I\": 1.0}, \"15\": {\"I\": 1.0}, \"16\": {\"I\": 1.0}, \"17\": {\"I\": 1.0}, \"18\": {\"I\": 1.0}, \"19\": {\"I\": 1.0}}" energy=-50.46670874300696 free_energy=-50.46670874300696 stress="2.7293893732764148e-06 1.8402662369781493e-06 -4.909250625733781e-08 1.8402662369781493e-06 2.9284408981905813e-06 -1.149778376978466e-06 -4.909250625733781e-08 -1.149778376978466e-06 -7.583780276868468e-07" pbc="T T T"
Cs       4.55402324       8.03263857       6.43211484        0      -0.00007367      -0.00001396       0.00008287
Cs       8.01621602       3.03051182      10.14781467        1      -0.00014671       0.00001676      -0.00004021
K        0.94345427      -0.75690333       4.20159996        2       0.00005903       0.00009726       0.00006173
In       2.83908889       0.83250781       0.45019651        3       0.00003838      -0.00020366       0.00003821
I        4.22660039       3.19314073       0.70574265        4       0.00004703      -0.00007109       0.00004118
I        6.13117682       8.89931891      10.18720303        5       0.00011425       0.00015912       0.00003110
I        1.96666627      -3.20040690       7.16591434        6       0.00015079      -0.00005426       0.00012258
I        3.94368676      -1.09352388       2.08950331        7       0.00005398       0.00000904      -0.00024946
I       -1.90449771       6.03621469       2.70262089        8       0.00003542      -0.00004836      -0.00008939
I       -1.16926628       0.73950435       6.31395761        9      -0.00004185       0.00001937      -0.00003573
Cs      12.74453233       9.05397791       6.97871641       10      -0.00001458       0.00011685      -0.00011690
Cs      -0.17524267       2.01054304       9.60435836       11       0.00016222      -0.00004963      -0.00001360
K        9.13668953       0.26372919       4.74476494       12      -0.00018807       0.00011239       0.00003268
In      11.03020061       1.85223956       0.99280184       13       0.00000849      -0.00006053       0.00003892
I       12.41649071       4.21350102       1.25020947       14       0.00011530      -0.00015036       0.00000425
I       -2.05955600       7.88093887       9.64535253       15       0.00005550      -0.00000486      -0.00003760
I       10.15912356      -2.17957806       7.70820787       16      -0.00012286       0.00006296       0.00012926
I       12.13647331      -0.07335466       2.63145101       17      -0.00027276       0.00013081      -0.00003860
I        6.28662465       7.05806000       3.24507671       18      -0.00000913      -0.00006909       0.00007785
I        7.02354430       1.76160961       6.85600254       19       0.00002923       0.00000126      -0.00003910
