10
Lattice="9.764122514128767 0.0 0.0 -4.8820612570643815 8.455978142899093 0.0 0.0 1.704384486942593 7.479455486107299" Properties=species:S:1:pos:R:3 pbc="T T T"
Cs       0.92012831       5.63731964      -0.00002748
Cs       5.80218957       2.81866026      -0.00002748
K        0.92013325       0.85219312       3.73973167
In       0.92013884       0.00000088       0.00001745
I        2.20021785       2.55815226       1.49640534
I        4.52212274       7.60221212       5.98307774
I        3.48028318       1.36338257       5.98307095
I        7.20396615       0.34099094       1.49639154
I       -2.68185626       6.57982136       1.49639855
I       -0.35995137       3.58056674       5.98307095
