10
Lattice="9.298326439384708 -0.002033469903895985 -0.007412751596421888 -4.647542346508267 8.010796774429487 -0.8376759223514656 0.0029176878645342332 0.9219646073804527 8.780105859862719" Properties=species:S:1:pos:R:3:spacegroup_kinds:I:1:forces:R:3 spacegroup="P 1" unit_cell=conventional occupancy="_JSON {\"0\": {\"Cs\": 1.0}, \"1\": {\"Cs\": 1.0}, \"2\": {\"K\": 1.0}, \"3\": {\"In\": 1.0}, \"4\": {\"I\": 1.0}, \"5\": {\"I\": 1.0}, \"6\": {\"I\": 1.0}, \"7\": {\"I\": 1.0}, \"8\": {\"I\": 1.0}, \"9\": {\"I\": 1.0}}" energy=-25.793815274747693 free_energy=-25.793815274747693 stress="9.060691698631039e-08 1.8698362788700763e-07 -2.7284121567273485e-06 1.8698362788700763e-07 -3.0689114700361436e-06 -2.51314602880296e-06 -2.7284121567273485e-06 -2.51314602880296e-06 -3.172043206799228e-06" pbc="T T T"
Cs       0.79210318       6.26057925       8.21961215        0       0.00065741       0.00064564      -0.00016095
Cs       5.44145145       3.59168441       8.49369706        1      -0.00037814      -0.00061925       0.00026298
K       -3.85757443       8.47201582       3.55192560        2      -0.00002281      -0.00010522      -0.00029629
In      -3.85867381       8.01056978      -0.83800937        3      -0.00035273      -0.00013527      -0.00051867
I        2.01021849       2.28351332       1.53487641        4      -0.00027215       0.00011589       0.00011867
I        4.22142097       6.64705563       6.39868592        5      -0.00038073      -0.00054853       0.00036074
I       -1.41864729       8.74719175       6.18391971        6      -0.00001564      -0.00010260       0.00016496
I        7.64971030       0.18323277       1.74953516        7      -0.00017468       0.00014306       0.00052909
I       -2.63980902       6.09425840       1.13870192        8       0.00011059       0.00043681      -0.00026566
I       -0.42829176       2.83767713       6.80307298        9       0.00082887       0.00016946      -0.00019488
