40
Lattice="17.4512186642648 -0.5555326525868566 -0.37439352285800165 8.258166623290961 15.341526059836427 -0.3539772954502588 4.1379348504331075 2.3826635997769268 7.377055097701274" Properties=species:S:1:pos:R:3:spacegroup_kinds:I:1:forces:R:3 spacegroup="P 1" unit_cell=conventional occupancy="_JSON {\"0\": {\"Cs\": 1.0}, \"1\": {\"Cs\": 1.0}, \"2\": {\"K\": 1.0}, \"3\": {\"In\": 1.0}, \"4\": {\"I\": 1.0}, \"5\": {\"I\": 1.0}, \"6\": {\"I\": 1.0}, \"7\": {\"I\": 1.0}, \"8\": {\"I\": 1.0}, \"9\": {\"I\": 1.0}, \"10\": {\"Cs\": 1.0}, \"11\": {\"Cs\": 1.0}, \"12\": {\"K\": 1.0}, \"13\": {\"In\": 1.0}, \"14\": {\"I\": 1.0}, \"15\": {\"I\": 1.0}, \"16\": {\"I\": 1.0}, \"17\": {\"I\": 1.0}, \"18\": {\"I\": 1.0}, \"19\": {\"I\": 1.0}, \"20\": {\"Cs\": 1.0}, \"21\": {\"Cs\": 1.0}, \"22\": {\"K\": 1.0}, \"23\": {\"In\": 1.0}, \"24\": {\"I\": 1.0}, \"25\": {\"I\": 1.0}, \"26\": {\"I\": 1.0}, \"27\": {\"I\": 1.0}, \"28\": {\"I\": 1.0}, \"29\": {\"I\": 1.0}, \"30\": {\"Cs\": 1.0}, \"31\": {\"Cs\": 1.0}, \"32\": {\"K\": 1.0}, \"33\": {\"In\": 1.0}, \"34\": {\"I\": 1.0}, \"35\": {\"I\": 1.0}, \"36\": {\"I\": 1.0}, \"37\": {\"I\": 1.0}, \"38\": {\"I\": 1.0}, \"39\": {\"I\": 1.0}}" energy=-102.59578516476103 free_energy=-102.59578516476103 stress="-2.540589497112363e-07 6.003550787978943e-07 -6.803318720125398e-07 6.003550787978943e-07 1.3023160501774333e-06 2.5907362347812444e-07 -6.803318720125398e-07 2.5907362347812444e-07 -1.9798669650505177e-06" pbc="T T T"
Cs       4.10368315       2.34597118       1.67872381        0      -0.00023583      -0.00018850       0.00000261
Cs      12.88961601       7.43065002       5.33419025        1      -0.00006151      -0.00024345       0.00002726
K        8.49589529       4.88733567       3.50641427        2       0.00026769       0.00027528      -0.00003966
In      17.45121208      -0.55582088      -0.37449746        3      -0.00013150       0.00038994       0.00004435
I        8.76438255       1.66120516       2.07514067        4      -0.00010299       0.00038977       0.00019901
I        8.22821219       8.11405422       4.93757653        5       0.00018104       0.00005190       0.00005960
I       11.11602666       5.58949241       1.23626242        6      -0.00036543      -0.00015299       0.00018634
I        5.87640742       4.18635986       5.77674879        7       0.00002954      -0.00014225      -0.00004870
I        6.53153287       6.30641746       0.93114800        8      -0.00037077       0.00031628      -0.00017514
I       10.46116585       3.46913547       6.08166165        9      -0.00004251      -0.00017620      -0.00001780
Cs       8.23270112      10.01677034       1.50183244       10      -0.00012157      -0.00039095      -0.00007074
Cs      17.01875396      15.10133317       5.15720217       11      -0.00005659      -0.00019418      -0.00005506
K       12.62504319      12.55803492       3.32944722       12       0.00019035       0.00038491      -0.00007259
In      21.58034787       7.11513639      -0.55145475       13      -0.00008491      -0.00039918       0.00026120
I       12.89340384       9.33203882       1.89829020       14      -0.00004891       0.00009188      -0.00026731
I       12.35741492      15.78482470       4.76049596       15      -0.00002249       0.00007460       0.00013708
I       15.24504964      13.26023292       1.05938375       16      -0.00005102       0.00005658      -0.00024922
I       10.00541062      11.85701741       5.59976134       17       0.00043081       0.00010558      -0.00016095
I       10.66059358      13.97734859       0.75404620       18      -0.00002132      -0.00007500       0.00005598
I       14.59025104      11.13981352       5.90449100       19       0.00020058      -0.00010729       0.00045828
Cs      12.82927061       2.06829448       1.49154676       20      -0.00016296      -0.00043283       0.00007781
Cs      21.61520576       7.15286249       5.14703814       21      -0.00009681      -0.00017679      -0.00001012
K       17.22153863       4.60954755       3.31915132       22       0.00028158       0.00027615       0.00010857
In       8.72549895      -0.27790615      -0.18737272       23       0.00015015      -0.00030746       0.00023679
I       17.48992939       1.38347436       1.88791926       24       0.00008233       0.00016651       0.00023700
I       16.95388591       7.83632654       4.75051330       25       0.00009938      -0.00017607      -0.00037292
I       19.84149055       5.31187936       1.04904379       26       0.00011302      -0.00027296       0.00008977
I       14.60205668       3.90846310       5.58962174       27       0.00012571       0.00019186      -0.00030348
I       15.25692653       6.02876689       0.74398388       28       0.00043910      -0.00003739       0.00007283
I       19.18681671       3.19135051       5.89461107       29      -0.00008257      -0.00016332      -0.00016200
Cs      16.95830169       9.73907133       1.31458033       30      -0.00011579      -0.00038018       0.00002351
Cs      25.74437001      14.82349497       4.97009173       31      -0.00020383       0.00001151      -0.00001367
K       21.35068172      12.28026102       3.14218897       32       0.00014311       0.00038026       0.00005930
In      12.85469638       7.39276172      -0.36418495       33      -0.00023250       0.00076269      -0.00032022
I       21.61895543       9.05435109       1.71103593       34       0.00016233      -0.00000942       0.00000049
I       21.08307918      15.50695480       4.57333492       35      -0.00005327       0.00031365       0.00019811
I       23.97056097      12.98249689       0.87221430       36       0.00027106      -0.00008840      -0.00027162
I       18.73112948      11.57932053       5.41244753       37      -0.00010731      -0.00025851       0.00029597
I       19.38608385      13.69963327       0.56698071       38       0.00006789      -0.00011138      -0.00009004
I       23.31599302      10.86198148       5.71753888       39      -0.00046328       0.00024535      -0.00013059
