80
Lattice="20.457028052686027 0.0 0.0 -8.710859048525144 15.087650449616644 0.0 0.0 0.0 19.422960313816457" Properties=species:S:1:pos:R:3 pbc="T T T"
Cs       4.44714380       2.52631742       0.03087863
Cs      -0.41417072       5.04092583       9.68051197
K       -0.92004106       0.01172538       4.85573663
In      -0.92006038       0.01171569       0.00003108
I       -2.04401024       1.99810987       1.94270691
I        6.07697544       5.56919863       7.76877628
I        0.63612534       1.98117682       7.76879624
I        3.39683557       5.58601438       1.94272688
I       -2.59534248       7.53866033       1.94271501
I        6.62832562       0.02858390       7.76878438
Cs       4.44714380       2.52631742       9.74235879
Cs      -0.41417072       5.04092583      19.39199213
K       -0.92004106       0.01172538      14.56721678
In      -0.92006038       0.01171569       9.71151124
I       -2.04401024       1.99810987      11.65418707
I        6.07697544       5.56919863      17.48025644
I        0.63612534       1.98117682      17.48027640
I        3.39683557       5.58601438      11.65420704
I       -2.59534248       7.53866033      11.65419517
I        6.62832562       0.02858390      17.48026454
Cs       0.09171427      10.07014265       0.03087863
Cs      -4.76960025      12.58475106       9.68051197
K       -5.27547059       7.55555060       4.85573663
In      -5.27548991       7.55554092       0.00003108
I       -6.39943976       9.54193510       1.94270691
I        1.72154592      13.11302385       7.76877628
I       -3.71930419       9.52500205       7.76879624
I       -0.95859396      13.12983960       1.94272688
I       -6.95077200      15.08248555       1.94271501
I        2.27289610       7.57240913       7.76878438
Cs       0.09171427      10.07014265       9.74235879
Cs      -4.76960025      12.58475106      19.39199213
K       -5.27547059       7.55555060      14.56721678
In      -5.27548991       7.55554092       9.71151124
I       -6.39943976       9.54193510      11.65418707
I        1.72154592      13.11302385      17.48025644
I       -3.71930419       9.52500205      17.48027640
I       -0.95859396      13.12983960      11.65420704
I       -6.95077200      15.08248555      11.65419517
I        2.27289610       7.57240913      17.48026454
Cs      14.67565782       2.52631742       0.03087863
Cs       9.81434330       5.04092583       9.68051197
K        9.30847296       0.01172538       4.85573663
In       9.30845364       0.01171569       0.00003108
I        8.18450379       1.99810987       1.94270691
I       16.30548947       5.56919863       7.76877628
I       10.86463936       1.98117682       7.76879624
I       13.62534959       5.58601438       1.94272688
I        7.63317155       7.53866033       1.94271501
I       16.85683965       0.02858390       7.76878438
Cs      14.67565782       2.52631742       9.74235879
Cs       9.81434330       5.04092583      19.39199213
K        9.30847296       0.01172538      14.56721678
In       9.30845364       0.01171569       9.71151124
I        8.18450379       1.99810987      11.65418707
I       16.30548947       5.56919863      17.48025644
I       10.86463936       1.98117682      17.48027640
I       13.62534959       5.58601438      11.65420704
I        7.63317155       7.53866033      11.65419517
I       16.85683965       0.02858390      17.48026454
Cs      10.32022830      10.07014265       0.03087863
Cs       5.45891378      12.58475106       9.68051197
K        4.95304344       7.55555060       4.85573663
In       4.95302412       7.55554092       0.00003108
I        3.82907426       9.54193510       1.94270691
I       11.95005995      13.11302385       7.76877628
I        6.50920984       9.52500205       7.76879624
I        9.26992007      13.12983960       1.94272688
I        3.27774202      15.08248555       1.94271501
I       12.50141012       7.57240913       7.76878438
Cs      10.32022830      10.07014265       9.74235879
Cs       5.45891378      12.58475106      19.39199213
K        4.95304344       7.55555060      14.56721678
In       4.95302412       7.55554092       9.71151124
I        3.82907426       9.54193510      11.65418707
I       11.95005995      13.11302385      17.48025644
I        6.50920984       9.52500205      17.48027640
I        9.26992007      13.12983960      11.65420704
I        3.27774202      15.08248555      11.65419517
I       12.50141012       7.57240913      17.48026454
