20
Lattice="18.44518716720773 0.060448896944122296 0.07701200701998258 4.643009859554162 7.986696826569384 0.027309980832389582 4.64607130613729 2.684538037334518 6.9618754368569" Properties=species:S:1:pos:R:3:spacegroup_kinds:I:1:forces:R:3 spacegroup="P 1" unit_cell=conventional occupancy="_JSON {\"0\": {\"Cs\": 1.0}, \"1\": {\"Cs\": 1.0}, \"2\": {\"K\": 1.0}, \"3\": {\"In\": 1.0}, \"4\": {\"I\": 1.0}, \"5\": {\"I\": 1.0}, \"6\": {\"I\": 1.0}, \"7\": {\"I\": 1.0}, \"8\": {\"I\": 1.0}, \"9\": {\"I\": 1.0}, \"10\": {\"Cs\": 1.0}, \"11\": {\"Cs\": 1.0}, \"12\": {\"K\": 1.0}, \"13\": {\"In\": 1.0}, \"14\": {\"I\": 1.0}, \"15\": {\"I\": 1.0}, \"16\": {\"I\": 1.0}, \"17\": {\"I\": 1.0}, \"18\": {\"I\": 1.0}, \"19\": {\"I\": 1.0}}" energy=-51.29789261885162 free_energy=-51.29789261885162 stress="7.541958892469791e-07 2.33390422498783e-07 5.687687230150118e-07 2.33390422498783e-07 1.7334937820877783e-06 8.44978286392131e-07 5.687687230150118e-07 8.44978286392131e-07 3.393003359675525e-07" pbc="T T T"
Cs       4.63050159       2.69371289       1.94570997        0       0.00046317      -0.00016343       0.00029541
Cs      13.88019539       8.00790874       5.08083461        1       0.00035892      -0.00013080       0.00015305
K        9.25614918       5.35113468       3.51388410        2      -0.00011843      -0.00025916      -0.00005472
In      18.44545097       0.06036279       0.07717632        3      -0.00006960       0.00017256      -0.00042788
I        6.99500040       3.23719349       5.22534789        4      -0.00077977      -0.00003832       0.00038876
I       11.51722439       7.46436022       1.80221892        5      -0.00014700       0.00013634       0.00010174
I        9.95015443       2.37015319       1.73528935        6      -0.00007973      -0.00033710      -0.00038215
I        8.56152823       8.33131962       5.29308299        7      -0.00004540      -0.00016057      -0.00027726
I        6.33453957       6.21524578       1.71857793        8       0.00025350      -0.00015502       0.00006100
I       12.17703279       4.48597469       5.30947019        9       0.00016323       0.00013906      -0.00007342
Cs      13.85319269       2.72392581       1.98420160       10       0.00022491      -0.00012122       0.00031089
Cs      23.10284199       8.03811349       5.11932071       11       0.00024116      -0.00011786       0.00023452
K       18.47880300       5.38149064       3.55234660       12      -0.00023773      -0.00059495       0.00005107
In       9.22293495       0.03017759       0.03852670       13      -0.00042975      -0.00021202       0.00042554
I       16.21722059       3.26737927       5.26402556       14       0.00028580       0.00007392      -0.00020471
I       20.73953222       7.49446269       1.84087476       15       0.00026006       0.00037250      -0.00015135
I       19.17278215       2.40018536       1.77365202       16      -0.00015409       0.00025532       0.00009281
I       17.78405965       8.36133465       5.33141787       17       0.00012279       0.00043087       0.00027237
I       15.55732835       6.24528043       1.75729467       18      -0.00034154       0.00043765      -0.00063291
I       21.39972078       4.51610667       5.34803976       19       0.00002949       0.00027222      -0.00018276
