20
Lattice="18.5800375804742 -0.8090354687715502 -0.0017252900611295298 -4.295255447982577 8.24720435800573 -0.007838776251546779 -0.0024421791860418365 0.003314570480082857 8.828566107113762" Properties=species:S:1:pos:R:3:spacegroup_kinds:I:1:forces:R:3 spacegroup="P 1" unit_cell=conventional occupancy="_JSON {\"0\": {\"Cs\": 1.0}, \"1\": {\"Cs\": 1.0}, \"2\": {\"K\": 1.0}, \"3\": {\"In\": 1.0}, \"4\": {\"I\": 1.0}, \"5\": {\"I\": 1.0}, \"6\": {\"I\": 1.0}, \"7\": {\"I\": 1.0}, \"8\": {\"I\": 1.0}, \"9\": {\"I\": 1.0}, \"10\": {\"Cs\": 1.0}, \"11\": {\"Cs\": 1.0}, \"12\": {\"K\": 1.0}, \"13\": {\"In\": 1.0}, \"14\": {\"I\": 1.0}, \"15\": {\"I\": 1.0}, \"16\": {\"I\": 1.0}, \"17\": {\"I\": 1.0}, \"18\": {\"I\": 1.0}, \"19\": {\"I\": 1.0}}" energy=-51.587627127166776 free_energy=-51.587627127166776 stress="-1.326824856378606e-06 -4.781483672643885e-06 -4.058285514311344e-06 -4.781483672643885e-06 -6.824183728344847e-06 -5.654534405079732e-06 -4.058285514311344e-06 -5.654534405079732e-06 -2.8246265080767764e-06" pbc="T T T"
Cs       5.25067969       2.46404315       8.81133426        0       0.00032313       0.00023596       0.00042917
Cs       0.72610229       5.34447978       0.00847228        1      -0.00030074      -0.00032187      -0.00062562
K        0.49102301      -0.01712518       4.41420081        2       0.00000151       0.00011022       0.00016354
In       0.49221440      -0.01883578       0.00009588        3       0.00010195       0.00052283      -0.00080931
I        7.34642646      -0.30711133       1.76494776        4       0.00023783      -0.00002293       0.00060768
I       -1.36963899       8.11554652       7.05475608        5      -0.00042475       0.00011299      -0.00029388
I        1.80872283       2.03455562       1.76514115        6       0.00020047      -0.00020130      -0.00026181
I        4.16816312       5.77398106       7.05459200        7      -0.00035707       0.00011583       0.00035764
I        6.60599321       5.65908628       1.75927067        8      -0.00033223      -0.00054224       0.00017292
I       -0.62921503       2.14954392       7.06044838        9       0.00054991      -0.00000950       0.00025967
Cs      14.54069848       2.05952542       8.81047162       10       0.00032313       0.00023596       0.00042917
Cs      10.01612108       4.93996205       0.00760963       11      -0.00030074      -0.00032187      -0.00062562
K        9.78104180      -0.42164292       4.41333816       12       0.00000151       0.00011022       0.00016354
In       9.78223319      -0.42335352      -0.00076677       13       0.00010195       0.00052284      -0.00080931
I       16.63644525      -0.71162907       1.76408512       14       0.00023783      -0.00002293       0.00060768
I        7.92037980       7.71102878       7.05389344       15      -0.00042475       0.00011299      -0.00029388
I       11.09874162       1.63003788       1.76427850       16       0.00020047      -0.00020130      -0.00026181
I       13.45818191       5.36946333       7.05372936       17      -0.00035707       0.00011583       0.00035764
I       -2.68402558       6.06360402       1.76013332       18      -0.00033223      -0.00054224       0.00017292
I        8.66080376       1.74502618       7.05958573       19       0.00054991      -0.00000950       0.00025967
