10
Lattice="10.619490039352037 1.2248421277376043 -1.0343531717829264 8.204083725921057 5.122594369516573 -0.8232202906174411 -1.1490614003822972 -1.3647916985717776 12.270403032614722" Properties=species:S:1:pos:R:3:spacegroup_kinds:I:1:forces:R:3 spacegroup="P 1" unit_cell=conventional occupancy="_JSON {\"0\": {\"Cs\": 1.0}, \"1\": {\"Cs\": 1.0}, \"2\": {\"K\": 1.0}, \"3\": {\"In\": 1.0}, \"4\": {\"I\": 1.0}, \"5\": {\"I\": 1.0}, \"6\": {\"I\": 1.0}, \"7\": {\"I\": 1.0}, \"8\": {\"I\": 1.0}, \"9\": {\"I\": 1.0}}" energy=-25.320430473744388 free_energy=-25.320430473744388 stress="1.9260051125396237e-06 -1.254450620124536e-06 -1.0103010766590024e-06 -1.254450620124536e-06 -6.029781712305424e-07 3.277781051503996e-07 -1.0103010766590024e-06 3.277781051503996e-07 2.552730718399326e-06" pbc="T T T"
Cs       4.09426340      -0.35194219       3.48443630        0       0.00000109       0.00012922      -0.00000446
Cs      13.57996488       5.33683479       6.92897769        1      -0.00028851       0.00009359       0.00009515
K        8.83584279       2.49525930       5.20076522        2       0.00013370      -0.00045005       0.00005893
In      10.62138276       1.22042826      -1.03380545        3      -0.00036869       0.00049407      -0.00003968
I        9.92183728       5.83907775       5.76282948        4       0.00055975      -0.00022816       0.00045996
I        7.74943810      -0.85070171       4.64997651        5       0.00050672      -0.00034130       0.00020061
I       10.89529970       1.23854681       1.85107823        6      -0.00033417      -0.00009746      -0.00036325
I        6.78041457       3.74189584       8.56386673        7      -0.00001837      -0.00003994      -0.00011323
I        7.65750365       2.07299026      -0.73847268        8      -0.00013912       0.00025008      -0.00012490
I       10.01884741       2.90435274      11.15372714        9      -0.00005239       0.00018996      -0.00016914
