10
Lattice="10.301871649412616 0.0 0.0 7.2937896081185105 4.502293189052858 0.0 0.6768805197242711 -1.0033322585079258 10.16199775590482" Properties=species:S:1:pos:R:3 pbc="T T T"
Cs       4.56805838       0.87471722       2.54050569
Cs      13.70448322       2.62424312       7.62149167
K        9.13627078       1.74948009       5.08099871
In       0.00000017       0.00000046       0.00000020
I        5.37792056      -0.81153373       6.49968767
I       12.89462109       4.31049353       3.66230971
I       11.36887306       1.76250498       2.51533387
I        6.90366762       1.73645481       7.64666335
I        8.22134196       3.08471894       2.20786454
I       10.05120023       0.41424288       7.95413378
