20
Lattice="19.527163141200298 0.0 0.0 -3.042584342553552 9.277402955795917 0.0 1.2638661467435621 0.41449308254559364 9.050931123859442" Properties=species:S:1:pos:R:3 pbc="T T T"
Cs       3.86278330       3.11460919       0.02874046
Cs       0.84987864       6.61893026       9.02203142
K       -1.00414159       0.22809735       4.52545943
In      -1.63610902       0.02083358       0.00005527
I       -2.16258589       2.54663322       1.81057044
I        6.87523383       7.18702224       7.24036608
I        1.15144291       2.77443768       7.24040158
I        3.56119739       6.95900920       1.81060595
I       -1.87003012       9.36038946       1.81058485
I        6.58270996       0.37315172       7.24038048
Cs      13.62636487       3.11460919       0.02874046
Cs      10.61346021       6.61893026       9.02203142
K        8.75943998       0.22809735       4.52545943
In       8.12747255       0.02083358       0.00005527
I        7.60099568       2.54663322       1.81057044
I       16.63881541       7.18702224       7.24036608
I       10.91502448       2.77443768       7.24040158
I       13.32477896       6.95900920       1.81060595
I        7.89355145       9.36038946       1.81058485
I       16.34629153       0.37315172       7.24038048
