20
Lattice="18.45767562548739 -1.9319596979713203 -1.2188953001469562 -3.7899916694913913 8.490772018512487 0.09440432825021451 0.6004485754740273 0.1669749796363894 8.8072769847832" Properties=species:S:1:pos:R:3:spacegroup_kinds:I:1:forces:R:3 spacegroup="P 1" unit_cell=conventional occupancy="_JSON {\"0\": {\"Cs\": 1.0}, \"1\": {\"Cs\": 1.0}, \"2\": {\"K\": 1.0}, \"3\": {\"In\": 1.0}, \"4\": {\"I\": 1.0}, \"5\": {\"I\": 1.0}, \"6\": {\"I\": 1.0}, \"7\": {\"I\": 1.0}, \"8\": {\"I\": 1.0}, \"9\": {\"I\": 1.0}, \"10\": {\"Cs\": 1.0}, \"11\": {\"Cs\": 1.0}, \"12\": {\"K\": 1.0}, \"13\": {\"In\": 1.0}, \"14\": {\"I\": 1.0}, \"15\": {\"I\": 1.0}, \"16\": {\"I\": 1.0}, \"17\": {\"I\": 1.0}, \"18\": {\"I\": 1.0}, \"19\": {\"I\": 1.0}}" energy=-51.58763274997044 free_energy=-51.58763274997044 stress="7.0308418442501e-07 -1.5082005575464909e-06 3.154612350220822e-06 -1.5082005575464909e-06 -6.494549417568262e-07 -4.396671698188618e-06 3.154612350220822e-06 -4.396671698188618e-06 5.059901227392445e-06" pbc="T T T"
Cs       3.33988011       2.36622581      -0.27848706        0       0.00050028       0.00014958      -0.00025055
Cs      -0.39794965       5.68618759       8.77481521        1      -0.00026535      -0.00037732      -0.00027099
K       17.20966743      -1.66811648       3.28612079        2      -0.00027966      -0.00017759       0.00067651
In      16.90907055      -1.75165499      -1.11687025        3       0.00007591      -0.00027353      -0.00020285
I       16.03212992       0.50711023       0.67025690        4       0.00005570      -0.00046287       0.00012079
I        5.36766776       5.61355882       6.60699753        5       0.00010770      -0.00023445      -0.00014674
I        0.35482349       2.28834940       7.01224080        6       0.00042269       0.00075172       0.00027182
I        2.58716603       5.76333703       1.48365240        7       0.00011940       0.00050015       0.00019920
I        0.99175219      -0.03566610       1.70406847        8      -0.00038858       0.00007632      -0.00014883
I        5.74076506      -0.40285208       6.69781182        9      -0.00034806       0.00004799      -0.00024837
Cs      12.56871792       1.40024596      -0.88793471       10       0.00050028       0.00014958      -0.00025055
Cs       8.83088816       4.72020774       8.16536756       11      -0.00026535      -0.00037732      -0.00027099
K        7.98082962      -0.70213664       3.89556844       12      -0.00027967      -0.00017759       0.00067650
In       7.68023274      -0.78567514      -0.50742261       13       0.00007588      -0.00027351      -0.00020283
I        6.80329211       1.47309008       1.27970455       14       0.00005570      -0.00046288       0.00012078
I       14.59650557       4.64757897       5.99754988       15       0.00010770      -0.00023444      -0.00014673
I        9.58366131       1.32236955       6.40279315       16       0.00042269       0.00075173       0.00027181
I       11.81600384       4.79735718       0.87420475       17       0.00011940       0.00050014       0.00019920
I       10.22059001      -1.00164595       1.09462082       18      -0.00038858       0.00007632      -0.00014883
I       14.96960287      -1.36883193       6.08836417       19      -0.00034807       0.00004799      -0.00024837
