40
Lattice="16.599764881473334 -3.6989402941135796 0.7224139233989971 -4.939242891529198 16.090299914093084 -1.2756714006695704 1.7720851282805627 1.1940152241987252 8.240046501168758" Properties=species:S:1:pos:R:3:spacegroup_kinds:I:1:forces:R:3 spacegroup="P 1" unit_cell=conventional occupancy="_JSON {\"0\": {\"Cs\": 1.0}, \"1\": {\"Cs\": 1.0}, \"2\": {\"K\": 1.0}, \"3\": {\"In\": 1.0}, \"4\": {\"I\": 1.0}, \"5\": {\"I\": 1.0}, \"6\": {\"I\": 1.0}, \"7\": {\"I\": 1.0}, \"8\": {\"I\": 1.0}, \"9\": {\"I\": 1.0}, \"10\": {\"Cs\": 1.0}, \"11\": {\"Cs\": 1.0}, \"12\": {\"K\": 1.0}, \"13\": {\"In\": 1.0}, \"14\": {\"I\": 1.0}, \"15\": {\"I\": 1.0}, \"16\": {\"I\": 1.0}, \"17\": {\"I\": 1.0}, \"18\": {\"I\": 1.0}, \"19\": {\"I\": 1.0}, \"20\": {\"Cs\": 1.0}, \"21\": {\"Cs\": 1.0}, \"22\": {\"K\": 1.0}, \"23\": {\"In\": 1.0}, \"24\": {\"I\": 1.0}, \"25\": {\"I\": 1.0}, \"26\": {\"I\": 1.0}, \"27\": {\"I\": 1.0}, \"28\": {\"I\": 1.0}, \"29\": {\"I\": 1.0}, \"30\": {\"Cs\": 1.0}, \"31\": {\"Cs\": 1.0}, \"32\": {\"K\": 1.0}, \"33\": {\"In\": 1.0}, \"34\": {\"I\": 1.0}, \"35\": {\"I\": 1.0}, \"36\": {\"I\": 1.0}, \"37\": {\"I\": 1.0}, \"38\": {\"I\": 1.0}, \"39\": {\"I\": 1.0}}" energy=-102.88028606941165 free_energy=-102.88028606941165 stress="1.4779846112587519e-06 6.555168446782933e-08 7.708669896098174e-06 6.555168446782933e-08 3.6065028970810826e-06 -5.7388267413544625e-06 7.708669896098174e-06 -5.7388267413544625e-06 -2.9159104306442616e-06" pbc="T T T"
Cs       3.12773345       5.62385392       6.11289350        0      -0.00009771       0.00012248      -0.00006799
Cs       7.16195083       2.75589576      10.12970452        1       0.00008316      -0.00010556       0.00030835
K        1.34360167       0.49515248       4.13987959        2       0.00014023      -0.00010369      -0.00002485
In      -4.48162476      15.98849987      -1.25582927        3      -0.00045059      -0.00038557      -0.00020469
I        1.31895072       2.45142015       1.23567215        4       0.00023650       0.00035000       0.00039041
I        7.19867991       4.73447071       6.76714284        5      -0.00009036      -0.00034939      -0.00010067
I        4.19138002       1.51112414       5.92820405        6       0.00017012       0.00003853      -0.00029460
I        6.79625220      -2.37071354       2.71341862        7      -0.00012620      -0.00016376      -0.00005147
I       16.67429436       2.81489721       1.63417181        8      -0.00008199      -0.00009277       0.00018617
I        0.14331954       2.52218057       6.72926924        9       0.00011870      -0.00008080       0.00036083
Cs       0.65779240      13.66880218       5.47492205       10       0.00001235       0.00019458       0.00005492
Cs       4.69267004      10.80118534       9.49239759       11      -0.00002131      -0.00006888       0.00016432
K       -1.12639572       8.54028127       3.50188090       12       0.00006901      -0.00007092      -0.00028168
In      -2.01217904       7.94358205      -0.61841650       13       0.00009391       0.00016074       0.00043207
I       -1.15060532      10.49668749       0.59785777       14       0.00003929       0.00002584       0.00001388
I        4.72916666      12.77925230       6.12951497       15      -0.00001797       0.00020214       0.00027414
I        1.72128393       9.55653265       5.28973361       16       0.00058915       0.00010428      -0.00008113
I        4.32620072       5.67452041       2.07528491       17       0.00006308       0.00001549       0.00010678
I       14.20465395      10.85969987       0.99682910       18      -0.00014510      -0.00001678       0.00008086
I       -2.32637640      10.56778070       6.09135395       19      -0.00010627      -0.00027122       0.00032016
Cs      11.42747564       3.77416284       6.47471637       20      -0.00000419       0.00005929      -0.00000564
Cs      15.46282356       0.90612569      10.49130680       21      -0.00018989       0.00005387       0.00005785
K        9.64430272      -1.35482023       4.50147473       22      -0.00025793       0.00001678      -0.00003336
In       3.81871393      14.13839777      -0.89407839       23      -0.00024799      -0.00003469      -0.00039299
I        9.61962576       0.60127949       1.59756421       24       0.00012245       0.00015306      -0.00025003
I       15.49808709       2.88539401       7.12858439       25      -0.00025230      -0.00040569      -0.00043345
I       12.49161933      -0.33830933       6.28956741       26       0.00005993      -0.00009199       0.00022278
I       15.09552900      -4.21970300       3.07430719       27       0.00032063      -0.00004619      -0.00025758
I        8.37394045       4.66337450       1.27380143       28       0.00044361      -0.00012353      -0.00014636
I        8.44346146       0.67193090       7.09138817       29       0.00010595       0.00011007      -0.00015746
Cs       8.95823501      11.81949918       5.83636519       30      -0.00017263       0.00003262       0.00013233
Cs      12.99279648       8.95140276       9.85430728       31       0.00008028       0.00002006      -0.00048723
K        7.17430872       6.69078064       3.86327791       32      -0.00028808       0.00008818       0.00023963
In       6.28791845       6.09357898      -0.25659433       33       0.00025597       0.00037516       0.00021385
I        7.14994321       8.64675180       0.95940515       34      -0.00015864      -0.00017809      -0.00026384
I       13.02835391      10.93035212       6.49095487       35       0.00006380       0.00009699       0.00010292
I       10.02190578       7.70720694       5.65155886       36      -0.00032127      -0.00033001       0.00011081
I       12.62593601       3.82521912       2.43580893       37      -0.00010608       0.00008948       0.00030575
I        5.90482685      12.70802317       0.63602940       38       0.00003406       0.00045547      -0.00007291
I        5.97346675       8.71731888       6.45349632       39       0.00003432       0.00015443      -0.00047086
