40
Lattice="16.68493763219767 0.0 0.0 -0.8071849973375318 15.75682808507561 0.0 1.8999202152997214 2.0505345944200046 6.834294380991001" Properties=species:S:1:pos:R:3 pbc="T T T"
Cs       3.43188958       5.25227690      -0.00002748
Cs       6.34724335       2.62613889      -0.00002748
K        0.94996011       1.02526730       3.41714719
In       0.92013884       0.00000088       0.00001745
I        3.38182701       2.47596794       1.36732995
I        8.29724886       7.45298245       5.46699203
I        3.70720732       1.64029048       5.46697823
I        6.53518171       0.41024412       1.36731615
I        0.08234076       6.22293522       1.36731615
I        1.41398695       3.70601342       5.46697823
Cs       3.02829708      13.13069095      -0.00002748
Cs       5.94365085      10.50455293      -0.00002748
K        0.54636761       8.90368134       3.41714719
In       0.51654634       7.87841492       0.00001745
I        2.97823451      10.35438198       1.36732995
I        7.89365637      15.33139649       5.46699203
I        3.30361482       9.51870452       5.46697823
I        6.13158922       8.28865816       1.36731615
I       -0.32125174      14.10134926       1.36731615
I        1.01039446      11.58442746       5.46697823
Cs      11.77435840       5.25227690      -0.00002748
Cs      14.68971217       2.62613889      -0.00002748
K        9.29242892       1.02526730       3.41714719
In       9.26260766       0.00000088       0.00001745
I       11.72429582       2.47596794       1.36732995
I       16.63971768       7.45298245       5.46699203
I       12.04967613       1.64029048       5.46697823
I       14.87765053       0.41024412       1.36731615
I        8.42480958       6.22293522       1.36731615
I        9.75645577       3.70601342       5.46697823
Cs      11.37076590      13.13069095      -0.00002748
Cs      14.28611967      10.50455293      -0.00002748
K        8.88883643       8.90368134       3.41714719
In       8.85901516       7.87841492       0.00001745
I       11.32070332      10.35438198       1.36732995
I       16.23612518      15.33139649       5.46699203
I       11.64608363       9.51870452       5.46697823
I       14.47405803       8.28865816       1.36731615
I        8.02121708      14.10134926       1.36731615
I        9.35286327      11.58442746       5.46697823
