80
Lattice="18.59892846215617 0.0030335213997612176 -0.053229615160077064 -9.297008637857871 16.103049601052525 0.02864701075833695 0.04803353679100176 0.002186469723431418 17.658592250496664" Properties=species:S:1:pos:R:3:spacegroup_kinds:I:1:forces:R:3 spacegroup="P 1" unit_cell=conventional occupancy="_JSON {\"0\": {\"Cs\": 1.0}, \"1\": {\"Cs\": 1.0}, \"2\": {\"K\": 1.0}, \"3\": {\"In\": 1.0}, \"4\": {\"I\": 1.0}, \"5\": {\"I\": 1.0}, \"6\": {\"I\": 1.0}, \"7\": {\"I\": 1.0}, \"8\": {\"I\": 1.0}, \"9\": {\"I\": 1.0}, \"10\": {\"Cs\": 1.0}, \"11\": {\"Cs\": 1.0}, \"12\": {\"K\": 1.0}, \"13\": {\"In\": 1.0}, \"14\": {\"I\": 1.0}, \"15\": {\"I\": 1.0}, \"16\": {\"I\": 1.0}, \"17\": {\"I\": 1.0}, \"18\": {\"I\": 1.0}, \"19\": {\"I\": 1.0}, \"20\": {\"Cs\": 1.0}, \"21\": {\"Cs\": 1.0}, \"22\": {\"K\": 1.0}, \"23\": {\"In\": 1.0}, \"24\": {\"I\": 1.0}, \"25\": {\"I\": 1.0}, \"26\": {\"I\": 1.0}, \"27\": {\"I\": 1.0}, \"28\": {\"I\": 1.0}, \"29\": {\"I\": 1.0}, \"30\": {\"Cs\": 1.0}, \"31\": {\"Cs\": 1.0}, \"32\": {\"K\": 1.0}, \"33\": {\"In\": 1.0}, \"34\": {\"I\": 1.0}, \"35\": {\"I\": 1.0}, \"36\": {\"I\": 1.0}, \"37\": {\"I\": 1.0}, \"38\": {\"I\": 1.0}, \"39\": {\"I\": 1.0}, \"40\": {\"Cs\": 1.0}, \"41\": {\"Cs\": 1.0}, \"42\": {\"K\": 1.0}, \"43\": {\"In\": 1.0}, \"44\": {\"I\": 1.0}, \"45\": {\"I\": 1.0}, \"46\": {\"I\": 1.0}, \"47\": {\"I\": 1.0}, \"48\": {\"I\": 1.0}, \"49\": {\"I\": 1.0}, \"50\": {\"Cs\": 1.0}, \"51\": {\"Cs\": 1.0}, \"52\": {\"K\": 1.0}, \"53\": {\"In\": 1.0}, \"54\": {\"I\": 1.0}, \"55\": {\"I\": 1.0}, \"56\": {\"I\": 1.0}, \"57\": {\"I\": 1.0}, \"58\": {\"I\": 1.0}, \"59\": {\"I\": 1.0}, \"60\": {\"Cs\": 1.0}, \"61\": {\"Cs\": 1.0}, \"62\": {\"K\": 1.0}, \"63\": {\"In\": 1.0}, \"64\": {\"I\": 1.0}, \"65\": {\"I\": 1.0}, \"66\": {\"I\": 1.0}, \"67\": {\"I\": 1.0}, \"68\": {\"I\": 1.0}, \"69\": {\"I\": 1.0}, \"70\": {\"Cs\": 1.0}, \"71\": {\"Cs\": 1.0}, \"72\": {\"K\": 1.0}, \"73\": {\"In\": 1.0}, \"74\": {\"I\": 1.0}, \"75\": {\"I\": 1.0}, \"76\": {\"I\": 1.0}, \"77\": {\"I\": 1.0}, \"78\": {\"I\": 1.0}, \"79\": {\"I\": 1.0}}" energy=-206.35052937655067 free_energy=-206.35052937655067 stress="9.118086359452015e-07 5.5228372861399474e-06 -2.8219576036153253e-06 5.5228372861399474e-06 -3.9351950282939655e-06 1.0639773842941004e-06 -2.8219576036153253e-06 1.0639773842941004e-06 5.216352988811694e-06" pbc="T T T"
Cs       1.64824262       5.37101405      17.64879335        0       0.00024093      -0.00025357      -0.00008957
Cs       6.29769032       2.68714016      17.64725173        1      -0.00012804       0.00006595      -0.00016506
K        1.61213154       0.00069404       4.41020844        2      -0.00023321       0.00004614      -0.00026804
In       1.59941889       0.00032885      -0.00459567        3       0.00011329      -0.00029383      -0.00022437
I        2.82035953       2.11345728       1.75848275        4       0.00014885       0.00015288       0.00017672
I        5.05345181       5.94134999       7.04923847        5       0.00001208      -0.00037211      -0.00003874
I        4.05684700       0.00579255       7.05150575        6       0.00007467      -0.00015493      -0.00010295
I        8.46576458      -0.00286732       1.74208199        7       0.00011689       0.00035440       0.00020429
I       -1.82176116       5.94202813       1.77257545        8       0.00012044       0.00009752       0.00015014
I        0.39644300       2.11105875       7.06172939        9      -0.00032056       0.00007745      -0.00005142
Cs       1.62422174       5.36988892       8.81948341       10       0.00028705      -0.00029072       0.00000468
Cs       6.27364795       2.68609618       8.81802213       11      -0.00010222       0.00000001      -0.00009202
K        1.63588113       0.00184423      13.23941713       12      -0.00026768      -0.00001521       0.00004736
In       1.62342211       0.00137190       8.82460963       13       0.00010393      -0.00019708       0.00035188
I        2.84422729       2.11436967      10.58782489       14       0.00034937       0.00058788       0.00010086
I        5.07736070       5.94237370      15.87854781       15       0.00025825      -0.00004133       0.00001461
I        4.08077102       0.00691649      15.88067307       16      -0.00005849      -0.00018653       0.00011658
I        8.48973920      -0.00176751      10.57141940       17       0.00018536       0.00038131      -0.00008510
I       -1.79772974       5.94309373      10.60198462       18      -0.00000482       0.00043747      -0.00021219
I        0.42037013       2.11229872      15.89103173       19      -0.00017402      -0.00030079       0.00012592
Cs      -3.00021944      13.42250348      17.66300655       20       0.00013802      -0.00028207      -0.00008025
Cs       1.64918689      10.73869394      17.66167132       21      -0.00013045      -0.00002981      -0.00017217
K       -3.03647092       8.05217846       4.42442555       22      -0.00030564       0.00003569      -0.00007831
In      -3.04914772       8.05174970       0.00971648       23       0.00029318       0.00015037      -0.00054105
I       -1.82828201      10.16487574       1.77273866       24       0.00027540       0.00037636       0.00027741
I        0.40488286      13.99276513       7.06352378       25       0.00017340      -0.00015387      -0.00007076
I       -0.59166234       8.05734728       7.06574831       26       0.00003462      -0.00022394      -0.00015011
I        3.81733328       8.04868558       1.75647509       27      -0.00001756       0.00038895       0.00018688
I       -6.47018831      13.99350570       1.78700052       28      -0.00000387       0.00040384      -0.00013114
I       -4.25213171      10.16266802       7.07594864       29      -0.00016219      -0.00034222       0.00011292
Cs      -3.02429571      13.42135533       8.83377231       30       0.00019579      -0.00021611       0.00001139
Cs       1.62514754      10.73758384       8.83233965       31      -0.00004377       0.00005959      -0.00006468
K       -3.01255473       8.05337558      13.25376686       32      -0.00023817       0.00008800      -0.00024292
In      -3.02498255       8.05285856       8.83880868       33      -0.00042677       0.00004201       0.00073029
I       -1.80415857      10.16614697      10.60209236       34      -0.00002531      -0.00016533      -0.00004537
I        0.42890487      13.99383354      15.89278279       35       0.00022752      -0.00003948       0.00012122
I       -0.56767275       8.05846533      15.89502328       36      -0.00010964      -0.00016999       0.00009101
I        3.84127441       8.04978569      10.58580775       37       0.00015876       0.00034160      -0.00006903
I       -6.44632090      13.99470139      10.61636530       38       0.00015406       0.00002867      -0.00019903
I       -4.22817668      10.16376266      15.90530295       39      -0.00013927      -0.00024038       0.00012727
Cs      10.94770271       5.37250267      17.62205824       40       0.00019579      -0.00030704      -0.00009046
Cs      15.59710713       2.68865128      17.62071170       41      -0.00008638       0.00001743      -0.00015669
K       10.91150697       0.00221308       4.38351902       42      -0.00028807       0.00008247      -0.00020520
In      10.89884842       0.00170637      -0.03124213       43       0.00009352       0.00037050      -0.00052557
I       12.11974594       2.11502390       1.73182212       44       0.00002815      -0.00006643       0.00005957
I       14.35284702       5.94268225       7.02259709       45       0.00026244       0.00002419      -0.00003138
I       13.35632124       0.00739370       7.02477638       46      -0.00010350      -0.00022858       0.00000994
I       17.76538841      -0.00129229       1.71560385       47      -0.00015258       0.00037520       0.00016430
I        7.47769773       5.94356027       1.74599128       48       0.00013071       0.00017777       0.00004545
I        9.69578630       2.11268500       7.03498714       49      -0.00012960      -0.00035385       0.00017752
Cs      10.92366436       5.37141979       8.79277926       50       0.00027107      -0.00031902       0.00001243
Cs      15.57315638       2.68760551       8.79141725       51      -0.00015145      -0.00000725      -0.00006029
K       10.93536095       0.00336417      13.21275493       52      -0.00023341       0.00009808      -0.00006898
In      10.92288415       0.00282930       8.79787998       53      -0.00002354       0.00030526       0.00054364
I       12.14374055       2.11612033      10.56117364       54       0.00002551      -0.00007506      -0.00017967
I       14.37693467       5.94394173      15.85190514       55       0.00003324      -0.00038079      -0.00006415
I       13.38032311       0.00844670      15.85401255       56      -0.00031799      -0.00018850       0.00024955
I       17.78929696      -0.00024285      10.54484761       57      -0.00021779       0.00035634       0.00008496
I        7.50172614       5.94464214      10.57534828       58       0.00007173       0.00022836      -0.00005377
I        9.71973910       2.11384870      15.86426256       59       0.00006859      -0.00061825       0.00040436
Cs       6.29918035      13.42408369      17.63656603       60       0.00029212      -0.00026458      -0.00012316
Cs      10.94864488      10.74017604      17.63504755       61      -0.00010472       0.00012532      -0.00015936
K        6.26302446       8.05374957       4.39789219       62      -0.00033215       0.00007489      -0.00026192
In       6.25041926       8.05333229      -0.01691177       63      -0.00017192      -0.00006386      -0.00028025
I        7.47127252      10.16646027       1.74615789       64       0.00018831       0.00025174       0.00026721
I        9.70442474      13.99441516       7.03697369       65      -0.00001784      -0.00049267      -0.00012291
I        8.70771441       8.05886766       7.03916071       66       0.00029712      -0.00015205      -0.00020413
I       13.11681809       8.05015605       1.72976116       67      -0.00029391       0.00034289       0.00042486
I        2.82924123      13.99501512       1.76032783       68      -0.00003655       0.00038176       0.00002722
I        5.04732758      10.16418367       7.04938440       69      -0.00018678      -0.00018589       0.00010674
Cs       6.27518046      13.42292157       8.80714274       70       0.00020588      -0.00023235      -0.00002475
Cs      10.92461131      10.73908949       8.80568775       71      -0.00004188       0.00008382      -0.00005194
K        6.28691464       8.05489640      13.22711856       72      -0.00029239       0.00000746      -0.00002348
In       6.27449460       8.05440255       8.81229458       73      -0.00053871      -0.00001665       0.00037477
I        7.49521681      10.16751953      10.57546349       74       0.00028429       0.00035657       0.00016765
I        9.72831460      13.99538224      15.86627388       75       0.00023888       0.00000911       0.00013419
I        8.73180772       8.05999804      15.86842404       76      -0.00010498      -0.00020679      -0.00003169
I       13.14067907       8.05126814      10.55915775       77       0.00044042       0.00040040      -0.00018006
I        2.85319342      13.99620162      10.58968170       78       0.00006014       0.00026974      -0.00024662
I        5.07135356      10.16535123      15.87873556       79      -0.00013198      -0.00032647       0.00011488
