80
Lattice="19.528245028257533 0.0 0.0 -9.764122514128763 16.911956285798187 0.0 0.0 0.0 18.540308974149276" Properties=species:S:1:pos:R:3 pbc="T T T"
Cs       2.09929444       5.63732076      -0.00006269
Cs       6.98135570       2.81866138      -0.00006269
K        2.09930572       0.00000200       4.63508620
In       2.09931847       0.00000200       0.00003981
I        3.37939854       2.21716245       1.85468264
I        5.70130343       6.23881969       7.41553482
I        2.56015637      -0.00000000       7.41550333
I        7.20396615      -0.00000000       1.85465116
I       -1.50269205       6.23884675       1.85466713
I        0.81921284       2.21718951       7.41551931
Cs       2.09929444       5.63732076       9.27009180
Cs       6.98135570       2.81866138       9.27009180
K        2.09930572       0.00000200      13.90524069
In       2.09931847       0.00000200       9.27019429
I        3.37939854       2.21716245      11.12483713
I        5.70130343       6.23881969      16.68568930
I        2.56015637      -0.00000000      16.68565782
I        7.20396615      -0.00000000      11.12480564
I       -1.50269205       6.23884675      11.12482162
I        0.81921284       2.21718951      16.68567379
Cs      -2.78276681      14.09329890      -0.00006269
Cs       2.09929444      11.27463952      -0.00006269
K       -2.78275553       8.45598014       4.63508620
In      -2.78274279       8.45598014       0.00003981
I       -1.50266271      10.67314059       1.85468264
I        0.81924218      14.69479783       7.41553482
I       -2.32190489       8.45597814       7.41550333
I        2.32190489       8.45597814       1.85465116
I       -6.38475331      14.69482489       1.85466713
I       -4.06284842      10.67316765       7.41551931
Cs      -2.78276681      14.09329890       9.27009180
Cs       2.09929444      11.27463952       9.27009180
K       -2.78275553       8.45598014      13.90524069
In      -2.78274279       8.45598014       9.27019429
I       -1.50266271      10.67314059      11.12483713
I        0.81924218      14.69479783      16.68568930
I       -2.32190489       8.45597814      16.68565782
I        2.32190489       8.45597814      11.12480564
I       -6.38475331      14.69482489      11.12482162
I       -4.06284842      10.67316765      16.68567379
Cs      11.86341696       5.63732076      -0.00006269
Cs      16.74547821       2.81866138      -0.00006269
K       11.86342824       0.00000200       4.63508620
In      11.86344098       0.00000200       0.00003981
I       13.14352106       2.21716245       1.85468264
I       15.46542595       6.23881969       7.41553482
I       12.32427888      -0.00000000       7.41550333
I       16.96808866      -0.00000000       1.85465116
I        8.26143046       6.23884675       1.85466713
I       10.58333535       2.21718951       7.41551931
Cs      11.86341696       5.63732076       9.27009180
Cs      16.74547821       2.81866138       9.27009180
K       11.86342824       0.00000200      13.90524069
In      11.86344098       0.00000200       9.27019429
I       13.14352106       2.21716245      11.12483713
I       15.46542595       6.23881969      16.68568930
I       12.32427888      -0.00000000      16.68565782
I       16.96808866      -0.00000000      11.12480564
I        8.26143046       6.23884675      11.12482162
I       10.58333535       2.21718951      16.68567379
Cs       6.98135570      14.09329890      -0.00006269
Cs      11.86341696      11.27463952      -0.00006269
K        6.98136698       8.45598014       4.63508620
In       6.98137972       8.45598014       0.00003981
I        8.26145980      10.67314059       1.85468264
I       10.58336469      14.69479783       7.41553482
I        7.44221762       8.45597814       7.41550333
I       12.08602740       8.45597814       1.85465116
I        3.37936921      14.69482489       1.85466713
I        5.70127410      10.67316765       7.41551931
Cs       6.98135570      14.09329890       9.27009180
Cs      11.86341696      11.27463952       9.27009180
K        6.98136698       8.45598014      13.90524069
In       6.98137972       8.45598014       9.27019429
I        8.26145980      10.67314059      11.12483713
I       10.58336469      14.69479783      16.68568930
I        7.44221762       8.45597814      16.68565782
I       12.08602740       8.45597814      11.12480564
I        3.37936921      14.69482489      11.12482162
I        5.70127410      10.67316765      16.68567379
