20
Lattice="19.17282929479022 2.2357937229243143 1.3603468430203218 5.938466154995361 10.004000042032484 -0.030812301053583315 5.919777213190775 3.4372331886757768 6.95917845942615" Properties=species:S:1:pos:R:3:spacegroup_kinds:I:1:forces:R:3 spacegroup="P 1" unit_cell=conventional occupancy="_JSON {\"0\": {\"Cs\": 1.0}, \"1\": {\"Cs\": 1.0}, \"2\": {\"K\": 1.0}, \"3\": {\"In\": 1.0}, \"4\": {\"I\": 1.0}, \"5\": {\"I\": 1.0}, \"6\": {\"I\": 1.0}, \"7\": {\"I\": 1.0}, \"8\": {\"I\": 1.0}, \"9\": {\"I\": 1.0}, \"10\": {\"Cs\": 1.0}, \"11\": {\"Cs\": 1.0}, \"12\": {\"K\": 1.0}, \"13\": {\"In\": 1.0}, \"14\": {\"I\": 1.0}, \"15\": {\"I\": 1.0}, \"16\": {\"I\": 1.0}, \"17\": {\"I\": 1.0}, \"18\": {\"I\": 1.0}, \"19\": {\"I\": 1.0}}" energy=-48.970379516639 free_energy=-48.970379516639 stress="-8.163052730556294e-07 -7.730585633161556e-07 -8.057104390810029e-07 -7.730585633161556e-07 1.1971051367517758e-06 -4.0397791308722237e-07 -8.057104390810029e-07 -4.0397791308722237e-07 6.818392393296663e-07" pbc="T T T"
Cs       5.86118518       4.52623503       1.86889604        0      -0.00014454       0.00013246      -0.00009511
Cs      15.74975619       9.78791848       5.80729470        1       0.00049322       0.00003724      -0.00036161
K       11.09825912       8.13169690       3.46777599        2       0.00019447       0.00002566      -0.00005946
In      18.65955051       1.57387485       1.20831856        3       0.00004811       0.00007547      -0.00022197
I        9.29438377       3.05903665       3.15222841        4      -0.00005155       0.00010284      -0.00069851
I       12.76678229      11.35141263       3.91338238        5      -0.00008724       0.00010031      -0.00024822
I       11.40239266       4.71838127       2.09937909        6      -0.00009091       0.00000239      -0.00035344
I        9.46556839      10.05117790       6.62983885        7      -0.00011118       0.00006191       0.00059780
I        7.87358794       7.95194634       1.75962797        8      -0.00038655       0.00001112       0.00018290
I       13.49929657       6.58546328       5.71121980        9      -0.00004817       0.00043325       0.00031990
Cs      15.44533264       5.64667982       2.54701503       10       0.00005793      -0.00032169      -0.00005401
Cs      25.33322175      10.91028117       6.48221255       11      -0.00032811       0.00009374       0.00028515
K       20.68710228       9.25122486       4.14305741       12      -0.00003531      -0.00005688      -0.00006836
In       9.07902801       0.45557799       0.52282701       13      -0.00008247      -0.00001703       0.00011730
I       18.88451824       4.18151228       3.82402851       14      -0.00005118      -0.00002697       0.00059822
I       22.35404569      12.46863553       4.58193446       15       0.00002628      -0.00011082       0.00014645
I       20.99071688       5.84116898       2.77044251       16       0.00004725      -0.00010563       0.00036336
I       19.04812234      11.17962320       7.31840553       17       0.00012081      -0.00005992      -0.00048269
I       17.46175346       9.06893922       2.44163555       18       0.00044344       0.00013596       0.00002842
I       23.08429005       7.70614055       6.38941441       19      -0.00001429      -0.00051341       0.00000388
