5
Lattice="6.387059926472626 -4.540740278157447e-10 -5.045481642197913e-16 -4.5407402789356444e-10 6.387059926472628 1.6696733957501405e-16 -5.042407592890836e-16 1.6714800863194837e-16 6.387059926366004" Properties=species:S:1:pos:R:3:spacegroup_kinds:I:1:forces:R:3 spacegroup="P 1" unit_cell=conventional occupancy="_JSON {\"0\": {\"Cs\": 1.0}, \"1\": {\"Pb\": 1.0}, \"2\": {\"I\": 1.0}, \"3\": {\"I\": 1.0}, \"4\": {\"I\": 1.0}}" energy=-13.980742427347545 free_energy=-13.980742427347545 stress="-1.9573068199787694e-07 -3.6062879862407177e-12 -1.3408227328997365e-17 -3.6062879862407177e-12 -1.9573068205222485e-07 4.283780180376473e-18 -1.3408227328997365e-17 4.283780180376473e-18 -1.9572978757881124e-07" pbc="T T T"
Cs       3.19358854       3.19347138       3.19352996        0       0.00000233      -0.00000233      -0.00000000
Pb       0.00000194      -0.00000194      -0.00000000        1       0.00000136      -0.00000136      -0.00000000
I        0.00000077      -0.00000078       3.19352996        2      -0.00000379       0.00000379       0.00000000
I        3.19353062      -0.00000078      -0.00000000        3       0.00000388       0.00000379       0.00000000
I        0.00000077       3.19352931      -0.00000000        4      -0.00000379      -0.00000388       0.00000000
