80
Lattice="17.78636262792718 0.6990717072026915 -0.15674815356101654 -0.6332526482304193 17.327922752872684 -4.014889781259736 0.12254066859767027 3.0262211128288046 12.467075509069206" Properties=species:S:1:pos:R:3:spacegroup_kinds:I:1:forces:R:3 spacegroup="P 1" unit_cell=conventional occupancy="_JSON {\"0\": {\"Cs\": 1.0}, \"1\": {\"Cs\": 1.0}, \"2\": {\"Cs\": 1.0}, \"3\": {\"Cs\": 1.0}, \"4\": {\"Pb\": 1.0}, \"5\": {\"Pb\": 1.0}, \"6\": {\"Pb\": 1.0}, \"7\": {\"Pb\": 1.0}, \"8\": {\"I\": 1.0}, \"9\": {\"I\": 1.0}, \"10\": {\"I\": 1.0}, \"11\": {\"I\": 1.0}, \"12\": {\"I\": 1.0}, \"13\": {\"I\": 1.0}, \"14\": {\"I\": 1.0}, \"15\": {\"I\": 1.0}, \"16\": {\"I\": 1.0}, \"17\": {\"I\": 1.0}, \"18\": {\"I\": 1.0}, \"19\": {\"I\": 1.0}, \"20\": {\"Cs\": 1.0}, \"21\": {\"Cs\": 1.0}, \"22\": {\"Cs\": 1.0}, \"23\": {\"Cs\": 1.0}, \"24\": {\"Pb\": 1.0}, \"25\": {\"Pb\": 1.0}, \"26\": {\"Pb\": 1.0}, \"27\": {\"Pb\": 1.0}, \"28\": {\"I\": 1.0}, \"29\": {\"I\": 1.0}, \"30\": {\"I\": 1.0}, \"31\": {\"I\": 1.0}, \"32\": {\"I\": 1.0}, \"33\": {\"I\": 1.0}, \"34\": {\"I\": 1.0}, \"35\": {\"I\": 1.0}, \"36\": {\"I\": 1.0}, \"37\": {\"I\": 1.0}, \"38\": {\"I\": 1.0}, \"39\": {\"I\": 1.0}, \"40\": {\"Cs\": 1.0}, \"41\": {\"Cs\": 1.0}, \"42\": {\"Cs\": 1.0}, \"43\": {\"Cs\": 1.0}, \"44\": {\"Pb\": 1.0}, \"45\": {\"Pb\": 1.0}, \"46\": {\"Pb\": 1.0}, \"47\": {\"Pb\": 1.0}, \"48\": {\"I\": 1.0}, \"49\": {\"I\": 1.0}, \"50\": {\"I\": 1.0}, \"51\": {\"I\": 1.0}, \"52\": {\"I\": 1.0}, \"53\": {\"I\": 1.0}, \"54\": {\"I\": 1.0}, \"55\": {\"I\": 1.0}, \"56\": {\"I\": 1.0}, \"57\": {\"I\": 1.0}, \"58\": {\"I\": 1.0}, \"59\": {\"I\": 1.0}, \"60\": {\"Cs\": 1.0}, \"61\": {\"Cs\": 1.0}, \"62\": {\"Cs\": 1.0}, \"63\": {\"Cs\": 1.0}, \"64\": {\"Pb\": 1.0}, \"65\": {\"Pb\": 1.0}, \"66\": {\"Pb\": 1.0}, \"67\": {\"Pb\": 1.0}, \"68\": {\"I\": 1.0}, \"69\": {\"I\": 1.0}, \"70\": {\"I\": 1.0}, \"71\": {\"I\": 1.0}, \"72\": {\"I\": 1.0}, \"73\": {\"I\": 1.0}, \"74\": {\"I\": 1.0}, \"75\": {\"I\": 1.0}, \"76\": {\"I\": 1.0}, \"77\": {\"I\": 1.0}, \"78\": {\"I\": 1.0}, \"79\": {\"I\": 1.0}}" energy=-225.13555429817768 free_energy=-225.13555429817768 stress="-2.363231424190683e-06 9.432580800799629e-07 1.8751214578421276e-06 9.432580800799629e-07 -4.486767969080779e-06 3.3762234937118286e-08 1.8751214578421276e-06 3.3762234937118286e-08 -1.801636609118391e-06" pbc="T T T"
Cs       5.35537808      10.64842172       0.83831416        0      -0.00007595       0.00045952      -0.00001478
Cs       0.84509173       5.90392354       1.91097646        1      -0.00010486      -0.00022665      -0.00024027
Cs       5.50877534       3.25848627       9.10944103        2       0.00006109       0.00016549       0.00028018
Cs      10.01782114       8.00160662       8.04034895        3       0.00000513      -0.00014107      -0.00008500
Pb       1.20556712       3.95976436      12.25093991        4      -0.00016141      -0.00031829       0.00022399
Pb       5.49373364       8.46687991      11.20799411        5      -0.00057003      -0.00042994       0.00006565
Pb       1.14325205       2.44636198       6.01761609        6       0.00008991      -0.00055059       0.00000716
Pb       5.43128296       6.95326255       4.97467183        7       0.00026514       0.00038904       0.00008990
I        3.54849224       8.10523761      -1.50474088        8      -0.00015028      -0.00030155      -0.00028747
I        2.69585114       3.66664516      -0.84903415        9       0.00022671       0.00014861      -0.00030593
I        9.68481423       2.32737082       2.75565359       10      -0.00010103      -0.00009937      -0.00036246
I        7.31742186       5.80231508      11.45260453       11      -0.00018319       0.00022194      -0.00003454
I        8.16966439      10.24025252      10.79981225       12      -0.00021839       0.00014045       0.00026255
I        5.72126909       5.90676782       1.92501651       13      -0.00013009      -0.00010951       0.00030444
I        2.64881257       8.44565351       4.25827207       14      -0.00015435      -0.00004062      -0.00019370
I        3.81820695       4.22008621       5.60784934       15       0.00018341       0.00009604      -0.00003486
I        1.17876408      11.57822238       7.19374962       16       0.00024046       0.00014611      -0.00018251
I        8.21253210       5.45977249       5.69292016       17       0.00031015       0.00012193       0.00016597
I        7.04387238       9.68597911       4.34024371       18       0.00004509      -0.00027165       0.00009373
I        5.14104559       8.00051543       8.02408244       19       0.00063168      -0.00009274      -0.00022825
Cs       5.67089119       1.98334638       2.84790689       20      -0.00038363       0.00016920      -0.00003471
Cs       0.52731017      14.56661725      -0.09430695       21      -0.00032188      -0.00022080      -0.00012436
Cs       5.19335373      11.92362031       7.10012465       22       0.00022909       0.00026197      -0.00023844
Cs       9.70238591      16.66687503       6.03067763       23       0.00018775      -0.00012435      -0.00006443
Pb       0.88868919      12.62370815      10.24354202       24       0.00021992      -0.00016141       0.00000349
Pb       5.17699313      17.13061953       9.20063004       25      -0.00026591       0.00017631      -0.00000203
Pb       0.82670690      11.11019283       4.01016723       26      -0.00000145      -0.00011490       0.00006319
Pb       5.11480341      15.61757911       2.96721297       27      -0.00035135      -0.00047149       0.00011759
I        3.23198878      16.76935402      -3.51283917       28       0.00002083      -0.00009604      -0.00026547
I        2.37935366      12.33095256      -2.85403503       29       0.00005528       0.00015311      -0.00001629
I        9.36987648      10.99338015       0.74775063       30       0.00011470       0.00023420      -0.00007996
I        7.00031142      14.46650442       9.44529334       31       0.00049036      -0.00050717       0.00036451
I        7.85291317      18.90369395       8.79017935       32      -0.00010798       0.00033836      -0.00032719
I        5.40631042      14.57277503      -0.08281384       33       0.00016191       0.00003175      -0.00038888
I        2.33227352      17.10992978       2.25006911       34       0.00020074      -0.00009137      -0.00009584
I        3.50154757      12.88388439       3.59778656       35      -0.00041148      -0.00061144      -0.00007013
I        1.49375233       2.91216491       9.20175020       36      -0.00006673      -0.00004546      -0.00002328
I        7.89558611      14.12372648       3.68597769       37       0.00072408      -0.00036318       0.00025929
I        6.72753550      18.35034874       2.33515618       38      -0.00008019       0.00026699       0.00033253
I        4.82280424      16.66233760       6.01697078       39       0.00024561      -0.00005390       0.00042497
Cs      14.24741555      10.99687710       0.76194794       40      -0.00026881       0.00018930       0.00019270
Cs       9.73711334       6.25223340       1.83470426       41      -0.00033746      -0.00034558       0.00003495
Cs      14.40314916       3.60929185       9.02901013       42       0.00032269       0.00021246       0.00003294
Cs       1.12582560       7.65329561       8.11660679       43       0.00022747      -0.00001435      -0.00012176
Pb      10.09868834       4.30919180      12.17264340       44      -0.00024044       0.00008371       0.00022667
Pb      14.38686288       8.81624301      11.12975807       45       0.00004946      -0.00005909      -0.00008358
Pb      10.03637084       2.79562664       5.93943003       46       0.00001373       0.00031532      -0.00041558
Pb      14.32450435       7.30266624       4.89653140       47      -0.00007927       0.00027465      -0.00011681
I       12.44184928       8.45501348      -1.58382056       48      -0.00012059      -0.00015185      -0.00023594
I       11.58924162       4.01676315      -0.92520939       49      -0.00037877      -0.00042423       0.00030721
I        0.79334177       1.97990681       2.83343075       50       0.00005048       0.00031483       0.00007588
I       16.21025246       6.15182509      11.37458611       51      -0.00024154       0.00012875       0.00009828
I       17.06272412      10.58940068      10.71906907       52      -0.00033421      -0.00004104      -0.00008949
I       14.61611309       6.25840384       1.84603486       53       0.00012598       0.00019961       0.00074688
I       11.54227916       8.79527796       4.17933969       54      -0.00012215       0.00006177      -0.00018533
I       12.71116020       4.56919036       5.52711922       55       0.00019896      -0.00015834      -0.00034771
I       10.07030272      11.92559108       7.11615939       56      -0.00008915      -0.00005629      -0.00022440
I       17.10547594       5.80897489       5.61517622       57       0.00009787       0.00046908       0.00019047
I       15.93708474      10.03574895       4.26443359       58       0.00056369       0.00040585       0.00013108
I       14.03258095       8.34789690       7.94633753       59       0.00030772      -0.00036281      -0.00057335
Cs      14.56519037       2.33410860       2.76732618       60      -0.00002447       0.00032035      -0.00005221
Cs       9.42166142      14.91751518      -0.17500111       61      -0.00014279      -0.00027525      -0.00007311
Cs      14.08533249      12.27200308       7.02364748       62       0.00007798       0.00012915       0.00020333
Cs       0.80799480      16.31599398       6.11127361       63       0.00009371      -0.00003677       0.00004931
Pb       9.78199216      12.97296595      10.16534595       64       0.00000747       0.00051191      -0.00034849
Pb      14.07000486      17.48016136       9.12220142       65       0.00045420       0.00023438       0.00006535
Pb       9.72007196      11.45963438       3.93175007       66      -0.00076239       0.00022417       0.00037520
Pb      14.00800112      15.96691902       2.88886167       67      -0.00027863      -0.00010992       0.00003770
I       12.12501367      17.11858549      -3.59054425       68      -0.00019299      -0.00002416      -0.00026176
I       11.27242948      12.68014203      -2.93479450       69      -0.00016235      -0.00032019      -0.00023436
I        0.47505120      10.64190577       0.82634160       70      -0.00023235      -0.00004719       0.00048733
I       15.89394558      14.81600768       9.36666385       71      -0.00020810      -0.00003243      -0.00002150
I       16.74633868      19.25376863       8.71399067       72      -0.00067140       0.00000427       0.00029028
I       14.29781425      14.92016408      -0.16052841       73      -0.00015176      -0.00016746      -0.00035921
I       11.22520780      17.45926350       2.17228924       74       0.00047048      -0.00044817       0.00000418
I       12.39471179      13.23356827       3.52200725       75       0.00033692       0.00023380      -0.00002730
I       10.38857796       3.26379520       9.12272548       76       0.00023567       0.00027662       0.00058134
I       16.78921327      14.47309995       3.60725770       77      -0.00006273       0.00040136       0.00006115
I       15.62045478      18.69936646       2.25456241       78       0.00002270      -0.00004771      -0.00006235
I       13.71761789      17.01399821       5.93815963       79       0.00057634       0.00005400       0.00028366
