80
Lattice="18.81449234895404 0.0 0.0 -1.3656659392462367 15.18738117914288 0.0 0.05640964845527834 5.0347318759622475 10.488767822854657" Properties=species:S:1:pos:R:3 pbc="T T T"
Cs       4.93998764       9.04085239       2.62219189
Cs       1.09206249       5.24436473       2.62219189
Cs       6.05895747       5.14657390       7.86657580
Cs       9.90699969       8.94377682       7.86657580
Pb       1.10904143       0.77975795      -0.00000430
Pb       5.47128322       4.57641910      -0.00001432
Pb       1.13724625       3.29712388       5.24438807
Pb       5.49948804       7.09378504       5.24439810
I        2.45464391       6.29588511       0.43571968
I        3.85882688       2.49901111       0.43605742
I        9.72714753       2.11015790       2.62219189
I        8.54432899       7.89190082      10.05259607
I        7.14015509      11.68871741      10.05293382
I        6.27570260       5.90663703       2.62219189
I        2.47815962       8.39473291       4.80866410
I        3.88234259       4.59785891       4.80832635
I        1.27173131      12.07799326       7.86657580
I        8.52081328       5.79305302       5.68055553
I        7.11663939       9.58986961       5.68021778
I        4.72320654       8.28078181       7.86657580
Cs       4.25715467      16.63454298       2.62219189
Cs       0.40922952      12.83805532       2.62219189
Cs       5.37612450      12.74026449       7.86657580
Cs       9.22416672      16.53746741       7.86657580
Pb       0.42620846       8.37344853      -0.00000430
Pb       4.78845025      12.17010969      -0.00001432
Pb       0.45441328      10.89081447       5.24438807
Pb       4.81665507      14.68747563       5.24439810
I        1.77181094      13.88957570       0.43571968
I        3.17599391      10.09270170       0.43605742
I        9.04431456       9.70384849       2.62219189
I        7.86149602      15.48559141      10.05259607
I        6.45732212      19.28240800      10.05293382
I        5.59286964      13.50032762       2.62219189
I        1.79532665      15.98842350       4.80866410
I        3.19950962      12.19154950       4.80832635
I        0.58889834      19.67168385       7.86657580
I        7.83798031      13.38674361       5.68055553
I        6.43380642      17.18356020       5.68021778
I        4.04037357      15.87447240       7.86657580
Cs      14.34723381       9.04085239       2.62219189
Cs      10.49930867       5.24436473       2.62219189
Cs      15.46620364       5.14657390       7.86657580
Cs      19.31424586       8.94377682       7.86657580
Pb      10.51628760       0.77975795      -0.00000430
Pb      14.87852939       4.57641910      -0.00001432
Pb      10.54449243       3.29712388       5.24438807
Pb      14.90673422       7.09378504       5.24439810
I       11.86189009       6.29588511       0.43571968
I       13.26607306       2.49901111       0.43605742
I       19.13439371       2.11015790       2.62219189
I       17.95157516       7.89190082      10.05259607
I       16.54740127      11.68871741      10.05293382
I       15.68294878       5.90663703       2.62219189
I       11.88540579       8.39473291       4.80866410
I       13.28958876       4.59785891       4.80832635
I       10.67897749      12.07799326       7.86657580
I       17.92805946       5.79305302       5.68055553
I       16.52388556       9.58986961       5.68021778
I       14.13045271       8.28078181       7.86657580
Cs      13.66440084      16.63454298       2.62219189
Cs       9.81647570      12.83805532       2.62219189
Cs      14.78337067      12.74026449       7.86657580
Cs      18.63141289      16.53746741       7.86657580
Pb       9.83345463       8.37344853      -0.00000430
Pb      14.19569642      12.17010969      -0.00001432
Pb       9.86165946      10.89081447       5.24438807
Pb      14.22390125      14.68747563       5.24439810
I       11.17905712      13.88957570       0.43571968
I       12.58324009      10.09270170       0.43605742
I       18.45156074       9.70384849       2.62219189
I       17.26874219      15.48559141      10.05259607
I       15.86456830      19.28240800      10.05293382
I       15.00011581      13.50032762       2.62219189
I       11.20257282      15.98842350       4.80866410
I       12.60675579      12.19154950       4.80832635
I        9.99614452      19.67168385       7.86657580
I       17.24522649      13.38674361       5.68055553
I       15.84105259      17.18356020       5.68021778
I       13.44761974      15.87447240       7.86657580
