20
Lattice="18.584594300521765 0.6668009249631695 0.18978256637317864 -4.946312005541201 7.589687907249389 2.098178371955972 -0.002488974151036399 -2.3538202876413683 8.509125664453284" Properties=species:S:1:pos:R:3:spacegroup_kinds:I:1:forces:R:3 spacegroup="P 1" unit_cell=conventional occupancy="_JSON {\"0\": {\"Cs\": 1.0}, \"1\": {\"Cs\": 1.0}, \"2\": {\"K\": 1.0}, \"3\": {\"In\": 1.0}, \"4\": {\"I\": 1.0}, \"5\": {\"I\": 1.0}, \"6\": {\"I\": 1.0}, \"7\": {\"I\": 1.0}, \"8\": {\"I\": 1.0}, \"9\": {\"I\": 1.0}, \"10\": {\"Cs\": 1.0}, \"11\": {\"Cs\": 1.0}, \"12\": {\"K\": 1.0}, \"13\": {\"In\": 1.0}, \"14\": {\"I\": 1.0}, \"15\": {\"I\": 1.0}, \"16\": {\"I\": 1.0}, \"17\": {\"I\": 1.0}, \"18\": {\"I\": 1.0}, \"19\": {\"I\": 1.0}}" energy=-51.58763305407505 free_energy=-51.58763305407505 stress="9.551568243243686e-08 6.47641372998946e-07 2.000481714878891e-07 6.47641372998946e-07 1.8154228124630274e-06 6.412241868112471e-08 2.000481714878891e-07 6.412241868112471e-08 5.261303986685588e-07" pbc="T T T"
Cs       5.30214289       0.11193886       9.17545034        0      -0.00057872       0.00052064      -0.00020009
Cs       0.55822009       4.87528519       1.36698531        1      -0.00042489       0.00055442      -0.00006999
K       -4.18970021       6.12223710       6.27240295        2       0.00018735       0.00001012       0.00024968
In      -4.18842031       7.29933742       2.01790251        3       0.00018323       0.00006482      -0.00024651
I        2.66655476       7.08462345       3.79343580        4       0.00006243       0.00017318      -0.00008103
I       -1.75339770       5.49296664       8.84668062        5      -0.00002142       0.00014667       0.00002205
I        1.90676592       1.31121463       2.19582593        6      -0.00007304      -0.00044732       0.00005294
I        3.95253009       3.67733697       8.34598774        7       0.00025383      -0.00015820       0.00007920
I        6.39100624       5.16622376       3.26351861        8       0.00020919      -0.00027346       0.00014337
I       -0.53168609      -0.17740094       7.27805993        9       0.00018571      -0.00051895       0.00014749
Cs      14.59443850       0.44534191       9.27034442       10      -0.00056263       0.00050267      -0.00020952
Cs       9.85051871       5.20868300       1.46187375       11      -0.00044070       0.00057264      -0.00006055
K        5.10259593       6.45563864       6.36729138       12       0.00019122      -0.00001977       0.00027804
In       5.10387020       7.63276053       2.11283270       13       0.00021066      -0.00005219      -0.00046992
I       11.95884570       7.41802580       3.88833335       14       0.00010239       0.00017463      -0.00011589
I        7.53890548       5.82636533       8.94156594       15      -0.00006036       0.00014521       0.00005576
I       11.19905948       1.64460614       2.29070381       16      -0.00004091      -0.00039279       0.00013133
I       13.24483063       4.01074582       8.44089155       17       0.00022245      -0.00021120       0.00000325
I       -2.90129137       4.83282393       3.16862695       18       0.00021088      -0.00028310       0.00014794
I        8.76061168       0.15599869       7.37295160       19       0.00018332      -0.00050802       0.00014245
