40
Lattice="17.623682658178055 -1.239771738085742 2.3982085507628397 -5.092348785844826 9.415775609966857 -1.9266342623876442 -6.939435922660589 3.1372848908784863 12.272283248132219" Properties=species:S:1:pos:R:3:spacegroup_kinds:I:1:forces:R:3 spacegroup="P 1" unit_cell=conventional occupancy="_JSON {\"0\": {\"Cs\": 1.0}, \"1\": {\"Cs\": 1.0}, \"2\": {\"Cs\": 1.0}, \"3\": {\"Cs\": 1.0}, \"4\": {\"Pb\": 1.0}, \"5\": {\"Pb\": 1.0}, \"6\": {\"Pb\": 1.0}, \"7\": {\"Pb\": 1.0}, \"8\": {\"I\": 1.0}, \"9\": {\"I\": 1.0}, \"10\": {\"I\": 1.0}, \"11\": {\"I\": 1.0}, \"12\": {\"I\": 1.0}, \"13\": {\"I\": 1.0}, \"14\": {\"I\": 1.0}, \"15\": {\"I\": 1.0}, \"16\": {\"I\": 1.0}, \"17\": {\"I\": 1.0}, \"18\": {\"I\": 1.0}, \"19\": {\"I\": 1.0}, \"20\": {\"Cs\": 1.0}, \"21\": {\"Cs\": 1.0}, \"22\": {\"Cs\": 1.0}, \"23\": {\"Cs\": 1.0}, \"24\": {\"Pb\": 1.0}, \"25\": {\"Pb\": 1.0}, \"26\": {\"Pb\": 1.0}, \"27\": {\"Pb\": 1.0}, \"28\": {\"I\": 1.0}, \"29\": {\"I\": 1.0}, \"30\": {\"I\": 1.0}, \"31\": {\"I\": 1.0}, \"32\": {\"I\": 1.0}, \"33\": {\"I\": 1.0}, \"34\": {\"I\": 1.0}, \"35\": {\"I\": 1.0}, \"36\": {\"I\": 1.0}, \"37\": {\"I\": 1.0}, \"38\": {\"I\": 1.0}, \"39\": {\"I\": 1.0}}" energy=-111.22033837111252 free_energy=-111.22033837111252 stress="5.030856475489365e-06 -4.0772914538700275e-06 5.4250655523019735e-06 -4.0772914538700275e-06 1.2737346767497849e-06 -9.565500624902116e-07 5.4250655523019735e-06 -9.565500624902116e-07 -1.0178686479555503e-06" pbc="T T T"
Cs      -1.72998325       7.67326177       1.55048029        0       0.00009430      -0.00037783      -0.00071357
Cs      -3.20418737       3.35941779       2.36115424        1       0.00019650      -0.00006788       0.00033901
Cs      -1.38507693       2.99437154       9.85808809        2      -0.00007547       0.00038232       0.00024562
Cs      -0.59226976       7.77008659       9.47016535        3       0.00018860      -0.00005438      -0.00016387
Pb      -0.46820313      -0.69477746       0.18720690        4      -0.00025223      -0.00015504      -0.00022379
Pb       1.68842753       3.55828892      -0.41307849        5       0.00014010      -0.00029174      -0.00053657
Pb      12.53232162       2.00296401       9.32120036        6      -0.00005782      -0.00027728       0.00044135
Pb       0.67844835       6.48903345       4.91482943        7       0.00020365      -0.00019747      -0.00011899
I       -4.38173532       5.82293001      -0.71595035        8       0.00014350       0.00023504       0.00021330
I        2.52478146       0.59364885       0.61391798        9      -0.00023506       0.00007387       0.00016210
I        7.10182818      -0.79890232       4.19804660       10       0.00009612      -0.00052051      -0.00000566
I        0.57502241       4.83239604      12.59255302       11      -0.00024957       0.00059789       0.00012833
I       -6.41640750       9.61422412      10.76558127       12      -0.00053952      -0.00012246       0.00003855
I        0.58421035       4.31280168       2.66781072       13       0.00042155      -0.00038500      -0.00027647
I       -7.99733398      10.28373387       5.17526538       14      -0.00045394       0.00036050      -0.00017039
I        1.28714151       4.98114877       7.58148637       15      -0.00031568       0.00036421       0.00006101
I      -11.85775524      11.22876477       7.13003162       16       0.00007640      -0.00011155      -0.00038861
I        6.49804745       5.56643057       6.32225795       17      -0.00004222       0.00004244      -0.00003097
I       -2.42341711      10.84641142       3.62870905       18      -0.00021807      -0.00002990       0.00004997
I       -3.92993401       5.82969585       9.13188850       19       0.00068484       0.00019257       0.00030214
Cs       7.08218248       7.05340997       2.74962278       20      -0.00006906      -0.00030902      -0.00058478
Cs       5.60827151       2.73935797       3.56109538       21       0.00009304       0.00034991       0.00036646
Cs       7.42647305       2.37451153      11.05709209       22       0.00014995       0.00043021       0.00031892
Cs       8.21939781       7.15033299      10.66898591       23       0.00007352       0.00000868      -0.00017869
Pb       8.34371088      -1.31495509       1.38637982       24      -0.00037291      -0.00003550       0.00008059
Pb      10.49995908       2.93846250       0.78607600       25       0.00028155      -0.00023739      -0.00024449
Pb       3.72046793       2.62242898       8.12232256       26      -0.00020823       0.00042066       0.00029912
Pb       9.49098426       5.86964228       6.11388884       27       0.00013563      -0.00006733       0.00032126
I        4.43040662       5.20284377       0.48348351       28      -0.00006401       0.00026806       0.00015522
I       11.33658219      -0.02606397       1.81318931       29      -0.00024621      -0.00000806       0.00018457
I       15.91385191      -1.41896183       5.39731487       30       0.00009168       0.00019774      -0.00023228
I        9.38711281       4.21278614      13.79104323       31      -0.00025093       0.00055075       0.00050972
I        2.39535830       8.99455912      11.96484892       32      -0.00068565      -0.00021604      -0.00025578
I        9.39635248       3.69320388       3.86697484       33       0.00031979      -0.00055546      -0.00037574
I        0.81396980       9.66394447       6.37415783       34       0.00042645      -0.00039500       0.00006992
I       10.09894833       4.36149767       8.78069904       35       0.00006963      -0.00012447       0.00019589
I       -3.04579711      10.60845779       8.32925043       36      -0.00019127      -0.00018134      -0.00019766
I       15.30919085       4.94553995       7.52103769       37      -0.00002855       0.00023404       0.00014827
I        6.38829596      10.22681194       4.82768315       38       0.00000468      -0.00007018       0.00023573
I        4.88170369       5.20977036      10.33122932       39       0.00066491       0.00008197      -0.00016875
