40
Lattice="11.927863986384718 2.6665206495646068 -3.073287828228697 -2.9446467220013566 12.266645222806513 -0.7859925739212619 3.4715899342711216 1.602918405974976 12.009158637969453" Properties=species:S:1:pos:R:3:spacegroup_kinds:I:1:forces:R:3 spacegroup="P 1" unit_cell=conventional occupancy="_JSON {\"0\": {\"Cs\": 1.0}, \"1\": {\"Pb\": 1.0}, \"2\": {\"I\": 1.0}, \"3\": {\"I\": 1.0}, \"4\": {\"I\": 1.0}, \"5\": {\"Cs\": 1.0}, \"6\": {\"Pb\": 1.0}, \"7\": {\"I\": 1.0}, \"8\": {\"I\": 1.0}, \"9\": {\"I\": 1.0}, \"10\": {\"Cs\": 1.0}, \"11\": {\"Pb\": 1.0}, \"12\": {\"I\": 1.0}, \"13\": {\"I\": 1.0}, \"14\": {\"I\": 1.0}, \"15\": {\"Cs\": 1.0}, \"16\": {\"Pb\": 1.0}, \"17\": {\"I\": 1.0}, \"18\": {\"I\": 1.0}, \"19\": {\"I\": 1.0}, \"20\": {\"Cs\": 1.0}, \"21\": {\"Pb\": 1.0}, \"22\": {\"I\": 1.0}, \"23\": {\"I\": 1.0}, \"24\": {\"I\": 1.0}, \"25\": {\"Cs\": 1.0}, \"26\": {\"Pb\": 1.0}, \"27\": {\"I\": 1.0}, \"28\": {\"I\": 1.0}, \"29\": {\"I\": 1.0}, \"30\": {\"Cs\": 1.0}, \"31\": {\"Pb\": 1.0}, \"32\": {\"I\": 1.0}, \"33\": {\"I\": 1.0}, \"34\": {\"I\": 1.0}, \"35\": {\"Cs\": 1.0}, \"36\": {\"Pb\": 1.0}, \"37\": {\"I\": 1.0}, \"38\": {\"I\": 1.0}, \"39\": {\"I\": 1.0}}" energy=-113.01605224834356 free_energy=-113.01605224834356 stress="-3.3927264977865703e-07 -1.7746999758539376e-07 3.0038601446727594e-07 -1.7746999758539376e-07 -1.3254491121471746e-08 5.946628630037353e-08 3.0038601446727594e-07 5.946628630037353e-08 4.6520176529852327e-07" pbc="T T T"
Cs       2.14011743       3.33112283       2.03087608        0       0.00057813      -0.00014898      -0.00006617
Pb      -0.25530467      -0.62314049       0.13399730        1      -0.00010078      -0.00003652      -0.00015199
I       10.55573265       7.92807825      -0.09903428        2       0.00020744       0.00015467      -0.00002083
I        3.00334996      -0.38945892       0.05172031        3      -0.00016881       0.00022420       0.00046058
I       -0.56389727       2.50840004      -0.65901921        4       0.00041715       0.00006913      -0.00015800
Cs       4.11172290       4.15980148       7.62287262        5      -0.00004850       0.00010684      -0.00002500
Pb       1.48246876       0.17854572       6.13762980        6      -0.00019121      -0.00011710      -0.00023117
I       13.31207330      10.02947041       5.44397045        7       0.00063987       0.00011665      -0.00003784
I        4.18636428       1.27698996       4.67972554        8       0.00010557       0.00033217       0.00024361
I        0.46017373       3.22064128       6.62028434        9       0.00004465      -0.00003372      -0.00010400
Cs       2.10353962       9.82542567       1.91686109       10      -0.00035204       0.00016197       0.00019268
Pb      -1.72895875       5.51087825      -0.25879664       11      -0.00001362      -0.00008559      -0.00006442
I        8.84007609      15.08261902      -0.55825254       12      -0.00006900      -0.00014474       0.00013694
I        1.28487925       6.76622936      -0.40409137       13       0.00024339      -0.00005704      -0.00060175
I       -2.89664708       8.51158028       0.14153820       14      -0.00003867       0.00012588      -0.00002385
Cs       3.60613107      10.59579142       8.33404986       15      -0.00077971       0.00016043       0.00026998
Pb       0.00825791       6.31260527       5.74495630       16       0.00039559       0.00014010       0.00034867
I       12.08789709      15.14190985       5.11531697       17       0.00019221      -0.00071339      -0.00008438
I        2.95970453       6.38872314       4.35475117       18      -0.00062178      -0.00016258       0.00003691
I       -0.43923073       9.40423463       4.86649988       19      -0.00033450      -0.00000693      -0.00030500
Cs       8.33870480       4.69299548       0.07933948       20      -0.00005023      -0.00054264       0.00002190
Pb       5.70824166       0.71017196      -1.40375143       21       0.00009720       0.00012863       0.00026915
I        5.61644387       7.89458371       0.97511793       22      -0.00033140      -0.00038099      -0.00008728
I        8.41261825       1.80837680      -2.85999435       23       0.00018932      -0.00024997       0.00010058
I        4.68560458       3.75119592      -0.91672172       24      -0.00023476       0.00003702       0.00013910
Cs       9.84611699       5.46514962       6.49602611       25      -0.00037271       0.00014677      -0.00015198
Pb       7.44563359       1.51217063       4.59957416       26      -0.00025396       0.00017087       0.00025724
I        6.33049375       7.39432060       7.44176371       27      -0.00003802       0.00067863       0.00022586
I       10.70525160       1.74742010       4.52077242       28      -0.00016960       0.00014834      -0.00023665
I        7.14083793       4.64412345       3.80785763       29       0.00020452      -0.00036664      -0.00029432
Cs       7.83490674      11.12973841       0.79704020       30       0.00009940      -0.00001260      -0.00012783
Pb       4.23598952       6.84224138      -1.79515666       31      -0.00025123      -0.00007788      -0.00029249
I        4.38966854      13.00667823       0.64680806       32      -0.00018637       0.00000727      -0.00009935
I        7.18449895       6.91926249      -3.18672313       33       0.00043121       0.00045127      -0.00011539
I        3.78478392       9.93444270      -2.67119625       34      -0.00015063       0.00000052       0.00014212
Cs       9.79732718      11.96040601       6.38912935       35       0.00085528       0.00008955      -0.00012709
Pb       5.97271934       7.64487675       4.20822561       36       0.00027253      -0.00014426      -0.00014055
I        4.61377073      14.54985317       6.98235144       37      -0.00035103       0.00028460      -0.00004320
I        8.98709662       8.90330629       4.06284826       38       0.00004695      -0.00065847       0.00016307
I        4.80724164      10.64689388       4.60664220       39       0.00008814       0.00020452       0.00058215
