40
Lattice="11.87605854237136 0.0 0.0 -3.7609895638013966 10.563128451341004 0.0 2.876983675006186 3.510795269925832 10.168842772057982" Properties=species:S:1:pos:R:3:oxi_states:R:1 pbc="T T T"
Cs       2.74833801       3.51815608       2.54221069       1.00000000
Pb      -0.00000000      -0.00000000       0.00000000       2.00000000
I       -2.24997662       3.84691574       2.54221280      -1.00000000
I        2.96901464       0.00000000      -0.00000000      -1.00000000
I       -0.94024739       2.64078211       0.00000000      -1.00000000
Cs       4.18682985       5.27355372       7.62663208       1.00000000
Pb       1.43849184       1.75539763       5.08442139       2.00000000
I       -0.81148479       5.60231337       7.62663418      -1.00000000
I        4.40750647       1.75539763       5.08442139      -1.00000000
I        0.49824445       4.39617975       5.08442139      -1.00000000
Cs       0.86784323       8.79972031       2.54221069       1.00000000
Pb      -1.88049478       5.28156423       0.00000000       2.00000000
I       -4.13047140       9.12847996       2.54221280      -1.00000000
I        1.08851985       5.28156423      -0.00000000      -1.00000000
I       -2.82074217       7.92234634       0.00000000      -1.00000000
Cs       2.30633507      10.55511794       7.62663208       1.00000000
Pb      -0.44200294       7.03696186       5.08442139       2.00000000
I       -2.69197957      10.88387760       7.62663418      -1.00000000
I        2.52701169       7.03696186       5.08442139      -1.00000000
I       -1.38225034       9.67774397       5.08442139      -1.00000000
Cs       8.68636728       3.51815608       2.54221069       1.00000000
Pb       5.93802927      -0.00000000       0.00000000       2.00000000
I        3.68805265       3.84691574       2.54221280      -1.00000000
I        8.90704391       0.00000000      -0.00000000      -1.00000000
I        4.99778188       2.64078211       0.00000000      -1.00000000
Cs      10.12485912       5.27355372       7.62663208       1.00000000
Pb       7.37652111       1.75539763       5.08442139       2.00000000
I        5.12654449       5.60231337       7.62663418      -1.00000000
I       10.34553574       1.75539763       5.08442139      -1.00000000
I        6.43627372       4.39617975       5.08442139      -1.00000000
Cs       6.80587250       8.79972031       2.54221069       1.00000000
Pb       4.05753449       5.28156423       0.00000000       2.00000000
I        1.80755787       9.12847996       2.54221280      -1.00000000
I        7.02654912       5.28156423      -0.00000000      -1.00000000
I        3.11728710       7.92234634       0.00000000      -1.00000000
Cs       8.24436434      10.55511794       7.62663208       1.00000000
Pb       5.49602633       7.03696186       5.08442139       2.00000000
I        3.24604970      10.88387760       7.62663418      -1.00000000
I        8.46504096       7.03696186       5.08442139      -1.00000000
I        4.55577894       9.67774397       5.08442139      -1.00000000
