5
Lattice="6.12329795164512 -1.29600018830904 1.2713711815327111 1.3958559199196068 6.220973745172336 -0.3817271115250797 -1.1623306291306046 0.6442238813278062 6.247586763620075" Properties=species:S:1:pos:R:3:spacegroup_kinds:I:1:forces:R:3 spacegroup="P 1" unit_cell=conventional occupancy="_JSON {\"0\": {\"Cs\": 1.0}, \"1\": {\"Pb\": 1.0}, \"2\": {\"I\": 1.0}, \"3\": {\"I\": 1.0}, \"4\": {\"I\": 1.0}}" energy=-13.98074244477859 free_energy=-13.98074244477859 stress="-5.3819957403687445e-06 5.210747170223382e-07 -7.243839472363593e-06 5.210747170223382e-07 1.832586225649437e-07 2.0968521314558396e-06 -7.243839472363593e-06 2.0968521314558396e-06 5.271305546846876e-06" pbc="T T T"
Cs       3.17732238       2.78649536       3.56770128        0      -0.00008500       0.00016275      -0.00007156
Pb       0.00008520      -0.00003381       0.00002137        1       0.00011502      -0.00019414       0.00010488
I       -0.58044112       0.32054129       3.12421741        2       0.00009163      -0.00008396      -0.00007532
I        3.06205731      -0.64822825       0.63579578        3      -0.00029959      -0.00007488       0.00000224
I        0.69808493       3.11006857      -0.19041546        4       0.00017795       0.00019023       0.00003976
