10
Lattice="12.774135555068753 -9.900407302393884e-11 -1.045719019441135e-16 -4.9502037054371005e-11 6.387067777534457 1.7040499039597175e-17 -5.209037107357732e-17 1.706862178771486e-17 6.387067777511229" Properties=species:S:1:pos:R:3:spacegroup_kinds:I:1:forces:R:3 spacegroup="P 1" unit_cell=conventional occupancy="_JSON {\"0\": {\"Cs\": 1.0}, \"1\": {\"Pb\": 1.0}, \"2\": {\"I\": 1.0}, \"3\": {\"I\": 1.0}, \"4\": {\"I\": 1.0}, \"5\": {\"Cs\": 1.0}, \"6\": {\"Pb\": 1.0}, \"7\": {\"I\": 1.0}, \"8\": {\"I\": 1.0}, \"9\": {\"I\": 1.0}}" energy=-27.961484854592566 free_energy=-27.961484854592566 stress="1.723896830004255e-07 -5.14074834685964e-13 -3.833090106251664e-18 -5.14074834685964e-13 1.723896850245274e-07 4.665523487287382e-18 -3.833090106251664e-18 4.665523487287382e-18 1.7239157820285299e-07" pbc="T T T"
Cs       3.19356908       3.19349869       3.19353389        0       0.00000205      -0.00000205      -0.00000000
Pb       0.00000068      -0.00000068      -0.00000000        1       0.00000353      -0.00000353      -0.00000000
I       -0.00000399       0.00000399       3.19353389        2      -0.00000098       0.00000098      -0.00000000
I        3.19353646       0.00000399       0.00000000        3      -0.00000362       0.00000098       0.00000000
I       -0.00000399       3.19353132       0.00000000        4      -0.00000098       0.00000362       0.00000000
Cs       9.58063686       3.19349869       3.19353389        5       0.00000205      -0.00000205      -0.00000000
Pb       6.38706846      -0.00000068      -0.00000000        6       0.00000353      -0.00000353      -0.00000000
I        6.38706379       0.00000399       3.19353389        7      -0.00000098       0.00000098       0.00000000
I        9.58060423       0.00000399       0.00000000        8      -0.00000362       0.00000098       0.00000000
I        6.38706379       3.19353132       0.00000000        9      -0.00000098       0.00000362       0.00000000
