20
Lattice="12.507983561331717 2.6652674791951694 0.9750307674247133 -2.506468874775442 12.545516445273998 0.33430807082907094 -0.4441806059860969 -0.25793935598065076 6.3725380077811264" Properties=species:S:1:pos:R:3:spacegroup_kinds:I:1:forces:R:3 spacegroup="P 1" unit_cell=conventional occupancy="_JSON {\"0\": {\"Cs\": 1.0}, \"1\": {\"Pb\": 1.0}, \"2\": {\"I\": 1.0}, \"3\": {\"I\": 1.0}, \"4\": {\"I\": 1.0}, \"5\": {\"Cs\": 1.0}, \"6\": {\"Pb\": 1.0}, \"7\": {\"I\": 1.0}, \"8\": {\"I\": 1.0}, \"9\": {\"I\": 1.0}, \"10\": {\"Cs\": 1.0}, \"11\": {\"Pb\": 1.0}, \"12\": {\"I\": 1.0}, \"13\": {\"I\": 1.0}, \"14\": {\"I\": 1.0}, \"15\": {\"Cs\": 1.0}, \"16\": {\"Pb\": 1.0}, \"17\": {\"I\": 1.0}, \"18\": {\"I\": 1.0}, \"19\": {\"I\": 1.0}}" energy=-55.93766101032872 free_energy=-55.93766101032872 stress="2.134179780017724e-06 1.4722349663106623e-06 -3.0568172831688215e-06 1.4722349663106623e-06 1.0492268935167573e-06 1.3017150969551405e-06 -3.0568172831688215e-06 1.3017150969551405e-06 -1.0990584033698292e-06" pbc="T T T"
Cs       1.98781392       3.43593257       3.48453281        0       0.00025442      -0.00007470      -0.00011703
Pb      -0.00171515       0.00339566       0.00006219        1      -0.00018215       0.00035730      -0.00000348
I       -0.08684434      -0.08771371       3.19712303        2      -0.00041202      -0.00034846       0.00003967
I        3.14962378       0.80302091       0.25319666        3      -0.00049290       0.00024310      -0.00030465
I       12.01600121       5.85784562       1.06732714        4       0.00045452      -0.00013640       0.00036490
Cs       0.73459301       9.70870376       3.65169015        5       0.00020240      -0.00014403      -0.00012570
Pb      11.25302721       8.94148715       1.14227248        6       0.00019283       0.00014226      -0.00001398
I       11.16792461       8.85031567       4.33930047        7      -0.00048618      -0.00033222       0.00006280
I        1.89629716       7.07571865       0.42033363        8      -0.00010082       0.00039716      -0.00027309
I       10.76275942      12.13058631       1.23448354        9       0.00044844      -0.00012577       0.00036339
Cs       8.24183796       4.76859129       3.97205641       10       0.00017555      -0.00017589      -0.00012898
Pb       6.25219973       1.33595789       0.48756983       11       0.00015835       0.00076141       0.00002942
I        6.16714517       1.24492293       3.68462900       12      -0.00042466      -0.00037596       0.00005217
I        9.40357667       2.13562721       0.74072000       13      -0.00011532       0.00034202      -0.00027857
I        5.76196478       4.52508203       0.57979414       14       0.00036067       0.00044880       0.00038219
Cs       6.98858440      11.04132951       4.13920741       15       0.00021728      -0.00006008      -0.00012197
Pb       4.99914822       7.60896225       0.65478724       16      -0.00027671      -0.00034492      -0.00009380
I        4.91392137       7.51767245       3.85177214       17      -0.00044868      -0.00030391       0.00009655
I        8.15025927       8.40833714       0.90784671       18      -0.00008367       0.00038263      -0.00027501
I        4.50879288      10.79805244       0.74697862       19       0.00055866      -0.00065236       0.00034517
