40
Lattice="18.444294747705158 0.05903474949470804 0.09298128080430262 9.290216269508152 15.973368706783683 0.07812849519112951 4.6416061769592964 2.677602480090411 6.968712295427938" Properties=species:S:1:pos:R:3:spacegroup_kinds:I:1:forces:R:3 spacegroup="P 1" unit_cell=conventional occupancy="_JSON {\"0\": {\"Cs\": 1.0}, \"1\": {\"Cs\": 1.0}, \"2\": {\"K\": 1.0}, \"3\": {\"In\": 1.0}, \"4\": {\"I\": 1.0}, \"5\": {\"I\": 1.0}, \"6\": {\"I\": 1.0}, \"7\": {\"I\": 1.0}, \"8\": {\"I\": 1.0}, \"9\": {\"I\": 1.0}, \"10\": {\"Cs\": 1.0}, \"11\": {\"Cs\": 1.0}, \"12\": {\"K\": 1.0}, \"13\": {\"In\": 1.0}, \"14\": {\"I\": 1.0}, \"15\": {\"I\": 1.0}, \"16\": {\"I\": 1.0}, \"17\": {\"I\": 1.0}, \"18\": {\"I\": 1.0}, \"19\": {\"I\": 1.0}, \"20\": {\"Cs\": 1.0}, \"21\": {\"Cs\": 1.0}, \"22\": {\"K\": 1.0}, \"23\": {\"In\": 1.0}, \"24\": {\"I\": 1.0}, \"25\": {\"I\": 1.0}, \"26\": {\"I\": 1.0}, \"27\": {\"I\": 1.0}, \"28\": {\"I\": 1.0}, \"29\": {\"I\": 1.0}, \"30\": {\"Cs\": 1.0}, \"31\": {\"Cs\": 1.0}, \"32\": {\"K\": 1.0}, \"33\": {\"In\": 1.0}, \"34\": {\"I\": 1.0}, \"35\": {\"I\": 1.0}, \"36\": {\"I\": 1.0}, \"37\": {\"I\": 1.0}, \"38\": {\"I\": 1.0}, \"39\": {\"I\": 1.0}}" energy=-102.59578569917268 free_energy=-102.59578569917268 stress="-1.796444532385988e-06 5.980883563945736e-07 -5.451772196392688e-07 5.980883563945736e-07 1.6515013527780654e-06 1.1612441292406792e-06 -5.451772196392688e-07 1.1612441292406792e-06 2.669798079915647e-07" pbc="T T T"
Cs       4.63021896       2.69215439       1.95283290        0       0.00016522      -0.00040836       0.00012034
Cs      13.87814503       8.00167609       5.10042908        1       0.00034423       0.00024396       0.00025728
K        9.25455922       5.34706862       3.52659369        2      -0.00001966      -0.00014994       0.00034547
In      18.44441246       0.05897719       0.09301483        3       0.00010689       0.00000022       0.00013955
I        6.99135745       3.23156482       5.23426841        4      -0.00021336       0.00030760       0.00018247
I       11.51767010       7.46234650       1.82014539        5      -0.00041481      -0.00013687      -0.00012033
I        9.94914618       2.36763169       1.74607947        6       0.00016969      -0.00032906      -0.00015207
I        8.55966058       8.32613763       5.30837940        7       0.00006843       0.00030852       0.00005029
I        6.33490665       6.21301042       1.72965918        8       0.00032247      -0.00000836      -0.00027784
I       12.17356795       4.48096528       5.32545526        9      -0.00022942      -0.00047635      -0.00024554
Cs       9.27535080      10.67863721       1.99186828       10       0.00028221       0.00013275       0.00016530
Cs      18.52340693      15.98877241       5.13948822       11       0.00020256      -0.00009878       0.00023456
K       13.89970144      13.33367427       3.56569895       12       0.00001078      -0.00026062       0.00033811
In      23.08944975       8.04567763       0.13200002       13      -0.00003500       0.00018242       0.00009269
I       11.63637550      11.21849702       5.27356675       14       0.00005280      -0.00014757      -0.00019414
I       16.16293468      15.44857657       1.85913092       15      -0.00036024       0.00047286      -0.00003427
I       14.59435096      10.35380953       1.78518225       16       0.00031394       0.00068628       0.00033974
I       13.20494306      16.31296937       5.34750904       17      -0.00004098      -0.00023027      -0.00006716
I       10.98039170      14.20006665       1.76886093       18      -0.00000423      -0.00025160      -0.00033349
I       16.81859496      12.46763960       5.36453531       19      -0.00017014      -0.00006934      -0.00046693
Cs      13.85251949       2.72140811       1.99926892       20      -0.00001912      -0.00014304       0.00022836
Cs      23.10048596       8.03127686       5.14691850       21       0.00006704       0.00002018       0.00024252
K       18.47676411       5.37657590       3.57312399       22      -0.00026104      -0.00012360       0.00030269
In       9.22228061       0.02942420       0.04655172       23      -0.00005175       0.00010700      -0.00003259
I       16.21344439       3.26107716       5.28085607       24      -0.00002927       0.00010199       0.00011142
I       20.73984536       7.49167430       1.86653960       25      -0.00016781       0.00007269      -0.00002395
I       19.17131116       2.39699903       1.79273040       26       0.00002430      -0.00006336      -0.00031133
I       17.78204216       8.35581610       5.35489247       27      -0.00040791      -0.00011767      -0.00013139
I       15.55701444       6.24255590       1.77625306       28       0.00038024      -0.00015263      -0.00021565
I       21.39551761       4.51006310       5.37198476       29      -0.00016344       0.00035481      -0.00041108
Cs      18.49782528      10.70809210       2.03834115       30      -0.00013966       0.00005889       0.00016336
Cs      27.74552871      16.01822234       5.18596881       31       0.00026113      -0.00010457       0.00028127
K       23.12186420      13.36316240       3.61220177       32      -0.00014655      -0.00021727       0.00036406
In      13.86724629       8.01617611       0.08551047       33       0.00015191      -0.00008266       0.00008290
I       20.85858545      11.24776143       5.31999434       34       0.00012730       0.00008066      -0.00009691
I       25.38496052      15.47816243       1.90567165       35      -0.00005655       0.00020540      -0.00008099
I       23.81686613      10.38353591       1.83180240       36      -0.00046237      -0.00010290      -0.00017699
I       22.42691583      16.34234660       5.39407191       37       0.00018744       0.00021626       0.00000211
I       20.20245932      14.22933711       1.81549679       38      -0.00004868       0.00024180      -0.00063638
I       26.04058737      12.49705561       5.41099071       39       0.00020342      -0.00011946      -0.00003544
