10
Lattice="9.287446447295086 -0.4536708667723705 0.00080172675248585 -4.2494634486833265 8.27019947351705 -0.006836195962749671 -0.0014185208994520605 0.005662173224570374 8.828467114450136" Properties=species:S:1:pos:R:3:spacegroup_kinds:I:1:forces:R:3 spacegroup="P 1" unit_cell=conventional occupancy="_JSON {\"0\": {\"Cs\": 1.0}, \"1\": {\"Cs\": 1.0}, \"2\": {\"K\": 1.0}, \"3\": {\"In\": 1.0}, \"4\": {\"I\": 1.0}, \"5\": {\"I\": 1.0}, \"6\": {\"I\": 1.0}, \"7\": {\"I\": 1.0}, \"8\": {\"I\": 1.0}, \"9\": {\"I\": 1.0}}" energy=-25.793817193490053 free_energy=-25.793817193490053 stress="-4.746889120747941e-06 4.7212886398208605e-06 7.4280996898083415e-09 4.7212886398208605e-06 -3.505345345348259e-06 -1.5348110589788194e-06 7.4280996898083415e-09 -1.5348110589788194e-06 -4.070141598328695e-06" pbc="T T T"
Cs       6.53108577       2.38395446       8.82956770        0      -0.00022583       0.00007702       0.00012389
Cs       2.02009694       5.28610156      -0.00683295        1       0.00033013      -0.00012494      -0.00015851
K        1.75662169      -0.07324099       4.41440076        2      -0.00008947       0.00006863      -0.00008531
In       1.75745702      -0.07616208       0.00013665        3      -0.00073732       0.00047062       0.00010872
I        8.60913674      -0.41121776       1.76681537        4       0.00025588      -0.00000656       0.00014602
I        4.19141339      -0.18891545       7.06280552        5       0.00034340      -0.00005390      -0.00051188
I        3.07644714       1.97588338       1.76506140        6      -0.00010650      -0.00050269       0.00007487
I        5.47475506       5.69424421       7.05762388        7       0.00007047       0.00029921      -0.00002263
I       -1.37631053       6.02773138       1.76155482        8       0.00005024      -0.00020005       0.00000720
I        0.64003509       2.09600490       7.06031110        9       0.00010901      -0.00002735       0.00031762
