10
Lattice="10.228286610633333 0.0 0.0 -4.3211623944375415 7.484472814921811 0.0 0.0 0.0 9.711671437906563" Properties=species:S:1:pos:R:3 pbc="T T T"
Cs       7.31423690       2.50389799       9.70247828
Cs       2.46442057       4.99872226       0.00906219
K        1.93577257       0.00906529       4.85583869
In       1.93578689       0.00907120       0.00003678
I        9.48249583       0.01424854       1.94266004
I        0.29614988       7.48831727       7.76903917
I        3.48983538       1.96909696       1.94267318
I        6.28886707       5.53355436       7.76905231
I        8.97039587       5.52834542       1.94265474
I        0.80826113       1.97429211       7.76903388
