10
Lattice="9.177076235816212 -0.029247516574828346 0.0008470872221943676 4.587823396837898 7.994387495570782 -0.01612148461278807 4.569505650935404 2.616869667326937 6.936948568451611" Properties=species:S:1:pos:R:3:spacegroup_kinds:I:1:forces:R:3 spacegroup="P 1" unit_cell=conventional occupancy="_JSON {\"0\": {\"Cs\": 1.0}, \"1\": {\"Cs\": 1.0}, \"2\": {\"K\": 1.0}, \"3\": {\"In\": 1.0}, \"4\": {\"I\": 1.0}, \"5\": {\"I\": 1.0}, \"6\": {\"I\": 1.0}, \"7\": {\"I\": 1.0}, \"8\": {\"I\": 1.0}, \"9\": {\"I\": 1.0}}" energy=-25.648938926444835 free_energy=-25.648938926444835 stress="-1.1993783913905503e-05 1.2098963427328314e-06 3.807778549222958e-06 1.2098963427328314e-06 7.168404698741635e-06 7.1943364139483505e-06 3.807778549222958e-06 7.1943364139483505e-06 5.3193331723033535e-06" pbc="T T T"
Cs       4.59611768       2.63098127       1.92043531        0      -0.00010441       0.00010581       0.00012583
Cs      13.73802930       7.95148921       5.00127482        1       0.00025614      -0.00032269      -0.00017342
K        9.16744444       5.29027359       3.46086910        2      -0.00022619       0.00063949      -0.00003332
In       9.17692499      -0.02946913       0.00081041        3       0.00033507       0.00011418       0.00022373
I        6.95810983       3.19571845       5.25747915        4      -0.00026765      -0.00046579      -0.00051771
I       11.37638619       7.38657524       1.66468829        5       0.00019308       0.00010604       0.00019535
I        9.86590245       2.27921075       1.74174341        6       0.00025903      -0.00021265       0.00074053
I        8.46846061       8.30300839       5.17926204        7      -0.00019360      -0.00013687      -0.00030396
I        6.24041200       6.19149045       1.68661498        8      -0.00022775      -0.00022756      -0.00016658
I       12.09411221       4.39051662       5.23520290        9      -0.00002373       0.00040004      -0.00009046
