10
Lattice="9.420360135191267 0.0 0.0 4.710180067635278 8.158271189851131 0.0 4.710180067711433 2.7194237300094932 7.6916920526184205" Properties=species:S:1:pos:R:3 pbc="T T T"
Cs       4.71012237       2.71940643       1.92292550
Cs      14.13059775       8.15828805       5.76876626
K        9.42036010       5.43884725       3.84584591
In       0.00000013       0.00000039       0.00000015
I        7.47258241       3.17289366       4.91184758
I       11.36813785       7.70480054       2.77984420
I       10.56634759       3.33838405       1.78750689
I        8.27437201       7.53931009       5.90418483
I        6.89970078       6.89437141       1.78751897
I       11.94101990       3.98332421       5.90417343
