10
Lattice="9.176165160113351 -0.023784913133730195 0.0027035387837809925 4.588548335215855 7.9988090276974 -0.01768194962063247 4.572740653131699 2.6161383573921873 6.93548925338015" Properties=species:S:1:pos:R:3:spacegroup_kinds:I:1:forces:R:3 spacegroup="P 1" unit_cell=conventional occupancy="_JSON {\"0\": {\"Cs\": 1.0}, \"1\": {\"Cs\": 1.0}, \"2\": {\"K\": 1.0}, \"3\": {\"In\": 1.0}, \"4\": {\"I\": 1.0}, \"5\": {\"I\": 1.0}, \"6\": {\"I\": 1.0}, \"7\": {\"I\": 1.0}, \"8\": {\"I\": 1.0}, \"9\": {\"I\": 1.0}}" energy=-25.648945002876786 free_energy=-25.648945002876786 stress="-7.505725688239493e-06 -5.484166008683265e-07 -2.9532790136481714e-06 -5.484166008683265e-07 2.0578175874383658e-06 5.830405446085996e-06 -2.9532790136481714e-06 5.830405446085996e-06 6.38511723166059e-07" pbc="T T T"
Cs       4.59944138       2.63391700       1.91923929        0      -0.00011915      -0.00002204       0.00012898
Cs      13.73764577       7.95742970       5.00098683        1       0.00039201      -0.00014923      -0.00001725
K        9.16893303       5.29512124       3.46032810        2      -0.00027418       0.00045536       0.00001569
In       9.17610791      -0.02391495       0.00275035        3       0.00011960       0.00011985      -0.00013224
I        6.95795935       3.19817673       5.25271453        4      -0.00025669      -0.00022990      -0.00008226
I       11.37988965       7.39293635       1.66847088        5      -0.00009547       0.00035421      -0.00031878
I        9.86860107       2.28127408       1.74672102        6       0.00013822      -0.00021596       0.00003673
I        8.46861733       8.31032796       5.17318945        7       0.00004584      -0.00017147       0.00030476
I        6.24493665       6.19264438       1.67869314        8      -0.00011502      -0.00009174      -0.00004826
I       12.09257626       4.39853251       5.24190818        9       0.00016484      -0.00004908       0.00011263
