80
Lattice="19.737897426115033 0.0 0.0 9.868948713140583 17.093520588259512 0.0 9.868948713300147 5.697840196210367 16.11592620548622" Properties=species:S:1:pos:R:3 pbc="T T T"
Cs       4.93444190       2.84891037       2.01449182
Cs      14.80345543       8.54676977       6.04347111
K        9.86894875       5.69784011       4.02898153
In       0.00000011       0.00000024       0.00000009
I        7.55031213       3.71731332       5.62727424
I       12.18758540       7.67836674       2.43068877
I       10.51338778       3.10409411       1.87265397
I        9.22450938       8.29158589       6.18530900
I        7.22815566       7.22262689       1.87266076
I       12.50974211       4.17305396       6.18530259
Cs       9.86891626       5.69783046      10.07245493
Cs      19.73792978      11.39568987      14.10143422
K       14.80342311       8.54676021      12.08694463
In       4.93447447       2.84892034       8.05796319
I       12.48478649       6.56623341      13.68523735
I       17.12205976      10.52728684      10.48865187
I       15.44786214       5.95301421       9.93061707
I       14.15898374      11.14050599      14.24327210
I       12.16263001      10.07154699       9.93062387
I       17.44421646       7.02197406      14.24326570
Cs       9.86891626      11.39567066       2.01449182
Cs      19.73792978      17.09353006       6.04347111
K       14.80342311      14.24460040       4.02898153
In       4.93447447       8.54676053       0.00000009
I       12.48478649      12.26407361       5.62727424
I       17.12205976      16.22512703       2.43068877
I       15.44786214      11.65085440       1.87265397
I       14.15898374      16.83834619       6.18530900
I       12.16263001      15.76938719       1.87266076
I       17.44421646      12.71981426       6.18530259
Cs      14.80339062      14.24459076      10.07245493
Cs      24.67240414      19.94245016      14.10143422
K       19.73789746      17.09352050      12.08694463
In       9.86894883      11.39568063       8.05796319
I       17.41926084      15.11299371      13.68523735
I       22.05653412      19.07404713      10.48865187
I       20.38233649      14.49977450       9.93061707
I       19.09345809      19.68726629      14.24327210
I       17.09710437      18.61830728       9.93062387
I       22.37869082      15.56873435      14.24326570
Cs      14.80339062       2.84891037       2.01449182
Cs      24.67240414       8.54676977       6.04347111
K       19.73789746       5.69784011       4.02898153
In       9.86894883       0.00000024       0.00000009
I       17.41926084       3.71731332       5.62727424
I       22.05653412       7.67836674       2.43068877
I       20.38233649       3.10409411       1.87265397
I       19.09345809       8.29158589       6.18530900
I       17.09710437       7.22262689       1.87266076
I       22.37869082       4.17305396       6.18530259
Cs      19.73786497       5.69783046      10.07245493
Cs      29.60687850      11.39568987      14.10143422
K       24.67237182       8.54676021      12.08694463
In      14.80342318       2.84892034       8.05796319
I       22.35373520       6.56623341      13.68523735
I       26.99100847      10.52728684      10.48865187
I       25.31681085       5.95301421       9.93061707
I       24.02793245      11.14050599      14.24327210
I       22.03157873      10.07154699       9.93062387
I       27.31316517       7.02197406      14.24326570
Cs      19.73786497      11.39567066       2.01449182
Cs      29.60687850      17.09353006       6.04347111
K       24.67237182      14.24460040       4.02898153
In      14.80342318       8.54676053       0.00000009
I       22.35373520      12.26407361       5.62727424
I       26.99100847      16.22512703       2.43068877
I       25.31681085      11.65085440       1.87265397
I       24.02793245      16.83834619       6.18530900
I       22.03157873      15.76938719       1.87266076
I       27.31316517      12.71981426       6.18530259
Cs      24.67233933      14.24459076      10.07245493
Cs      34.54135285      19.94245016      14.10143422
K       29.60684617      17.09352050      12.08694463
In      19.73789754      11.39568063       8.05796319
I       27.28820956      15.11299371      13.68523735
I       31.92548283      19.07404713      10.48865187
I       30.25128521      14.49977450       9.93061707
I       28.96240681      19.68726629      14.24327210
I       26.96605308      18.61830728       9.93062387
I       32.24763953      15.56873435      14.24326570
