80
Lattice="18.444251749263753 0.06052929464509136 0.08963399801134471 9.28858347691007 15.97394430577712 0.07329180163577917 9.285704601118441 5.35728087929249 13.934729527991593" Properties=species:S:1:pos:R:3:spacegroup_kinds:I:1:forces:R:3 spacegroup="P 1" unit_cell=conventional occupancy="_JSON {\"0\": {\"Cs\": 1.0}, \"1\": {\"Cs\": 1.0}, \"2\": {\"K\": 1.0}, \"3\": {\"In\": 1.0}, \"4\": {\"I\": 1.0}, \"5\": {\"I\": 1.0}, \"6\": {\"I\": 1.0}, \"7\": {\"I\": 1.0}, \"8\": {\"I\": 1.0}, \"9\": {\"I\": 1.0}, \"10\": {\"Cs\": 1.0}, \"11\": {\"Cs\": 1.0}, \"12\": {\"K\": 1.0}, \"13\": {\"In\": 1.0}, \"14\": {\"I\": 1.0}, \"15\": {\"I\": 1.0}, \"16\": {\"I\": 1.0}, \"17\": {\"I\": 1.0}, \"18\": {\"I\": 1.0}, \"19\": {\"I\": 1.0}, \"20\": {\"Cs\": 1.0}, \"21\": {\"Cs\": 1.0}, \"22\": {\"K\": 1.0}, \"23\": {\"In\": 1.0}, \"24\": {\"I\": 1.0}, \"25\": {\"I\": 1.0}, \"26\": {\"I\": 1.0}, \"27\": {\"I\": 1.0}, \"28\": {\"I\": 1.0}, \"29\": {\"I\": 1.0}, \"30\": {\"Cs\": 1.0}, \"31\": {\"Cs\": 1.0}, \"32\": {\"K\": 1.0}, \"33\": {\"In\": 1.0}, \"34\": {\"I\": 1.0}, \"35\": {\"I\": 1.0}, \"36\": {\"I\": 1.0}, \"37\": {\"I\": 1.0}, \"38\": {\"I\": 1.0}, \"39\": {\"I\": 1.0}, \"40\": {\"Cs\": 1.0}, \"41\": {\"Cs\": 1.0}, \"42\": {\"K\": 1.0}, \"43\": {\"In\": 1.0}, \"44\": {\"I\": 1.0}, \"45\": {\"I\": 1.0}, \"46\": {\"I\": 1.0}, \"47\": {\"I\": 1.0}, \"48\": {\"I\": 1.0}, \"49\": {\"I\": 1.0}, \"50\": {\"Cs\": 1.0}, \"51\": {\"Cs\": 1.0}, \"52\": {\"K\": 1.0}, \"53\": {\"In\": 1.0}, \"54\": {\"I\": 1.0}, \"55\": {\"I\": 1.0}, \"56\": {\"I\": 1.0}, \"57\": {\"I\": 1.0}, \"58\": {\"I\": 1.0}, \"59\": {\"I\": 1.0}, \"60\": {\"Cs\": 1.0}, \"61\": {\"Cs\": 1.0}, \"62\": {\"K\": 1.0}, \"63\": {\"In\": 1.0}, \"64\": {\"I\": 1.0}, \"65\": {\"I\": 1.0}, \"66\": {\"I\": 1.0}, \"67\": {\"I\": 1.0}, \"68\": {\"I\": 1.0}, \"69\": {\"I\": 1.0}, \"70\": {\"Cs\": 1.0}, \"71\": {\"Cs\": 1.0}, \"72\": {\"K\": 1.0}, \"73\": {\"In\": 1.0}, \"74\": {\"I\": 1.0}, \"75\": {\"I\": 1.0}, \"76\": {\"I\": 1.0}, \"77\": {\"I\": 1.0}, \"78\": {\"I\": 1.0}, \"79\": {\"I\": 1.0}}" energy=-205.19156924229677 free_energy=-205.19156924229677 stress="-7.344171892691874e-08 3.0092712256343904e-07 -1.7665215753586201e-09 3.0092712256343904e-07 3.4943389569833517e-07 -2.3318222690658768e-07 -1.7665215753586201e-09 -2.3318222690658768e-07 2.2218412085502575e-07" pbc="T T T"
Cs       4.63119670       2.69272289       1.95172594        0      -0.00024896      -0.00006049      -0.00003926
Cs      13.87869423       8.00417703       5.09711669        1       0.00002030      -0.00013782      -0.00007120
K        9.25487083       5.34768486       3.52327470        2      -0.00001425      -0.00001011       0.00079117
In      18.44409711       0.06054922       0.08952475        3       0.00010512      -0.00048414       0.00022786
I        6.99191698       3.23296642       5.23225342        4       0.00011950      -0.00005803      -0.00005243
I       11.51710065       7.46322722       1.81668541        5       0.00056668       0.00004027      -0.00039170
I        9.94990579       2.36775835       1.74447461        6      -0.00038275       0.00014088      -0.00020371
I        8.56007862       8.32698797       5.30536262        7       0.00012803       0.00016770      -0.00007705
I        6.33533592       6.21397412       1.72678102        8       0.00001029      -0.00011561      -0.00018924
I       12.17395918       4.48261350       5.32272788        9       0.00033533      -0.00020963      -0.00000124
Cs       9.27368859       5.37169244       8.91955020       10      -0.00008056      -0.00025688      -0.00010963
Cs      18.52161306      10.68251542      12.06426325       11       0.00002780      -0.00000322      -0.00004907
K       13.89752059       8.02615726      10.49063469       12       0.00011977       0.00005998       0.00064413
In      23.08706706       2.73911132       7.05675500       13      -0.00036842       0.00004565       0.00028025
I       11.63485819       5.91148179      12.19998172       14       0.00032068      -0.00003543      -0.00024815
I       16.15990478      10.14191580       8.78373736       15      -0.00005666      -0.00020900       0.00012610
I       14.59300787       5.04634491       8.71162121       16      -0.00019441       0.00026898      -0.00012733
I       13.20295880      11.00554094      12.27278252       17      -0.00010515       0.00016668      -0.00020949
I       10.97806756       8.89255179       8.69420374       18       0.00001454       0.00011430      -0.00026068
I       16.81673341       7.16141044      12.29017757       19       0.00009392      -0.00031940      -0.00012140
Cs       9.27507385      10.67930942       1.98862956       20      -0.00008900      -0.00004476      -0.00010312
Cs      18.52269320      15.99067761       5.13360526       21       0.00003831      -0.00026742      -0.00004204
K       13.89891677      13.33478189       3.55969074       22      -0.00010184       0.00004822       0.00077763
In      23.08847871       8.04726625       0.12610378       23      -0.00013392       0.00071850       0.00027116
I       11.63596579      11.22016748       5.26875569       24      -0.00012028      -0.00021247       0.00022884
I       16.16153354      15.45013316       1.85307882       25      -0.00029913      -0.00002966       0.00012982
I       14.59389333      10.35516488       1.78059115       26      -0.00011554      -0.00004543      -0.00018005
I       13.20442843      16.31404699       5.34180940       27      -0.00009635       0.00032626      -0.00017872
I       10.97897641      14.20045172       1.76348114       28       0.00001110      -0.00000532      -0.00016699
I       16.81794436      12.46904115       5.35924845       29      -0.00006040       0.00030295      -0.00047135
Cs      13.91766928      13.35838627       8.95593707       30       0.00005008      -0.00026038      -0.00008283
Cs      23.16622686      18.66902940      12.10086456       31      -0.00036998      -0.00006739       0.00001004
K       18.54183987      16.01346918      10.52718442       32      -0.00008259       0.00011939       0.00067999
In      27.73117698      10.72605226       7.09361791       33       0.00073193      -0.00020903      -0.00058028
I       16.27883699      13.89857626      12.23591322       34      -0.00019404      -0.00008096       0.00017292
I       20.80427244      18.12918986       8.82067346       35       0.00017417      -0.00007608      -0.00013685
I       19.23664169      13.03353748       8.74817996       36       0.00009107       0.00053040      -0.00001713
I       17.84713219      18.99282129      12.30907386       37      -0.00024833       0.00051179      -0.00001053
I       15.62178686      16.87936068       8.73095457       38       0.00037894      -0.00013611      -0.00016409
I       21.46088635      15.14776118      12.32651058       39       0.00008534      -0.00026026      -0.00011988
Cs      13.85293434       2.72316699       1.99671768       40      -0.00009837      -0.00014471      -0.00005922
Cs      23.10112776       8.03412154       5.14174671       41      -0.00021806      -0.00006379      -0.00007015
K       18.47681634       5.37782376       3.56808001       42      -0.00000240       0.00007685       0.00080439
In       9.22191499       0.03020792       0.04463110       43       0.00073964       0.00053998       0.00014894
I       16.21397882       3.26271231       5.27692931       44       0.00001636       0.00005453       0.00009353
I       20.73941196       7.49355340       1.86163839       45       0.00039688      -0.00012617      -0.00025476
I       19.17199902       2.39796986       1.78936764       46      -0.00001325       0.00026198      -0.00018839
I       17.78226038       8.35724739       5.34992949       47      -0.00000103       0.00041407       0.00013202
I       15.55716470       6.24415356       1.77197606       48      -0.00010810       0.00033830      -0.00046716
I       21.39608986       4.51275891       5.36736502       49       0.00021696      -0.00025321      -0.00003399
Cs      18.49598060       5.40158520       8.96429117       50       0.00004735       0.00001607      -0.00013865
Cs      27.74388461      10.71300443      12.10899458       51      -0.00009002      -0.00014604       0.00004946
K       23.11975134       8.05662208      10.53545205       52      -0.00001987      -0.00004301       0.00064981
In      13.86489523       2.70871304       7.01205979       53      -0.00028992       0.00034716      -0.00026968
I       20.85699519       5.94226661      12.24460433       54      -0.00030383      -0.00031160       0.00007020
I       25.38226841      10.17206224       8.82874343       55      -0.00020624      -0.00017523       0.00037104
I       23.81476503       5.07676814       8.75641027       56      -0.00017040       0.00030633      -0.00010580
I       22.42523349      11.03569894      12.31772448       57      -0.00017170       0.00034624      -0.00016391
I       20.19993497       8.92288612       8.73912857       58       0.00013042      -0.00019276      -0.00019020
I       26.03904908       7.19160787      12.33486226       59       0.00006212       0.00000247      -0.00021389
Cs      18.49721816      10.70978799       2.03331861       60      -0.00012804      -0.00020877      -0.00001599
Cs      27.74523793      16.02065576       5.17845413       61      -0.00004561      -0.00020022      -0.00009997
K       23.12110964      13.36511958       3.60465825       62      -0.00015326       0.00001569       0.00065356
In      13.86634985       8.01709476       0.08132901       63      -0.00032309       0.00000986       0.00056657
I       20.85817714      11.25024199       5.31372260       64       0.00030487      -0.00003765      -0.00011441
I       25.38340773      15.48071357       1.89785768       65       0.00007261      -0.00016443      -0.00001595
I       23.81626742      10.38531094       1.82549565       66      -0.00032488      -0.00003510      -0.00035184
I       22.42613267      16.34436461       5.38666406       67      -0.00017432       0.00022893      -0.00010762
I       20.20123229      14.23085704       1.80804444       68       0.00037357      -0.00015685       0.00000524
I       26.04001712      12.49923766       5.40416116       69      -0.00015833       0.00030608      -0.00038370
Cs      23.14010751      13.38824172       9.00066767       70      -0.00032679      -0.00014074      -0.00006476
Cs      32.38763594      18.69959515      12.14596151       71       0.00004792      -0.00015429      -0.00004724
K       27.76377488      16.04363194      10.57190136       72       0.00007246       0.00016244       0.00074236
In      18.50913994      10.69583915       7.04865570       73      -0.00012327      -0.00055184      -0.00002340
I       25.50098337      13.92890150      12.28105305       74       0.00033013      -0.00013175      -0.00009228
I       30.02637643      18.15910392       8.86534542       75       0.00015555       0.00001846      -0.00027982
I       28.45894308      13.06393692       8.79281206       76      -0.00020035       0.00033621       0.00009241
I       27.06938306      19.02316850      12.35394826       77      -0.00005753       0.00007402      -0.00051320
I       24.84399474      16.90933528       8.77556469       78       0.00030252      -0.00026214       0.00001817
I       30.68262735      15.17810826      12.37163248       79       0.00037898      -0.00032230      -0.00006621
