40
Lattice="12.773301236012948 -2.8258374920454297e-08 5.0694645089070426e-17 -2.8258374921038634e-08 12.773301236013312 2.6353687997893673e-16 5.106835103756839e-17 2.638549072537394e-16 12.77330122951808" Properties=species:S:1:pos:R:3:spacegroup_kinds:I:1:forces:R:3 spacegroup="P 1" unit_cell=conventional occupancy="_JSON {\"0\": {\"Cs\": 1.0}, \"1\": {\"Pb\": 1.0}, \"2\": {\"I\": 1.0}, \"3\": {\"I\": 1.0}, \"4\": {\"I\": 1.0}, \"5\": {\"Cs\": 1.0}, \"6\": {\"Pb\": 1.0}, \"7\": {\"I\": 1.0}, \"8\": {\"I\": 1.0}, \"9\": {\"I\": 1.0}, \"10\": {\"Cs\": 1.0}, \"11\": {\"Pb\": 1.0}, \"12\": {\"I\": 1.0}, \"13\": {\"I\": 1.0}, \"14\": {\"I\": 1.0}, \"15\": {\"Cs\": 1.0}, \"16\": {\"Pb\": 1.0}, \"17\": {\"I\": 1.0}, \"18\": {\"I\": 1.0}, \"19\": {\"I\": 1.0}, \"20\": {\"Cs\": 1.0}, \"21\": {\"Pb\": 1.0}, \"22\": {\"I\": 1.0}, \"23\": {\"I\": 1.0}, \"24\": {\"I\": 1.0}, \"25\": {\"Cs\": 1.0}, \"26\": {\"Pb\": 1.0}, \"27\": {\"I\": 1.0}, \"28\": {\"I\": 1.0}, \"29\": {\"I\": 1.0}, \"30\": {\"Cs\": 1.0}, \"31\": {\"Pb\": 1.0}, \"32\": {\"I\": 1.0}, \"33\": {\"I\": 1.0}, \"34\": {\"I\": 1.0}, \"35\": {\"Cs\": 1.0}, \"36\": {\"Pb\": 1.0}, \"37\": {\"I\": 1.0}, \"38\": {\"I\": 1.0}, \"39\": {\"I\": 1.0}}" energy=-111.84593549156412 free_energy=-111.84593549156412 stress="-1.9395209401355115e-05 -7.619960160517983e-11 3.464157966079416e-19 -7.619960160517983e-11 -1.9395209400168486e-05 -8.2794383955285e-20 3.464157966079416e-19 -8.2794383955285e-20 -1.9395200696061166e-05" pbc="T T T"
Cs       3.19348917       3.19316143       3.19332531        0       0.00000552      -0.00000552       0.00000000
Pb       0.00006885      -0.00006886      -0.00000000        1      -0.00002175       0.00002175       0.00000000
I        0.00004246      -0.00004246       3.19332531        2      -0.00001127       0.00001127      -0.00000000
I        3.19336036      -0.00004247      -0.00000000        3       0.00003877       0.00001127       0.00000000
I        0.00004245       3.19329026      -0.00000000        4      -0.00001127      -0.00003877       0.00000000
Cs       3.19348917       3.19316143       9.57997592        5       0.00000552      -0.00000552      -0.00000000
Pb       0.00006885      -0.00006886       6.38665061        6      -0.00002175       0.00002175       0.00000000
I        0.00004246      -0.00004246       9.57997592        7      -0.00001127       0.00001127      -0.00000000
I        3.19336036      -0.00004247       6.38665061        8       0.00003877       0.00001127       0.00000000
I        0.00004245       3.19329026       6.38665061        9      -0.00001127      -0.00003877       0.00000000
Cs       3.19348915       9.57981205       3.19332531       10       0.00000552      -0.00000552       0.00000000
Pb       0.00006884       6.38658176      -0.00000000       11      -0.00002175       0.00002175       0.00000000
I        0.00004245       6.38660816       3.19332531       12      -0.00001127       0.00001127      -0.00000000
I        3.19336034       6.38660815      -0.00000000       13       0.00003877       0.00001127       0.00000000
I        0.00004244       9.57994088      -0.00000000       14      -0.00001127      -0.00003877       0.00000000
Cs       3.19348915       9.57981205       9.57997592       15       0.00000552      -0.00000552      -0.00000000
Pb       0.00006884       6.38658176       6.38665061       16      -0.00002175       0.00002175       0.00000000
I        0.00004245       6.38660816       9.57997592       17      -0.00001127       0.00001127      -0.00000000
I        3.19336034       6.38660815       6.38665061       18       0.00003877       0.00001127       0.00000000
I        0.00004244       9.57994088       6.38665061       19      -0.00001127      -0.00003877       0.00000000
Cs       9.58013979       3.19316142       3.19332531       20       0.00000552      -0.00000552       0.00000000
Pb       6.38671947      -0.00006887      -0.00000000       21      -0.00002175       0.00002175       0.00000000
I        6.38669308      -0.00004248       3.19332531       22      -0.00001127       0.00001127      -0.00000000
I        9.58001097      -0.00004248      -0.00000000       23       0.00003877       0.00001127       0.00000000
I        6.38669307       3.19329025      -0.00000000       24      -0.00001127      -0.00003877       0.00000000
Cs       9.58013979       3.19316142       9.57997592       25       0.00000552      -0.00000552      -0.00000000
Pb       6.38671947      -0.00006887       6.38665061       26      -0.00002175       0.00002175       0.00000000
I        6.38669308      -0.00004248       9.57997592       27      -0.00001127       0.00001127      -0.00000000
I        9.58001097      -0.00004248       6.38665061       28       0.00003877       0.00001127       0.00000000
I        6.38669307       3.19329025       6.38665061       29      -0.00001127      -0.00003877       0.00000000
Cs       9.58013977       9.57981204       3.19332531       30       0.00000552      -0.00000552       0.00000000
Pb       6.38671946       6.38658175      -0.00000000       31      -0.00002175       0.00002175       0.00000000
I        6.38669307       6.38660814       3.19332531       32      -0.00001127       0.00001127      -0.00000000
I        9.58001096       6.38660813      -0.00000000       33       0.00003877       0.00001127       0.00000000
I        6.38669306       9.57994087      -0.00000000       34      -0.00001127      -0.00003877       0.00000000
Cs       9.58013977       9.57981204       9.57997592       35       0.00000552      -0.00000552      -0.00000000
Pb       6.38671946       6.38658175       6.38665061       36      -0.00002175       0.00002175       0.00000000
I        6.38669307       6.38660814       9.57997592       37      -0.00001127       0.00001127      -0.00000000
I        9.58001096       6.38660813       6.38665061       38       0.00003877       0.00001127       0.00000000
I        6.38669306       9.57994087       6.38665061       39      -0.00001127      -0.00003877       0.00000000
