10
Lattice="13.763618967623712 1.1428564553928724 3.515752042819308 7.185302342174518 9.364288868771393 0.9295410079689346 11.122890427586327 2.822931792385676 7.02391549380718" Properties=species:S:1:pos:R:3:spacegroup_kinds:I:1:forces:R:3 spacegroup="P 1" unit_cell=conventional occupancy="_JSON {\"0\": {\"Cs\": 1.0}, \"1\": {\"Cs\": 1.0}, \"2\": {\"K\": 1.0}, \"3\": {\"In\": 1.0}, \"4\": {\"I\": 1.0}, \"5\": {\"I\": 1.0}, \"6\": {\"I\": 1.0}, \"7\": {\"I\": 1.0}, \"8\": {\"I\": 1.0}, \"9\": {\"I\": 1.0}}" energy=-25.458228609469657 free_energy=-25.458228609469657 stress="-4.183995827119806e-06 7.803785645806213e-07 6.993683789441691e-06 7.803785645806213e-07 7.714434869913362e-06 3.3085851531004765e-06 6.993683789441691e-06 3.3085851531004765e-06 -1.966927330702271e-06" pbc="T T T"
Cs       8.57882481       1.84301065       2.42798945        0      -0.00001561      -0.00009758      -0.00009314
Cs      23.49252239      11.48774769       9.04254345        1       0.00004926      -0.00001412      -0.00003466
K       16.03432666       6.66381017       5.73514771        2       0.00013962       0.00074687       0.00003506
In      13.76568518       1.14169425       3.51277457        3       0.00005086      -0.00009982      -0.00000044
I       18.61731501       4.26737666       5.67554885        4      -0.00027348       0.00074029       0.00016549
I       13.45387733       9.06313116       5.79531426        5       0.00025510      -0.00075392      -0.00024741
I       11.11616984       0.40469214       5.02532041        6      -0.00022421       0.00056288       0.00006756
I       20.95642172      12.92561294       6.44300199        7       0.00013435      -0.00080769      -0.00000142
I       22.39425949       8.88772507       6.30981128        8      -0.00001640      -0.00039142      -0.00014991
I        9.67736106       4.44339953       5.15973300        9      -0.00009949       0.00011451       0.00025886
