40
Lattice="14.766810690580254 0.0 0.0 -3.766114871495112 7.839173212482938 0.0 -5.476332442585777 3.1288810036255392 9.849711104444905" Properties=species:S:1:pos:R:3 pbc="T T T"
Cs      -1.16593594       8.01123423       2.46242778
Cs      -2.57098631       4.09170767       2.46242778
Cs      -0.32063196       2.95675990       7.38728334
Cs       1.08441841       6.87640656       7.38728334
Pb       0.18623177       0.00001544       0.00000085
Pb       1.80864524       3.91958661       0.00000000
Pb      -2.55193446       1.56445594       4.92485472
Pb      -0.74328922       5.48401163       4.92485640
I       -1.24458460       5.60855125       0.40935619
I        1.47259603       1.68895983       0.40941290
I        5.53966328       0.85617652       2.46242778
I       -0.24198770       5.35950774       9.44029822
I       -2.95916833       9.27908953       9.44035493
I        1.21564575       4.77570165       2.46242778
I       -3.52752411       6.91289976       4.51549938
I       -0.81034348       2.99330833       4.51544267
I       -7.02624959      10.11193914       7.38728334
I        2.04095181       4.05515924       5.33426845
I       -0.67622882       7.97474102       5.33421174
I       -2.70223206       6.19229105       7.38728334
Cs       6.21746940       8.01123423       2.46242778
Cs       4.81241903       4.09170767       2.46242778
Cs       7.06277339       2.95675990       7.38728334
Cs       8.46782376       6.87640656       7.38728334
Pb       7.56963711       0.00001544       0.00000085
Pb       9.19205058       3.91958661       0.00000000
Pb       4.83147089       1.56445594       4.92485472
Pb       6.64011613       5.48401163       4.92485640
I        6.13882074       5.60855125       0.40935619
I        8.85600137       1.68895983       0.40941290
I       12.92306862       0.85617652       2.46242778
I        7.14141765       5.35950774       9.44029822
I        4.42423702       9.27908953       9.44035493
I        8.59905110       4.77570165       2.46242778
I        3.85588124       6.91289976       4.51549938
I        6.57306187       2.99330833       4.51544267
I        0.35715576      10.11193914       7.38728334
I        9.42435715       4.05515924       5.33426845
I        6.70717652       7.97474102       5.33421174
I        4.68117328       6.19229105       7.38728334
