5
Lattice="6.386988638137773 -2.229619705950931e-09 5.686785839580914e-17 -2.229619705514941e-09 6.3869886381377645 -8.060621854370936e-17 5.3922942631491314e-17 -8.089409263419876e-17 6.38698863783961" Properties=species:S:1:pos:R:3:spacegroup_kinds:I:1:forces:R:3 spacegroup="P 1" unit_cell=conventional occupancy="_JSON {\"0\": {\"Cs\": 1.0}, \"1\": {\"Pb\": 1.0}, \"2\": {\"I\": 1.0}, \"3\": {\"I\": 1.0}, \"4\": {\"I\": 1.0}}" energy=-13.980742411120062 free_energy=-13.980742411120062 stress="-3.5385425517945736e-06 -1.9240225151689848e-11 -6.857988616032249e-18 -1.9240225151689848e-11 -3.538542552342045e-06 1.791185091008858e-17 -6.857988616032249e-18 1.791185091008858e-17 -3.538543137980602e-06" pbc="T T T"
Cs       3.19359108       3.19339755       3.19349432        0       0.00000300      -0.00000300      -0.00000000
Pb       0.00000301      -0.00000301      -0.00000000        1       0.00000218      -0.00000218      -0.00000000
I        0.00000810      -0.00000810       3.19349432        2      -0.00000709       0.00000709      -0.00000000
I        3.19349607      -0.00000810      -0.00000000        3       0.00000900       0.00000709       0.00000000
I        0.00000810       3.19349256      -0.00000000        4      -0.00000709      -0.00000900       0.00000000
