40
Lattice="21.634950479880978 -0.9012561645130077 2.563273956167724 4.490773464413889 6.94656805153489 1.7229908263108822 -1.5192101594482306 -2.0224831513555763 12.110385057219922" Properties=species:S:1:pos:R:3:spacegroup_kinds:I:1:forces:R:3 spacegroup="P 1" unit_cell=conventional occupancy="_JSON {\"0\": {\"Cs\": 1.0}, \"1\": {\"Cs\": 1.0}, \"2\": {\"Cs\": 1.0}, \"3\": {\"Cs\": 1.0}, \"4\": {\"Pb\": 1.0}, \"5\": {\"Pb\": 1.0}, \"6\": {\"Pb\": 1.0}, \"7\": {\"Pb\": 1.0}, \"8\": {\"I\": 1.0}, \"9\": {\"I\": 1.0}, \"10\": {\"I\": 1.0}, \"11\": {\"I\": 1.0}, \"12\": {\"I\": 1.0}, \"13\": {\"I\": 1.0}, \"14\": {\"I\": 1.0}, \"15\": {\"I\": 1.0}, \"16\": {\"I\": 1.0}, \"17\": {\"I\": 1.0}, \"18\": {\"I\": 1.0}, \"19\": {\"I\": 1.0}, \"20\": {\"Cs\": 1.0}, \"21\": {\"Cs\": 1.0}, \"22\": {\"Cs\": 1.0}, \"23\": {\"Cs\": 1.0}, \"24\": {\"Pb\": 1.0}, \"25\": {\"Pb\": 1.0}, \"26\": {\"Pb\": 1.0}, \"27\": {\"Pb\": 1.0}, \"28\": {\"I\": 1.0}, \"29\": {\"I\": 1.0}, \"30\": {\"I\": 1.0}, \"31\": {\"I\": 1.0}, \"32\": {\"I\": 1.0}, \"33\": {\"I\": 1.0}, \"34\": {\"I\": 1.0}, \"35\": {\"I\": 1.0}, \"36\": {\"I\": 1.0}, \"37\": {\"I\": 1.0}, \"38\": {\"I\": 1.0}, \"39\": {\"I\": 1.0}}" energy=-113.23993272204339 free_energy=-113.23993272204339 stress="-1.2668575388874284e-06 4.734251612755064e-07 -3.004701492001661e-07 4.734251612755064e-07 -2.0687352928360168e-06 -1.8427730345753016e-06 -3.004701492001661e-07 -1.8427730345753016e-06 6.272546124418304e-07" pbc="T T T"
Cs      10.99750034       5.39824577       5.43928696        0      -0.00008831       0.00005030      -0.00021583
Cs       3.34301904       2.14930265       3.93837277        1       0.00002274       0.00007683      -0.00024985
Cs       4.12586063      -0.74375787       9.87168782        2       0.00020523       0.00009892       0.00011438
Cs      11.78065059       2.50486441      11.37342658        3       0.00009172       0.00002875       0.00035540
Pb       0.66698501       0.08997288       0.09955197        4       0.00015453       0.00012388       0.00039397
Pb       6.80225777       1.31589662      13.71017371        5       0.00018402       0.00039709       0.00044500
Pb      -0.09233391      -0.92114934       6.15507460        6       0.00020512       0.00033120      -0.00029832
Pb       7.56194171       2.32753442       7.65514771        7      -0.00036939      -0.00049745       0.00016408
I        5.18363339       3.91451315       0.74757002        8       0.00016496       0.00054242       0.00000585
I        3.80464593      -0.48590834       0.95139886        9       0.00022980       0.00009780       0.00064553
I       10.37502758      -1.47660492       4.21335635       10       0.00010527      -0.00026924       0.00060832
I        9.93989088       0.74044893      14.56354986       11      -0.00021464       0.00024227       0.00050838
I       11.31981243       5.14094750      14.35884483       12      -0.00006678      -0.00080993       0.00006081
I        7.21176405       2.22016556       4.43366380       13       0.00009863       0.00028343       0.00034990
I        4.29067181       2.72536781       7.86927566       14       0.00025445       0.00005498      -0.00007737
I        3.17905794      -1.31907639       5.94128591       15      -0.00042892       0.00011869       0.00016999
I        0.25698139      -0.81365651       9.37665864       16       0.00024747       0.00007824      -0.00037367
I       10.83294980       1.92964267       7.44284921       17      -0.00001067       0.00003310       0.00015946
I       11.94544886       5.97388431       9.37033585       18      -0.00017831      -0.00005806       0.00004574
I        7.91229408       2.43381292      10.87656581       19      -0.00016384       0.00020351       0.00000708
Cs      21.81514952       4.94751992       6.72321014       20       0.00025391       0.00020396       0.00005069
Cs      14.16052193       1.70094052       5.21913166       21       0.00033561      -0.00043715       0.00022253
Cs      14.94450696      -1.19280344      11.15500622       22      -0.00010949      -0.00020972      -0.00004726
Cs       0.96223288       2.95542946      10.09388002       23       0.00008668      -0.00016223      -0.00013353
Pb      11.48566407      -0.35956217       1.37986305       24      -0.00049163       0.00021051      -0.00011676
Pb      17.61987888       0.86578874      14.99465212       25      -0.00014662      -0.00039965      -0.00046275
Pb      10.72574163      -1.37059295       7.43500815       26      -0.00031794      -0.00013747       0.00002028
Pb      18.37949264       1.87761491       8.93919047       27       0.00026563      -0.00000521      -0.00028071
I       16.00181635       3.46483483       2.02955608       28      -0.00003205      -0.00025652      -0.00031374
I       14.62235003      -0.93617848       2.23543450       29      -0.00003995       0.00010086      -0.00061932
I       21.19325339      -1.93016125       5.49710829       30      -0.00013142       0.00039646      -0.00063135
I       20.75664113       0.28908043      15.84809511       31       0.00013151      -0.00060147      -0.00041629
I       22.13660919       4.68967099      15.64289200       32      -0.00036142       0.00055378       0.00016582
I       18.02897034       1.77044413       5.71749306       33       0.00004477      -0.00020792       0.00018877
I       15.10860758       2.27570916       9.15020571       34      -0.00018270       0.00008631      -0.00003409
I       13.99668155      -1.76854708       7.22378741       35       0.00016611      -0.00040708      -0.00027163
I       11.07627761      -1.26439606      10.65627257       36       0.00004657       0.00017105       0.00011468
I       21.65033189       1.47795890       8.72608380       37       0.00011030       0.00036982       0.00022439
I       22.76283786       5.52374602      10.65417349       38      -0.00035258      -0.00023726      -0.00022861
I       18.72842964       1.98509747      12.16057056       39       0.00028164      -0.00015780      -0.00024997
