10
Lattice="9.29590359802074 0.004536514555425528 -0.0025612159213548934 -4.652726581486424 8.015651295857065 -0.7799041447169407 0.006057431959344009 0.8564482575716127 8.787976837338963" Properties=species:S:1:pos:R:3:spacegroup_kinds:I:1:forces:R:3 spacegroup="P 1" unit_cell=conventional occupancy="_JSON {\"0\": {\"Cs\": 1.0}, \"1\": {\"Cs\": 1.0}, \"2\": {\"K\": 1.0}, \"3\": {\"In\": 1.0}, \"4\": {\"I\": 1.0}, \"5\": {\"I\": 1.0}, \"6\": {\"I\": 1.0}, \"7\": {\"I\": 1.0}, \"8\": {\"I\": 1.0}, \"9\": {\"I\": 1.0}}" energy=-25.793814837068194 free_energy=-25.793814837068194 stress="-6.02916756977436e-06 -1.6942473935419616e-06 3.213938769270774e-06 -1.6942473935419616e-06 9.793153465004453e-06 6.858553618666128e-07 3.213938769270774e-06 6.858553618666128e-07 9.35669537225756e-06" pbc="T T T"
Cs       4.47055904       2.75395058      -0.26426765        0      -0.00008193      -0.00001753       0.00010694
Cs      -0.17308875       6.27771338       8.25471427        1       0.00001135      -0.00006773       0.00005540
K        9.12303500       0.51025589       4.38393069        2       0.00004060       0.00002441      -0.00008288
In       9.11995753       0.08197351      -0.01015915        3       0.00036855       0.00043478       0.00048858
I        7.90357884       2.35600290       1.54392146        4       0.00020711       0.00001342      -0.00028521
I        5.68976548       6.68018702       6.44409363        5      -0.00008668      -0.00019257      -0.00003715
I        1.04985152       2.86316905       6.81688085        6      -0.00011266       0.00022719       0.00025592
I        3.24763534       6.16852682       1.17353934        7      -0.00000546      -0.00042089      -0.00006052
I        2.26324359       0.24669588       1.74964274        8      -0.00024477       0.00004603      -0.00024319
I        6.68698775       0.76928343       7.02085761        9      -0.00009612      -0.00004711      -0.00019789
