40
Lattice="17.31155372093515 0.6005665867753058 -0.2425020401114401 -0.33727333364692513 8.88407327268615 -2.1812655659060076 0.060283557766256185 3.0175807707017905 12.27483366240738" Properties=species:S:1:pos:R:3:spacegroup_kinds:I:1:forces:R:3 spacegroup="P 1" unit_cell=conventional occupancy="_JSON {\"0\": {\"Cs\": 1.0}, \"1\": {\"Cs\": 1.0}, \"2\": {\"Cs\": 1.0}, \"3\": {\"Cs\": 1.0}, \"4\": {\"Pb\": 1.0}, \"5\": {\"Pb\": 1.0}, \"6\": {\"Pb\": 1.0}, \"7\": {\"Pb\": 1.0}, \"8\": {\"I\": 1.0}, \"9\": {\"I\": 1.0}, \"10\": {\"I\": 1.0}, \"11\": {\"I\": 1.0}, \"12\": {\"I\": 1.0}, \"13\": {\"I\": 1.0}, \"14\": {\"I\": 1.0}, \"15\": {\"I\": 1.0}, \"16\": {\"I\": 1.0}, \"17\": {\"I\": 1.0}, \"18\": {\"I\": 1.0}, \"19\": {\"I\": 1.0}, \"20\": {\"Cs\": 1.0}, \"21\": {\"Cs\": 1.0}, \"22\": {\"Cs\": 1.0}, \"23\": {\"Cs\": 1.0}, \"24\": {\"Pb\": 1.0}, \"25\": {\"Pb\": 1.0}, \"26\": {\"Pb\": 1.0}, \"27\": {\"Pb\": 1.0}, \"28\": {\"I\": 1.0}, \"29\": {\"I\": 1.0}, \"30\": {\"I\": 1.0}, \"31\": {\"I\": 1.0}, \"32\": {\"I\": 1.0}, \"33\": {\"I\": 1.0}, \"34\": {\"I\": 1.0}, \"35\": {\"I\": 1.0}, \"36\": {\"I\": 1.0}, \"37\": {\"I\": 1.0}, \"38\": {\"I\": 1.0}, \"39\": {\"I\": 1.0}}" energy=-113.0160486649988 free_energy=-113.0160486649988 stress="-1.9847932527033445e-06 5.5729551666656595e-06 -1.4507213195706337e-05 5.5729551666656595e-06 -8.892292505048513e-07 4.801719529689513e-06 -1.4507213195706337e-05 4.801719529689513e-06 1.5074842842104406e-06" pbc="T T T"
Cs       5.13073110       2.53767474       2.60305509        0      -0.00009009      -0.00007044      -0.00040993
Cs       1.10711358       6.84539804       1.56556732        1       0.00007527       0.00003878       0.00001603
Cs       5.68588914       2.67936383       9.07185381        2       0.00027469       0.00052718      -0.00026504
Cs       9.37250662       7.25585474       7.92938575        3      -0.00015515       0.00002710      -0.00009236
Pb       1.10997203       3.96786485      12.03569004        4      -0.00005797      -0.00019964      -0.00004563
Pb       5.26960606       8.56014873      10.88438711        5       0.00001508      -0.00052394      -0.00040402
Pb       1.08084477       2.45838087       5.89826075        6       0.00012934       0.00025922       0.00033555
Pb       5.24002072       7.05085335       4.74693232        7       0.00014479       0.00009903      -0.00000285
I        3.43604791       8.28517043      -1.51280626        8       0.00048754      -0.00004146       0.00023646
I        2.62511427       3.80911366      -0.40864993        9      -0.00019768       0.00015737      -0.00018570
I        8.99212119       1.89586182       2.73890422       10      -0.00037858       0.00005063      -0.00004228
I        7.04170643       5.81577401      11.00680297       11       0.00012770       0.00035315      -0.00010490
I        7.85386073      10.29214613       9.90310744       12      -0.00006055       0.00003826      -0.00003518
I        5.95997892       6.23874378       1.68828312       13       0.00053247       0.00004743       0.00034411
I        3.46252637       9.54359147       3.60216478       14      -0.00018899      -0.00027383       0.00019085
I        2.65130462       5.06680602       4.70714507       15      -0.00044639      -0.00025333       0.00004065
I        1.82427947       3.32121777       8.93705796       16       0.00042784       0.00002115      -0.00036589
I        7.01833548       4.55854472       5.89106476       17      -0.00008638       0.00004364       0.00034709
I        7.83016410       9.03489898       4.78709282       18      -0.00033965      -0.00017165      -0.00010017
I        4.51913087       7.86305856       7.80460702       19      -0.00021331      -0.00012863       0.00054349
Cs      13.78650795       2.83795802       2.48180407       20      -0.00009007      -0.00007043      -0.00040995
Cs       9.76289044       7.14568133       1.44431631       21       0.00007527       0.00003878       0.00001599
Cs      14.34166600       2.97964712       8.95060279       22       0.00027467       0.00052719      -0.00026503
Cs       0.71672975       6.95557144       8.05063678       23      -0.00015514       0.00002712      -0.00009242
Pb       9.76574889       4.26814812      11.91443905       24      -0.00005793      -0.00019959      -0.00004576
Pb      13.92538293       8.86043205      10.76313605       25       0.00001495      -0.00052397      -0.00040386
Pb       9.73662163       2.75866419       5.77700969       26       0.00012929       0.00025917       0.00033572
Pb      13.89579757       7.35113664       4.62568132       27       0.00014490       0.00009903      -0.00000292
I       12.09182477       8.58545374      -1.63405729       28       0.00048760      -0.00004150       0.00023649
I       11.28089112       4.10939693      -0.52990094       29      -0.00019761       0.00015743      -0.00018571
I        0.33634433       1.59557851       2.86015531       30      -0.00037856       0.00005059      -0.00004258
I       15.69748329       6.11605732      10.88555194       31       0.00012776       0.00035310      -0.00010489
I       16.50963758      10.59242940       9.78185644       32      -0.00006045       0.00003837      -0.00003523
I       14.61575578       6.53902708       1.56703208       33       0.00053245       0.00004744       0.00034421
I       12.11830323       9.84387476       3.48091376       34      -0.00018902      -0.00027383       0.00019086
I       11.30708149       5.36708932       4.58589405       35      -0.00044640      -0.00025334       0.00004066
I       10.48005634       3.62150104       8.81580700       36       0.00042782       0.00002111      -0.00036620
I       15.67411234       4.85882800       5.76981374       37      -0.00008644       0.00004371       0.00034708
I       16.48594097       9.33518230       4.66584177       38      -0.00033974      -0.00017178      -0.00010010
I       13.17490773       8.16334185       7.68335603       39      -0.00021332      -0.00012864       0.00054338
