40
Lattice="18.529647065008955 -1.5627139340290401 0.3615576534516653 -7.915143028844967 16.82901721634502 -0.005578495643663991 -0.17668415240272337 -0.08131635450289022 8.82655076274405" Properties=species:S:1:pos:R:3:spacegroup_kinds:I:1:forces:R:3 spacegroup="P 1" unit_cell=conventional occupancy="_JSON {\"0\": {\"Cs\": 1.0}, \"1\": {\"Cs\": 1.0}, \"2\": {\"K\": 1.0}, \"3\": {\"In\": 1.0}, \"4\": {\"I\": 1.0}, \"5\": {\"I\": 1.0}, \"6\": {\"I\": 1.0}, \"7\": {\"I\": 1.0}, \"8\": {\"I\": 1.0}, \"9\": {\"I\": 1.0}, \"10\": {\"Cs\": 1.0}, \"11\": {\"Cs\": 1.0}, \"12\": {\"K\": 1.0}, \"13\": {\"In\": 1.0}, \"14\": {\"I\": 1.0}, \"15\": {\"I\": 1.0}, \"16\": {\"I\": 1.0}, \"17\": {\"I\": 1.0}, \"18\": {\"I\": 1.0}, \"19\": {\"I\": 1.0}, \"20\": {\"Cs\": 1.0}, \"21\": {\"Cs\": 1.0}, \"22\": {\"K\": 1.0}, \"23\": {\"In\": 1.0}, \"24\": {\"I\": 1.0}, \"25\": {\"I\": 1.0}, \"26\": {\"I\": 1.0}, \"27\": {\"I\": 1.0}, \"28\": {\"I\": 1.0}, \"29\": {\"I\": 1.0}, \"30\": {\"Cs\": 1.0}, \"31\": {\"Cs\": 1.0}, \"32\": {\"K\": 1.0}, \"33\": {\"In\": 1.0}, \"34\": {\"I\": 1.0}, \"35\": {\"I\": 1.0}, \"36\": {\"I\": 1.0}, \"37\": {\"I\": 1.0}, \"38\": {\"I\": 1.0}, \"39\": {\"I\": 1.0}}" energy=-103.1752642785511 free_energy=-103.1752642785511 stress="1.6998246157548654e-06 -5.037650536293563e-07 3.137957669149204e-06 -5.037650536293563e-07 -4.692641661272862e-07 1.925701358373817e-08 3.137957669149204e-06 1.925701358373817e-08 3.755366308383961e-07" pbc="T T T"
Cs       2.71301929       5.77773297       8.96033336        0      -0.00006040       0.00006916      -0.00016727
Cs       7.12135989       2.71226925       8.97955160        1      -0.00009739       0.00003014      -0.00012940
K        2.35067051       0.46852132       4.46727323        2       0.00063653       0.00024337       0.00024878
In       2.44038958       0.51005767       0.05416635        3      -0.00000211      -0.00070289      -0.00005085
I        3.80721813       2.48738635       1.86690699        4      -0.00010516       0.00004608       0.00012877
I        6.20386433       6.08393360       7.24636850        5      -0.00027031      -0.00024072      -0.00006761
I        4.72699774       0.22654141       7.16161035        6       0.00001858       0.00004275      -0.00001911
I        9.24134218      -0.06951786       1.95381327        7       0.00008898      -0.00004263       0.00004004
I       -0.52747754       6.69599437       1.81760210        8       0.00001426      -0.00025212       0.00013723
I        1.27374548       2.65689778       7.11450061        9      -0.00017236       0.00017245      -0.00006617
Cs      -1.24455083      14.19225378       8.95754601       10      -0.00008804      -0.00000700      -0.00018410
Cs       3.16378677      11.12676566       8.97676052       11      -0.00006787       0.00010645      -0.00011331
K       -1.60689464       8.88299534       4.46448140       12       0.00060516       0.00044753       0.00026972
In      -1.51714230       8.92435345       0.05137687       13      -0.00019274       0.00055672      -0.00007817
I       -0.15034537      10.90193607       1.86413352       14      -0.00023345      -0.00021301      -0.00002755
I        2.24628485      14.49840048       7.24356330       15      -0.00014184       0.00002156       0.00009050
I        0.76941940       8.64106814       7.15882631       16       0.00007534      -0.00005950      -0.00007352
I        5.28376335       8.34500923       1.95102946       17       0.00014951      -0.00014625      -0.00001626
I       -4.48502581      15.11043253       1.81483119       18      -0.00015198       0.00015710      -0.00006663
I       -2.68384941      11.07147736       7.11169263       19      -0.00000554      -0.00023822       0.00013889
Cs      11.97784262       4.99637626       9.14111228       20      -0.00005853       0.00006800      -0.00016817
Cs      16.38618346       1.93091202       9.16033039       21      -0.00009743       0.00003153      -0.00012911
K       11.61549400      -0.31283573       4.64805211       22       0.00063706       0.00024372       0.00024830
In      11.70521287      -0.27129991       0.23494490       23       0.00000079      -0.00070021      -0.00004886
I       13.07204178       1.70602966       2.04768596       24      -0.00010642       0.00004475       0.00012777
I       -3.06095930       6.86528968       7.06558929       25      -0.00026856      -0.00023576      -0.00006407
I       13.99182134      -0.55481555       7.34238919       26       0.00001769       0.00004269      -0.00001914
I       -0.02348143       0.71183910       1.77303444       27       0.00008991      -0.00004260       0.00004004
I        8.73734549       5.91463897       1.99838046       28       0.00001756      -0.00026064       0.00014214
I       10.53856907       1.87554071       7.29527940       29      -0.00017287       0.00017304      -0.00006587
Cs       8.02027267      13.41089708       9.13832488       30      -0.00008800      -0.00000840      -0.00018439
Cs      12.42861051      10.34540843       9.15753926       31      -0.00006974       0.00010761      -0.00011241
K        7.65792907       8.10163759       4.64526018       32       0.00060412       0.00045174       0.00027007
In       7.74768237       8.14299158       0.23215564       33      -0.00019917       0.00058339      -0.00007843
I        9.11447826      10.12057997       2.04491272       34      -0.00023519      -0.00021792      -0.00003108
I       -7.01853880      15.27975715       7.06278433       35      -0.00014057       0.00002295       0.00009153
I       10.03424269       7.85971145       7.33960530       36       0.00007754      -0.00006075      -0.00007510
I       -3.98105995       9.12636593       1.77025048       37       0.00014734      -0.00014501      -0.00001470
I        4.77979777      14.32907550       1.99560998       38      -0.00015245       0.00015758      -0.00006630
I        6.58097362      10.29012195       7.29247097       39      -0.00000227      -0.00024667       0.00014380
