40
Lattice="20.458161458174562 0.0 0.0 -7.730278025295067 13.389234296444274 0.0 -0.40420556962338566 -0.2333681944300076 9.70036831943136" Properties=species:S:1:pos:R:3 pbc="T T T"
Cs       3.57165743       5.05587646      -0.00007756
Cs       8.26973067       2.82433741      -0.00007756
K        2.53663512       0.47610921       4.85020006
In       2.73875453       0.59280248       0.00005615
I        4.32651661       2.30144214       1.94076801
I        7.11073355       5.34540764       7.75969091
I        5.09745055       0.40608504       7.75967530
I       10.20486338       0.54607472       1.94075240
I       -0.19384828       5.48543150       1.94074315
I        1.40193985       2.16148662       7.75966605
Cs      -0.29348159      11.75049360      -0.00007756
Cs       4.40459166       9.51895455      -0.00007756
K       -1.32850389       7.17072636       4.85020006
In      -1.12638448       7.28741963       0.00005615
I        0.46137760       8.99605928       1.94076801
I        3.24559453      12.04002479       7.75969091
I        1.23231154       7.10070218       7.75967530
I        6.33972437       7.24069187       1.94075240
I       -4.05898729      12.18004865       1.94074315
I       -2.46319916       8.85610377       7.75966605
Cs      13.80073816       5.05587646      -0.00007756
Cs      18.49881140       2.82433741      -0.00007756
K       12.76571585       0.47610921       4.85020006
In      12.96783526       0.59280248       0.00005615
I       14.55559734       2.30144214       1.94076801
I       17.33981428       5.34540764       7.75969091
I       15.32653128       0.40608504       7.75967530
I       20.43394411       0.54607472       1.94075240
I       10.03523245       5.48543150       1.94074315
I       11.63102058       2.16148662       7.75966605
Cs       9.93559914      11.75049360      -0.00007756
Cs      14.63367239       9.51895455      -0.00007756
K        8.90057684       7.17072636       4.85020006
In       9.10269625       7.28741963       0.00005615
I       10.69045832       8.99605928       1.94076801
I       13.47467526      12.04002479       7.75969091
I       11.46139227       7.10070218       7.75967530
I       16.56880510       7.24069187       1.94075240
I        6.17009344      12.18004865       1.94074315
I        7.76588157       8.85610377       7.75966605
