80
Lattice="18.36870178911356 -0.19607930677553115 -2.903077102307108 -9.461220789689635 15.951318988516618 -1.3785177621106355 2.7462443033976354 3.112177772420686 17.162739069042544" Properties=species:S:1:pos:R:3:spacegroup_kinds:I:1:forces:R:3 spacegroup="P 1" unit_cell=conventional occupancy="_JSON {\"0\": {\"Cs\": 1.0}, \"1\": {\"Cs\": 1.0}, \"2\": {\"K\": 1.0}, \"3\": {\"In\": 1.0}, \"4\": {\"I\": 1.0}, \"5\": {\"I\": 1.0}, \"6\": {\"I\": 1.0}, \"7\": {\"I\": 1.0}, \"8\": {\"I\": 1.0}, \"9\": {\"I\": 1.0}, \"10\": {\"Cs\": 1.0}, \"11\": {\"Cs\": 1.0}, \"12\": {\"K\": 1.0}, \"13\": {\"In\": 1.0}, \"14\": {\"I\": 1.0}, \"15\": {\"I\": 1.0}, \"16\": {\"I\": 1.0}, \"17\": {\"I\": 1.0}, \"18\": {\"I\": 1.0}, \"19\": {\"I\": 1.0}, \"20\": {\"Cs\": 1.0}, \"21\": {\"Cs\": 1.0}, \"22\": {\"K\": 1.0}, \"23\": {\"In\": 1.0}, \"24\": {\"I\": 1.0}, \"25\": {\"I\": 1.0}, \"26\": {\"I\": 1.0}, \"27\": {\"I\": 1.0}, \"28\": {\"I\": 1.0}, \"29\": {\"I\": 1.0}, \"30\": {\"Cs\": 1.0}, \"31\": {\"Cs\": 1.0}, \"32\": {\"K\": 1.0}, \"33\": {\"In\": 1.0}, \"34\": {\"I\": 1.0}, \"35\": {\"I\": 1.0}, \"36\": {\"I\": 1.0}, \"37\": {\"I\": 1.0}, \"38\": {\"I\": 1.0}, \"39\": {\"I\": 1.0}, \"40\": {\"Cs\": 1.0}, \"41\": {\"Cs\": 1.0}, \"42\": {\"K\": 1.0}, \"43\": {\"In\": 1.0}, \"44\": {\"I\": 1.0}, \"45\": {\"I\": 1.0}, \"46\": {\"I\": 1.0}, \"47\": {\"I\": 1.0}, \"48\": {\"I\": 1.0}, \"49\": {\"I\": 1.0}, \"50\": {\"Cs\": 1.0}, \"51\": {\"Cs\": 1.0}, \"52\": {\"K\": 1.0}, \"53\": {\"In\": 1.0}, \"54\": {\"I\": 1.0}, \"55\": {\"I\": 1.0}, \"56\": {\"I\": 1.0}, \"57\": {\"I\": 1.0}, \"58\": {\"I\": 1.0}, \"59\": {\"I\": 1.0}, \"60\": {\"Cs\": 1.0}, \"61\": {\"Cs\": 1.0}, \"62\": {\"K\": 1.0}, \"63\": {\"In\": 1.0}, \"64\": {\"I\": 1.0}, \"65\": {\"I\": 1.0}, \"66\": {\"I\": 1.0}, \"67\": {\"I\": 1.0}, \"68\": {\"I\": 1.0}, \"69\": {\"I\": 1.0}, \"70\": {\"Cs\": 1.0}, \"71\": {\"Cs\": 1.0}, \"72\": {\"K\": 1.0}, \"73\": {\"In\": 1.0}, \"74\": {\"I\": 1.0}, \"75\": {\"I\": 1.0}, \"76\": {\"I\": 1.0}, \"77\": {\"I\": 1.0}, \"78\": {\"I\": 1.0}, \"79\": {\"I\": 1.0}}" energy=-206.350541030902 free_energy=-206.350541030902 stress="-5.109196195836708e-07 1.51968453898309e-06 6.027860488284521e-07 1.51968453898309e-06 -1.5680520058229187e-06 6.755432470920338e-07 6.027860488284521e-07 6.755432470920338e-07 -5.799254453039336e-07" pbc="T T T"
Cs       3.20867635       2.94574454      -1.05009862        0       0.00006521      -0.00015165      -0.00020591
Cs      -0.05541881       7.19407727       7.79137496        1       0.00004697      -0.00014667      -0.00019851
K       17.71838084       0.93498496       1.53743329        2       0.00008992      -0.00007021       0.00008070
In      17.03177330       0.15666078      -2.75350167        3       0.00040238      -0.00005526       0.00000804
I       16.06463343       2.55822081      -1.21671175        4      -0.00028793       0.00038771       0.00006157
I        5.45755780       7.38474282       5.05367348        5      -0.00015596       0.00026108       0.00012919
I        0.92758359       3.66422074       6.45314440        6      -0.00003979      -0.00013043      -0.00020539
I        2.22558675       6.47550543       0.28724141        7      -0.00001042      -0.00015563      -0.00007071
I       -3.38466281       8.61599052       0.79642301        8       0.00005379      -0.00002361       0.00008460
I        6.53753299       1.52325496       5.94378310        9       0.00053999       0.00013802      -0.00000627
Cs       4.58178569       4.50182298       7.53131423       10       0.00010049      -0.00011876      -0.00023075
Cs       1.31770571       8.75016471      16.37272951       11       0.00003332      -0.00011947      -0.00022212
K       19.09156148       2.49106703      10.11887927       12       0.00008629      -0.00003043      -0.00012667
In      18.40497285       1.71273078       5.82787458       13      -0.00000262      -0.00000057       0.00004381
I       17.43771870       4.11433431       7.36468894       14      -0.00019428       0.00025734       0.00002201
I        6.83063108       8.94086054      13.63503285       15      -0.00004379       0.00016818       0.00019620
I        2.30076512       5.22037943      15.03440376       16      -0.00009968      -0.00025651       0.00005086
I        3.59870710       8.03160819       8.86856575       17       0.00002807      -0.00017830      -0.00002408
I       -2.01150812      10.17209038       9.37775742       18       0.00002215      -0.00001296       0.00026233
I        7.91078733       3.07935040      14.52505335       19       0.00011702       0.00014899       0.00013637
Cs      -1.52194919      10.92139237      -1.73930930       20       0.00007488      -0.00013025      -0.00025135
Cs      -4.78603293      15.16974398       7.10212554       21       0.00000679      -0.00013457      -0.00018929
K       12.98781137       8.91066490       0.84817194       22       0.00003423      -0.00007406       0.00005574
In      12.30120782       8.13229815      -3.44278944       23       0.00013770       0.00005281       0.00023472
I       11.33406779      10.53389111      -1.90601678       24      -0.00034929       0.00034210       0.00013378
I        0.72698944      15.36039254       4.36437048       25      -0.00024775       0.00028192       0.00020164
I       -3.80304150      11.63990736       5.76388939       26       0.00005049      -0.00013399      -0.00026906
I       -2.50503667      14.45119466      -0.40205918       27       0.00000105      -0.00030175       0.00005655
I        1.34600937       0.64033129       1.48567386       28      -0.00020555      -0.00000043       0.00005286
I        1.80703693       9.49894384       5.25443942       29       0.00020394       0.00012057       0.00010568
Cs      -0.14885318      12.47746037       6.84208140       30       0.00014170      -0.00008248      -0.00027738
Cs      -3.41290516      16.72582661      15.68350419       31      -0.00000116      -0.00010680      -0.00023530
K       14.36089257      10.46669865       9.42965161       32       0.00008736      -0.00001567      -0.00022599
In      13.67441945       9.68838040       5.13860054       33      -0.00031783       0.00005072       0.00018317
I       12.70713373      12.09001416       6.67537894       34      -0.00021453       0.00017912       0.00009168
I        2.10005700      16.91652727      12.94574894       35      -0.00008980       0.00014986       0.00023445
I       -2.42988530      13.19603628      14.34517048       36       0.00004232      -0.00020248      -0.00008862
I       -1.13189156      16.00732248       8.17926072       37       0.00003943      -0.00033390       0.00011193
I        2.71914707       2.19643523      10.06701252       38      -0.00014776      -0.00000234       0.00018804
I        3.18027455      11.05504260      13.83573093       39      -0.00025313       0.00011984       0.00020522
Cs      12.39303735       2.84770133      -2.50161656       40       0.00001223      -0.00013190      -0.00020731
Cs       9.12893773       7.09603687       6.33981989       41       0.00001883      -0.00014713      -0.00017759
K        8.53405914       1.03303818       2.98894273       42       0.00004489      -0.00004295       0.00015506
In       7.84744772       0.25464641      -1.30193935       43       0.00025919       0.00026327      -0.00014788
I        6.88029971       2.65625794       0.23481136       44      -0.00032038       0.00036510       0.00005901
I       14.64192197       7.28670109       3.60212529       45      -0.00016492       0.00024606       0.00014288
I       10.11193593       3.56618878       5.00160527       46      -0.00003371      -0.00016239      -0.00019771
I       11.40992056       6.37745849      -1.16429006       47       0.00004473      -0.00012818      -0.00013061
I        5.79970482       8.51795675      -0.65512507       48      -0.00003919      -0.00003608       0.00009993
I       15.72189507       1.42521359       4.49224367       49       0.00044909       0.00014181      -0.00000978
Cs      13.76613360       4.40377685       6.07978113       50       0.00009287      -0.00009456      -0.00023841
Cs      10.50206458       8.65212417      14.92119661       51       0.00001827      -0.00012194      -0.00022868
K        9.90718210       2.58908196      11.57044516       52       0.00009001       0.00001238      -0.00018172
In       9.22065808       1.81074091       7.27941334       53      -0.00021420       0.00017568       0.00005958
I        8.25335641       4.21238640       8.81623289       54      -0.00014237       0.00016626      -0.00002208
I       16.01497743       8.84282890      12.18349028       55      -0.00001384       0.00011406       0.00016562
I       11.48511530       5.12235015      13.58284533       56      -0.00009071      -0.00033420       0.00013138
I       12.78305138       7.93358382       7.41702878       57       0.00006088      -0.00019833      -0.00002675
I        7.17284032      10.07405065       7.92621960       58      -0.00001929      -0.00002219       0.00025082
I       17.09511019       2.98132082      13.07354105       59       0.00016756       0.00013270       0.00007677
Cs       7.66239849      10.82334502      -3.19082296       60       0.00008610      -0.00010043      -0.00027624
Cs       4.39831332      15.07170573       5.65058229       61       0.00003085      -0.00013169      -0.00018905
K        3.80347062       9.00873239       2.29971575       62       0.00007740      -0.00009951       0.00002619
In       3.11680106       8.23035346      -1.99122442       63       0.00047477      -0.00006100       0.00009249
I        2.14973954      10.63192125      -0.45451207       64      -0.00043187       0.00044736       0.00024642
I        9.91135056      15.26235052       2.91281053       65      -0.00027908       0.00034433       0.00027478
I        5.38130370      11.54187212       4.31236585       66       0.00007036      -0.00010064      -0.00032670
I        6.67929927      14.35314081      -1.85357465       67       0.00005788      -0.00020309      -0.00007027
I       10.53031313       0.54229850       0.03415459       68      -0.00001924      -0.00001383       0.00005384
I       10.99134452       9.40089835       3.80292106       69       0.00036990       0.00012839       0.00010328
Cs       9.03549540      12.37941721       5.39053662       70       0.00014942      -0.00007166      -0.00027739
Cs       5.77144853      16.62778734      14.23198001       71       0.00001663      -0.00010223      -0.00024781
K        5.17650618      10.56471536      10.88120055       72       0.00015267      -0.00002271      -0.00024234
In       4.49003493       9.78643960       6.59013682       73      -0.00010657      -0.00006957       0.00021402
I        3.52281102      12.18804110       8.12689400       74      -0.00028841       0.00026528       0.00016653
I       11.28444523      16.81846974      11.49417341       75      -0.00020572       0.00029587       0.00034229
I        6.75445463      13.09798338      12.89364058       76       0.00003951      -0.00018866      -0.00009639
I        8.05246607      15.90928753       6.72772510       77       0.00001989      -0.00032628       0.00009441
I       11.90349314       2.09839677       8.61546489       78      -0.00010412      -0.00000615       0.00024016
I       12.36459026      10.95700432      12.38421236       79      -0.00007453       0.00012965       0.00019552
