10
Lattice="12.773817896928641 -1.3316373412424714e-08 -1.3327221700513307e-16 -6.658186701873256e-09 6.38690894846437 7.444877160506046e-17 -6.732514365838211e-17 7.495857543329702e-17 6.386908947581561" Properties=species:S:1:pos:R:3:spacegroup_kinds:I:1:forces:R:3 spacegroup="P 1" unit_cell=conventional occupancy="_JSON {\"0\": {\"Cs\": 1.0}, \"1\": {\"Pb\": 1.0}, \"2\": {\"I\": 1.0}, \"3\": {\"I\": 1.0}, \"4\": {\"I\": 1.0}, \"5\": {\"Cs\": 1.0}, \"6\": {\"Pb\": 1.0}, \"7\": {\"I\": 1.0}, \"8\": {\"I\": 1.0}, \"9\": {\"I\": 1.0}}" energy=-27.961484715888048 free_energy=-27.961484715888048 stress="-7.275838644187947e-06 -6.020672849973445e-11 -8.19557548517973e-18 -6.020672849973445e-11 -7.275838643189243e-06 -8.917672859240553e-18 -8.19557548517973e-18 -8.917672859240553e-18 -7.2758538435174216e-06" pbc="T T T"
Cs       3.19358941       3.19331953       3.19345447        0       0.00000223      -0.00000223      -0.00000000
Pb       0.00000855      -0.00000855      -0.00000000        1       0.00000124      -0.00000124      -0.00000000
I        0.00002955      -0.00002956       3.19345447        2      -0.00001172       0.00001172      -0.00000000
I        3.19346124      -0.00002956      -0.00000000        3       0.00001996       0.00001172       0.00000000
I        0.00002955       3.19344771      -0.00000000        4      -0.00001172      -0.00001996       0.00000000
Cs       9.58049836       3.19331953       3.19345447        5       0.00000223      -0.00000223      -0.00000000
Pb       6.38691749      -0.00000855      -0.00000000        6       0.00000124      -0.00000124      -0.00000000
I        6.38693850      -0.00002956       3.19345447        7      -0.00001172       0.00001172      -0.00000000
I        9.58037019      -0.00002957      -0.00000000        8       0.00001996       0.00001172       0.00000000
I        6.38693850       3.19344770      -0.00000000        9      -0.00001172      -0.00001996       0.00000000
