10
Lattice="11.252206469660976 -4.877739612794004 -3.7410323419944547 5.757625868563764 6.680390426548569 -2.947286287247115 1.1842906858608222 7.695342869487928 5.085139200531181" Properties=species:S:1:pos:R:3:spacegroup_kinds:I:1:forces:R:3 spacegroup="P 1" unit_cell=conventional occupancy="_JSON {\"0\": {\"Cs\": 1.0}, \"1\": {\"Cs\": 1.0}, \"2\": {\"K\": 1.0}, \"3\": {\"In\": 1.0}, \"4\": {\"I\": 1.0}, \"5\": {\"I\": 1.0}, \"6\": {\"I\": 1.0}, \"7\": {\"I\": 1.0}, \"8\": {\"I\": 1.0}, \"9\": {\"I\": 1.0}}" energy=-25.7938159405241 free_energy=-25.7938159405241 stress="-9.66441002124575e-07 4.2462415749890213e-07 5.6921826192475e-07 4.2462415749890213e-07 1.5228574138111775e-06 1.8534621125985246e-06 5.6921826192475e-07 1.8534621125985246e-06 2.895706952662913e-08" pbc="T T T"
Cs       2.33523758       4.77964057       0.72634878        0      -0.00017890      -0.00009209       0.00000440
Cs      15.85888888       4.71844661      -2.32958882        1       0.00012700       0.00006914      -0.00001028
K        9.09694569       4.74890238      -0.80145692        2       0.00006399       0.00007653      -0.00005645
In      11.25226263      -4.87772359      -3.74096810        3      -0.00014507      -0.00008213      -0.00027490
I        5.90223770       6.18976634       0.01973520        4       0.00017309      -0.00010353       0.00022272
I       12.29172210       3.30827456      -1.62280614        5       0.00005977       0.00005244      -0.00033001
I       10.23798505      -2.08082435      -3.27869962        6      -0.00008283       0.00003941       0.00013045
I        7.95635054      11.57887989       1.67546332        7      -0.00020894      -0.00008747      -0.00004038
I        8.60731900       7.64937675      -2.87633568        8       0.00025461       0.00016153       0.00013691
I        9.58681046       1.84849081       1.27296751        9      -0.00006273      -0.00003382       0.00021754
