10
Lattice="9.225389577425169 0.03200909836045577 0.04649557289464561 4.646744712447401 7.984604401127913 0.039518547438540615 4.646073854826214 2.6821942559679783 6.969051537854012" Properties=species:S:1:pos:R:3:spacegroup_kinds:I:1:forces:R:3 spacegroup="P 1" unit_cell=conventional occupancy="_JSON {\"0\": {\"Cs\": 1.0}, \"1\": {\"Cs\": 1.0}, \"2\": {\"K\": 1.0}, \"3\": {\"In\": 1.0}, \"4\": {\"I\": 1.0}, \"5\": {\"I\": 1.0}, \"6\": {\"I\": 1.0}, \"7\": {\"I\": 1.0}, \"8\": {\"I\": 1.0}, \"9\": {\"I\": 1.0}}" energy=-25.648943692470855 free_energy=-25.648943692470855 stress="1.6221195944547098e-06 -2.1146281145756103e-06 -7.790366017987456e-07 -2.1146281145756103e-06 -1.1284032754439187e-06 1.2423719213777255e-06 -7.790366017987456e-07 1.2423719213777255e-06 1.5042524014339136e-06" pbc="T T T"
Cs       4.63253578       2.69459104       1.95374099        0      -0.00061137       0.00019919      -0.00022349
Cs      13.88666768       8.00406068       5.10209588        1      -0.00022767       0.00019259      -0.00015944
K        9.25920773       5.34926656       3.52763864        2      -0.00025052       0.00028976       0.00002965
In       9.22524516       0.03221466       0.04649134        3       0.00006846      -0.00033756      -0.00012968
I        6.99304219       3.23371712       5.23031323        4       0.00027229      -0.00002100       0.00080921
I       11.52418959       7.46486679       1.82353606        5       0.00035593       0.00015679       0.00003275
I        9.95447110       2.37268289       1.74226675        6      -0.00017018      -0.00040673      -0.00041542
I        8.56353381       8.32581627       5.31357940        7       0.00049169       0.00024060      -0.00046874
I        6.33949579       6.21425084       1.72963182        8       0.00000045       0.00003694       0.00029682
I       12.17893756       4.48517673       5.32499682        9       0.00007091      -0.00035057       0.00022834
