40
Lattice="12.773939548183497 -7.639220053457918e-11 8.864127611211954e-16 -7.63922013836621e-11 12.773939548184277 1.3068287437382409e-15 8.864455471529738e-16 1.306586852499107e-15 12.773939548109837" Properties=species:S:1:pos:R:3:spacegroup_kinds:I:1:forces:R:3 spacegroup="P 1" unit_cell=conventional occupancy="_JSON {\"0\": {\"Cs\": 1.0}, \"1\": {\"Pb\": 1.0}, \"2\": {\"I\": 1.0}, \"3\": {\"I\": 1.0}, \"4\": {\"I\": 1.0}, \"5\": {\"Cs\": 1.0}, \"6\": {\"Pb\": 1.0}, \"7\": {\"I\": 1.0}, \"8\": {\"I\": 1.0}, \"9\": {\"I\": 1.0}, \"10\": {\"Cs\": 1.0}, \"11\": {\"Pb\": 1.0}, \"12\": {\"I\": 1.0}, \"13\": {\"I\": 1.0}, \"14\": {\"I\": 1.0}, \"15\": {\"Cs\": 1.0}, \"16\": {\"Pb\": 1.0}, \"17\": {\"I\": 1.0}, \"18\": {\"I\": 1.0}, \"19\": {\"I\": 1.0}, \"20\": {\"Cs\": 1.0}, \"21\": {\"Pb\": 1.0}, \"22\": {\"I\": 1.0}, \"23\": {\"I\": 1.0}, \"24\": {\"I\": 1.0}, \"25\": {\"Cs\": 1.0}, \"26\": {\"Pb\": 1.0}, \"27\": {\"I\": 1.0}, \"28\": {\"I\": 1.0}, \"29\": {\"I\": 1.0}, \"30\": {\"Cs\": 1.0}, \"31\": {\"Pb\": 1.0}, \"32\": {\"I\": 1.0}, \"33\": {\"I\": 1.0}, \"34\": {\"I\": 1.0}, \"35\": {\"Cs\": 1.0}, \"36\": {\"Pb\": 1.0}, \"37\": {\"I\": 1.0}, \"38\": {\"I\": 1.0}, \"39\": {\"I\": 1.0}}" energy=-111.84593921389578 free_energy=-111.84593921389578 stress="-4.42319455188095e-06 -2.9794242042379317e-12 8.282661335905177e-18 -2.9794242042379317e-12 -4.4231945420994325e-06 3.067636882465718e-18 8.282661335905177e-18 3.067636882465718e-18 -4.4231826298121655e-06" pbc="T T T"
Cs       3.19353515       3.19343462       3.19348489        0       0.00000447      -0.00000447      -0.00000000
Pb       0.00000136      -0.00000136       0.00000000        1       0.00001098      -0.00001098       0.00000000
I       -0.00001543       0.00001544       3.19348489        2       0.00000169      -0.00000169      -0.00000000
I        3.19349460       0.00001544       0.00000000        3      -0.00001883      -0.00000169       0.00000000
I       -0.00001543       3.19347517       0.00000000        4       0.00000169       0.00001883       0.00000000
Cs       3.19353515       3.19343462       9.58045466        5       0.00000447      -0.00000447      -0.00000000
Pb       0.00000136      -0.00000136       6.38696977        6       0.00001098      -0.00001098      -0.00000000
I       -0.00001543       0.00001544       9.58045466        7       0.00000169      -0.00000169       0.00000000
I        3.19349460       0.00001544       6.38696977        8      -0.00001883      -0.00000169      -0.00000000
I       -0.00001543       3.19347517       6.38696977        9       0.00000169       0.00001883      -0.00000000
Cs       3.19353515       9.58040440       3.19348489       10       0.00000447      -0.00000447      -0.00000000
Pb       0.00000136       6.38696842       0.00000000       11       0.00001098      -0.00001098       0.00000000
I       -0.00001543       6.38698521       3.19348489       12       0.00000169      -0.00000169      -0.00000000
I        3.19349460       6.38698521       0.00000000       13      -0.00001883      -0.00000169       0.00000000
I       -0.00001543       9.58044495       0.00000000       14       0.00000169       0.00001883       0.00000000
Cs       3.19353515       9.58040440       9.58045466       15       0.00000447      -0.00000447      -0.00000000
Pb       0.00000136       6.38696842       6.38696977       16       0.00001098      -0.00001098      -0.00000000
I       -0.00001543       6.38698521       9.58045466       17       0.00000169      -0.00000169       0.00000000
I        3.19349460       6.38698521       6.38696977       18      -0.00001883      -0.00000169      -0.00000000
I       -0.00001543       9.58044495       6.38696977       19       0.00000169       0.00001883      -0.00000000
Cs       9.58050492       3.19343462       3.19348489       20       0.00000447      -0.00000447      -0.00000000
Pb       6.38697113      -0.00000136       0.00000000       21       0.00001098      -0.00001098       0.00000000
I        6.38695434       0.00001544       3.19348489       22       0.00000169      -0.00000169      -0.00000000
I        9.58046437       0.00001544       0.00000000       23      -0.00001883      -0.00000169       0.00000000
I        6.38695434       3.19347517       0.00000000       24       0.00000169       0.00001883       0.00000000
Cs       9.58050492       3.19343462       9.58045466       25       0.00000447      -0.00000447      -0.00000000
Pb       6.38697113      -0.00000136       6.38696977       26       0.00001098      -0.00001098      -0.00000000
I        6.38695434       0.00001544       9.58045466       27       0.00000169      -0.00000169       0.00000000
I        9.58046437       0.00001544       6.38696977       28      -0.00001883      -0.00000169      -0.00000000
I        6.38695434       3.19347517       6.38696977       29       0.00000169       0.00001883      -0.00000000
Cs       9.58050492       9.58040440       3.19348489       30       0.00000447      -0.00000447      -0.00000000
Pb       6.38697113       6.38696842       0.00000000       31       0.00001098      -0.00001098       0.00000000
I        6.38695434       6.38698521       3.19348489       32       0.00000169      -0.00000169      -0.00000000
I        9.58046437       6.38698521       0.00000000       33      -0.00001883      -0.00000169       0.00000000
I        6.38695434       9.58044495       0.00000000       34       0.00000169       0.00001883      -0.00000000
Cs       9.58050492       9.58040440       9.58045466       35       0.00000447      -0.00000447      -0.00000000
Pb       6.38697113       6.38696842       6.38696977       36       0.00001098      -0.00001098      -0.00000000
I        6.38695434       6.38698521       9.58045466       37       0.00000169      -0.00000169       0.00000000
I        9.58046437       6.38698521       6.38696977       38      -0.00001883      -0.00000169      -0.00000000
I        6.38695434       9.58044495       6.38696977       39       0.00000169       0.00001883      -0.00000000
