20
Lattice="19.73683199480544 -4.497508820329046 0.8235684185280858 -2.465023789748666 8.86993839903254 -0.03786513149564644 3.773169175121492 0.653084094424205 7.708041660718753" Properties=species:S:1:pos:R:3:spacegroup_kinds:I:1:forces:R:3 spacegroup="P 1" unit_cell=conventional occupancy="_JSON {\"0\": {\"Cs\": 1.0}, \"1\": {\"Cs\": 1.0}, \"2\": {\"K\": 1.0}, \"3\": {\"In\": 1.0}, \"4\": {\"I\": 1.0}, \"5\": {\"I\": 1.0}, \"6\": {\"I\": 1.0}, \"7\": {\"I\": 1.0}, \"8\": {\"I\": 1.0}, \"9\": {\"I\": 1.0}, \"10\": {\"Cs\": 1.0}, \"11\": {\"Cs\": 1.0}, \"12\": {\"K\": 1.0}, \"13\": {\"In\": 1.0}, \"14\": {\"I\": 1.0}, \"15\": {\"I\": 1.0}, \"16\": {\"I\": 1.0}, \"17\": {\"I\": 1.0}, \"18\": {\"I\": 1.0}, \"19\": {\"I\": 1.0}}" energy=-51.30704168223806 free_energy=-51.30704168223806 stress="3.6781458696254913e-06 -1.6334520169477878e-06 -4.692871235183819e-07 -1.6334520169477878e-06 -3.2191220598145555e-06 -1.4949496176219708e-06 -4.692871235183819e-07 -1.4949496176219708e-06 4.7524356164475795e-07" pbc="T T T"
Cs       5.85395714       1.87014268       1.61257160        0       0.00013645       0.00010214       0.00037791
Cs       4.57085729       6.09831488       6.44139324        1       0.00031787       0.00031351       0.00000194
K        1.51109516       0.67244711       3.84072945        2      -0.00001044       0.00048789      -0.00007643
In      19.36133241      -4.14999795       0.81009197        3      -0.00005136      -0.00019913      -0.00011572
I       19.45660353      -1.58903276       2.37261984        4      -0.00010520       0.00006367       0.00036489
I       10.70610425       5.05998336       6.50563337        5      -0.00026778       0.00057089       0.00044413
I        4.19369445       2.47266944       5.19480567        6       0.00000363      -0.00009342       0.00019501
I        6.23118015       5.49611097       2.85941955        7       0.00005784      -0.00046297       0.00002796
I        2.53832677      -0.10235463       0.58320282        8       0.00032953      -0.00038834      -0.00036937
I       10.35189186      -0.79888727       7.50954028        9       0.00039049      -0.00002893       0.00018238
Cs      15.72253451      -0.37856531       2.02426717       10      -0.00019360      -0.00020579       0.00049395
Cs      14.43939565       3.84955997       6.85306279       11       0.00020981       0.00005226       0.00011135
K       11.37918921      -1.57613637       4.25265958       12       0.00049232       0.00036599      -0.00046892
In       9.49303303      -1.90127315       0.39828000       13      -0.00029463      -0.00036456      -0.00005716
I        9.58821401       0.65985299       1.96133735       14      -0.00010111      -0.00053582      -0.00068427
I       20.57434920       2.81160331       6.91783290       15       0.00004253      -0.00058171      -0.00052981
I       14.06224286       0.22363741       5.60693617       16      -0.00000415       0.00029382      -0.00029689
I       16.09982408       3.24681731       3.27134886       17       0.00007838       0.00036559       0.00015410
I       12.40708948      -2.35134511       0.99474962       18      -0.00052017       0.00003368       0.00028730
I       20.22058774      -3.04775798       7.92145836       19      -0.00051039       0.00021122      -0.00004237
