40
Lattice="17.576747112665284 -0.6039670129651172 -0.4355118528725001 8.278825532189407 15.402056775406066 -0.41080048604925207 4.139277164848418 2.3746005012869014 7.266720252041607" Properties=species:S:1:pos:R:3:spacegroup_kinds:I:1:forces:R:3 spacegroup="P 1" unit_cell=conventional occupancy="_JSON {\"0\": {\"Cs\": 1.0}, \"1\": {\"Cs\": 1.0}, \"2\": {\"K\": 1.0}, \"3\": {\"In\": 1.0}, \"4\": {\"I\": 1.0}, \"5\": {\"I\": 1.0}, \"6\": {\"I\": 1.0}, \"7\": {\"I\": 1.0}, \"8\": {\"I\": 1.0}, \"9\": {\"I\": 1.0}, \"10\": {\"Cs\": 1.0}, \"11\": {\"Cs\": 1.0}, \"12\": {\"K\": 1.0}, \"13\": {\"In\": 1.0}, \"14\": {\"I\": 1.0}, \"15\": {\"I\": 1.0}, \"16\": {\"I\": 1.0}, \"17\": {\"I\": 1.0}, \"18\": {\"I\": 1.0}, \"19\": {\"I\": 1.0}, \"20\": {\"Cs\": 1.0}, \"21\": {\"Cs\": 1.0}, \"22\": {\"K\": 1.0}, \"23\": {\"In\": 1.0}, \"24\": {\"I\": 1.0}, \"25\": {\"I\": 1.0}, \"26\": {\"I\": 1.0}, \"27\": {\"I\": 1.0}, \"28\": {\"I\": 1.0}, \"29\": {\"I\": 1.0}, \"30\": {\"Cs\": 1.0}, \"31\": {\"Cs\": 1.0}, \"32\": {\"K\": 1.0}, \"33\": {\"In\": 1.0}, \"34\": {\"I\": 1.0}, \"35\": {\"I\": 1.0}, \"36\": {\"I\": 1.0}, \"37\": {\"I\": 1.0}, \"38\": {\"I\": 1.0}, \"39\": {\"I\": 1.0}}" energy=-102.5957064835159 free_energy=-102.5957064835159 stress="5.464783794003476e-06 -2.0315345081870526e-06 3.349388122287846e-08 -2.0315345081870526e-06 5.424909971313904e-06 -5.70912248851473e-07 3.349388122287846e-08 -5.70912248851473e-07 -1.1696412001344312e-05" pbc="T T T"
Cs       4.09802157       2.37449771       1.64714015        0       0.00083887       0.00009327       0.00015208
Cs      12.96598604       7.39873532       5.19580337        1       0.00062452      -0.00004845      -0.00005814
K        8.53316245       4.88620558       3.42153104        2       0.00037424       0.00025739       0.00014549
In      17.57707025      -0.60398058      -0.43554738        3      -0.00027408       0.00000744      -0.00021784
I        8.87912896       1.66385082       2.00776108        4      -0.00058720       0.00051646       0.00027735
I        8.18993868       8.10947391       4.83614075        5      -0.00038103      -0.00016123      -0.00037936
I       11.22405080       5.61636657       1.24590112        6      -0.00031563      -0.00062588       0.00000592
I        5.84339068       4.15847328       5.59799347        7      -0.00024515      -0.00024798       0.00013309
I        6.57327380       6.35114646       0.86210230        8      -0.00044519       0.00008947       0.00025929
I       10.49457809       3.42268497       5.98173819        9       0.00012024       0.00004746      -0.00047413
Cs       8.23744126      10.07544586       1.44173952       10       0.00088408       0.00011139       0.00008712
Cs      17.10538138      15.09985202       4.99039582       11       0.00056542      -0.00002942       0.00000063
K       12.67258470      12.58723200       3.21615325       12       0.00034765       0.00023419       0.00010742
In      21.71655954       7.09713084      -0.64086459       13      -0.00043798      -0.00019121      -0.00021617
I       13.01854063       9.36494490       1.80238089       14      -0.00055601       0.00040149       0.00030653
I       12.32937039      15.81032904       4.63063550       15      -0.00043441       0.00027993      -0.00009934
I       15.36347645      13.31733675       1.04055510       16      -0.00033733      -0.00060195      -0.00015672
I        9.98273038      11.85956606       5.39254594       17      -0.00010964      -0.00019609       0.00024524
I       10.71259049      14.05229518       0.65680103       18      -0.00021942      -0.00015013       0.00014349
I       14.63405102      11.12360064       5.77622624       19      -0.00015025       0.00028443      -0.00037029
Cs      12.88642859       2.07245771       1.42941803       20       0.00080589       0.00021964       0.00000317
Cs      21.75430622       7.09681061       4.97802178       21       0.00061418      -0.00013561       0.00015457
K       17.32157216       4.58421964       3.20377352       22       0.00027655       0.00028621       0.00016394
In       8.78867871      -0.30208571      -0.21806652       23      -0.00023203       0.00020084       0.00031097
I       17.66750183       1.36207710       1.79020267       24      -0.00064586      -0.00013534      -0.00021460
I       16.97834341       7.80725908       4.61823566       25      -0.00029611       0.00039514      -0.00004497
I       20.01234101       5.31415470       1.02817796       26       0.00006458       0.00004279      -0.00014095
I       14.63176674       3.85665065       5.38028533       27      -0.00026285      -0.00061272      -0.00003310
I       15.36152524       6.04929250       0.64462623       28      -0.00026960      -0.00013409      -0.00026023
I       19.28299721       3.12064037       5.76374896       29       0.00021052       0.00011130       0.00008810
Cs      17.02586281       9.77343573       1.22401288       30       0.00082328       0.00016850      -0.00003243
Cs      25.89368920      14.79792191       4.77263979       31       0.00061497      -0.00011724       0.00014411
K       21.46099253      12.28522236       2.99838539       32       0.00025627       0.00030558       0.00015181
In      12.92813040       7.39905517      -0.42338421       33      -0.00012440      -0.00020157       0.00020701
I       21.80691086       9.06318694       1.58483749       34      -0.00060971      -0.00034786      -0.00030845
I       21.11777392      15.50816625       4.41276902       35      -0.00036474       0.00063234       0.00008315
I       24.15183501      13.01518928       0.82277150       36      -0.00020736      -0.00017426      -0.00009817
I       18.77107474      11.55771583       5.17489442       37      -0.00000242      -0.00046896      -0.00007746
I       19.50082579      13.75044986       0.43929092       38       0.00005421      -0.00042752      -0.00024692
I       23.42246975      10.82155649       5.55822316       39       0.00003296       0.00032221       0.00025879
