20
Lattice="12.603241487957073 -1.6982438798209532 1.4753949254600727 1.3550003568027003 12.425358302208425 2.7214085307076195 -0.7956536974927075 -1.2773750763931306 6.226776325864248" Properties=species:S:1:pos:R:3:spacegroup_kinds:I:1:forces:R:3 spacegroup="P 1" unit_cell=conventional occupancy="_JSON {\"0\": {\"Cs\": 1.0}, \"1\": {\"Pb\": 1.0}, \"2\": {\"I\": 1.0}, \"3\": {\"I\": 1.0}, \"4\": {\"I\": 1.0}, \"5\": {\"Cs\": 1.0}, \"6\": {\"Pb\": 1.0}, \"7\": {\"I\": 1.0}, \"8\": {\"I\": 1.0}, \"9\": {\"I\": 1.0}, \"10\": {\"Cs\": 1.0}, \"11\": {\"Pb\": 1.0}, \"12\": {\"I\": 1.0}, \"13\": {\"I\": 1.0}, \"14\": {\"I\": 1.0}, \"15\": {\"Cs\": 1.0}, \"16\": {\"Pb\": 1.0}, \"17\": {\"I\": 1.0}, \"18\": {\"I\": 1.0}, \"19\": {\"I\": 1.0}}" energy=-55.93738784012648 free_energy=-55.93738784012648 stress="-1.6738611072050556e-05 1.836651982551395e-07 -3.7487904724869865e-06 1.836651982551395e-07 8.4155845293111e-06 1.5189375020328417e-06 -3.7487904724869865e-06 1.5189375020328417e-06 9.810903840010649e-06" pbc="T T T"
Cs       2.89352398       2.13047121       3.86477395        0       0.00047252      -0.00012640      -0.00030098
Pb       0.00272969      -0.00133757       0.00160000        1       0.00023192       0.00062364       0.00011336
I       -0.26199059      -0.66360163       3.17114797        2      -0.00009012      -0.00041429      -0.00007799
I        3.16796537      -0.46069225       0.51455720        3       0.00044943       0.00017583       0.00010560
I        0.38134305       3.08113620       0.77301064        4      -0.00032636      -0.00005321       0.00028669
Cs       3.57102529       8.34314938       5.22547769        5       0.00046509      -0.00012239      -0.00030014
Pb       0.68024491       6.21145003       1.36246340        6       0.00004967       0.00005294      -0.00018733
I        0.41550420       5.54905951       4.53177719        7      -0.00010482      -0.00039085       0.00012636
I        3.84557616       5.75194735       1.87529957        8      -0.00015400       0.00032781       0.00002841
I        1.05884192       9.29382193       2.13371780        9      -0.00033385      -0.00016049       0.00026839
Cs       9.19514172       1.28134758       4.60246653       10       0.00049161      -0.00010848      -0.00029423
Pb       6.30443797      -0.85049353       0.73931147       11      -0.00025891       0.00074759       0.00009713
I        6.03962319      -1.51272088       3.90884775       12      -0.00004943      -0.00042253      -0.00007254
I        9.46975159      -1.30985988       1.25231418       13      -0.00054701       0.00031259      -0.00000173
I        6.68295838       2.23203379       1.51072466       14      -0.00031400      -0.00024639       0.00024154
Cs       9.87264092       7.49403067       5.96317421       15       0.00049355      -0.00014667      -0.00029962
Pb       6.98191769       5.36231800       2.10019282       16      -0.00017271       0.00005051      -0.00025757
I        6.71711972       4.69993690       5.26946371       17      -0.00008822      -0.00039411       0.00015938
I       10.14714596       4.90283836       2.61297468       18       0.00007497       0.00029553       0.00005896
I        7.36045777       8.44469032       2.87140373       19      -0.00028935      -0.00000065       0.00030632
