80
Lattice="15.383843290679907 0.0 0.0 -0.3940606731630567 17.87766146466453 0.0 -4.3187877963522725 2.85760255354075 14.44198403987626" Properties=species:S:1:pos:R:3 pbc="T T T"
Cs       5.17134248       7.63783237      -0.00006983
Cs       7.80099314       4.65822212      -0.00006983
K       -1.07969695       0.71440064       3.61049601
In       2.73875350       1.67862356       0.00006388
I        4.27189585       4.30823812       1.44473458
I        6.54111350       9.41662928       5.77636349
I        3.02817348       2.82152460       5.77635636
I        7.98179336       1.96443504       1.44472745
I       -0.57739218       6.88092202       1.44468156
I        0.95968379       5.16535978       5.77633016
Cs       3.01194858       9.06663364       7.22092219
Cs       5.64159925       6.08702340       7.22092219
K       -3.23909085       2.14320192      10.83148803
In       0.57935960       3.10742483       7.22105590
I        2.11250195       5.73703940       8.66572660
I        4.38171960      10.84543055      12.99735551
I        0.86877958       4.25032588      12.99734838
I        5.82239946       3.39323632       8.66571947
I       -2.73678607       8.30972329       8.66567358
I       -1.19971011       6.59416106      12.99732218
Cs       4.97431215      16.57666310      -0.00006983
Cs       7.60396281      13.59705285      -0.00006983
K       -1.27672729       9.65323137       3.61049601
In       2.54172316      10.61745429       0.00006388
I        4.07486552      13.24706885       1.44473458
I        6.34408316      18.35546001       5.77636349
I        2.83114315      11.76035534       5.77635636
I        7.78476302      10.90326577       1.44472745
I       -0.77442251      15.81975275       1.44468156
I        0.76265345      14.10419051       5.77633016
Cs       2.81491825      18.00546437       7.22092219
Cs       5.44456891      15.02585413       7.22092219
K       -3.43612118      11.08203265      10.83148803
In       0.38232927      12.04625557       7.22105590
I        1.91547162      14.67587013       8.66572660
I        4.18468926      19.78426128      12.99735551
I        0.67174925      13.18915661      12.99734838
I        5.62536913      12.33206705       8.66571947
I       -2.93381641      17.24855403       8.66567358
I       -1.39674045      15.53299179      12.99732218
Cs      12.86326413       7.63783237      -0.00006983
Cs      15.49291479       4.65822212      -0.00006983
K        6.61222470       0.71440064       3.61049601
In      10.43067515       1.67862356       0.00006388
I       11.96381750       4.30823812       1.44473458
I       14.23303514       9.41662928       5.77636349
I       10.72009513       2.82152460       5.77635636
I       15.67371501       1.96443504       1.44472745
I        7.11452947       6.88092202       1.44468156
I        8.65160543       5.16535978       5.77633016
Cs      10.70387023       9.06663364       7.22092219
Cs      13.33352089       6.08702340       7.22092219
K        4.45283080       2.14320192      10.83148803
In       8.27128125       3.10742483       7.22105590
I        9.80442360       5.73703940       8.66572660
I       12.07364125      10.84543055      12.99735551
I        8.56070123       4.25032588      12.99734838
I       13.51432111       3.39323632       8.66571947
I        4.95513557       8.30972329       8.66567358
I        6.49221154       6.59416106      12.99732218
Cs      12.66623379      16.57666310      -0.00006983
Cs      15.29588445      13.59705285      -0.00006983
K        6.41519436       9.65323137       3.61049601
In      10.23364481      10.61745429       0.00006388
I       11.76678716      13.24706885       1.44473458
I       14.03600481      18.35546001       5.77636349
I       10.52306479      11.76035534       5.77635636
I       15.47668467      10.90326577       1.44472745
I        6.91749913      15.81975275       1.44468156
I        8.45457510      14.10419051       5.77633016
Cs      10.50683989      18.00546437       7.22092219
Cs      13.13649055      15.02585413       7.22092219
K        4.25580046      11.08203265      10.83148803
In       8.07425091      12.04625557       7.22105590
I        9.60739326      14.67587013       8.66572660
I       11.87661091      19.78426128      12.99735551
I        8.36367089      13.18915661      12.99734838
I       13.31729077      12.33206705       8.66571947
I        4.75810523      17.24855403       8.66567358
I        6.29518120      15.53299179      12.99732218
