10
Lattice="9.220900670793112 0.029364999225600104 0.0468890801708336 4.645327505722639 7.988042821933164 0.03747462446156456 4.643730636752015 2.6776700693764988 6.968018107245466" Properties=species:S:1:pos:R:3:spacegroup_kinds:I:1:forces:R:3 spacegroup="P 1" unit_cell=conventional occupancy="_JSON {\"0\": {\"Cs\": 1.0}, \"1\": {\"Cs\": 1.0}, \"2\": {\"K\": 1.0}, \"3\": {\"In\": 1.0}, \"4\": {\"I\": 1.0}, \"5\": {\"I\": 1.0}, \"6\": {\"I\": 1.0}, \"7\": {\"I\": 1.0}, \"8\": {\"I\": 1.0}, \"9\": {\"I\": 1.0}}" energy=-25.648945328471417 free_energy=-25.648945328471417 stress="-1.6294282580717503e-06 -2.124988287390085e-06 5.020656216666933e-06 -2.124988287390085e-06 1.68262707929219e-06 -5.920112909945957e-07 5.020656216666933e-06 -5.920112909945957e-07 2.7583180014374357e-06" pbc="T T T"
Cs       4.63167298       2.69199595       1.95320262        0      -0.00003872       0.00039794      -0.00027685
Cs      13.87856077       8.00217988       5.09987340        1      -0.00011541       0.00062469      -0.00004380
K        9.25484940       5.34750577       3.52612158        2       0.00023942       0.00013630       0.00021525
In       9.22090670       0.02956310       0.04691419        3       0.00007695      -0.00013175      -0.00019535
I        6.99220363       3.23183510       5.23221843        4       0.00021400      -0.00022257       0.00090410
I       11.51711397       7.46311913       1.81903151        5       0.00029036       0.00005233       0.00002110
I        9.94908255       2.36663314       1.74716239        6      -0.00003113      -0.00012099      -0.00049023
I        8.56099366       8.32849093       5.30563652        7       0.00002147      -0.00015787       0.00004523
I        6.33615923       6.21393742       1.72684093        8      -0.00003202      -0.00018191      -0.00043679
I       12.17417266       4.48195474       5.32560560        9      -0.00062492      -0.00039616       0.00025734
