10
Lattice="9.290227910347854 -0.4031884864943222 0.0009309165117460882 -4.295909207172517 8.246828971580996 -0.00791218457654498 -0.0010535998546884445 0.005387888722072359 8.828906690965693" Properties=species:S:1:pos:R:3:spacegroup_kinds:I:1:forces:R:3 spacegroup="P 1" unit_cell=conventional occupancy="_JSON {\"0\": {\"Cs\": 1.0}, \"1\": {\"Cs\": 1.0}, \"2\": {\"K\": 1.0}, \"3\": {\"In\": 1.0}, \"4\": {\"I\": 1.0}, \"5\": {\"I\": 1.0}, \"6\": {\"I\": 1.0}, \"7\": {\"I\": 1.0}, \"8\": {\"I\": 1.0}, \"9\": {\"I\": 1.0}}" energy=-25.79381671753812 free_energy=-25.79381671753812 stress="4.377289486633726e-07 -8.677297065841577e-07 -1.539557194506517e-06 -8.677297065841577e-07 -1.4559583321489829e-06 -3.620094919871206e-06 -1.539557194506517e-06 -3.620094919871206e-06 2.8225544720740094e-06" pbc="T T T"
Cs       5.25237495       2.46688869       8.81234083        0       0.00019204      -0.00015049      -0.00007018
Cs       0.72539395       5.34479595       0.00966605        1      -0.00019533       0.00006766       0.00012527
K        0.49172546      -0.01599817       4.41451519        2      -0.00000067       0.00007866      -0.00006135
In       0.49225162      -0.01878922       0.00000474        3       0.00000747       0.00058091       0.00024935
I        7.34693124      -0.30509285       1.76737277        4      -0.00009285      -0.00012993      -0.00059067
I       -1.36917227       8.11677416       7.05465746        5       0.00018078       0.00009185       0.00050995
I        1.80958393       2.03427838       1.76501682        6      -0.00010953      -0.00007641      -0.00035369
I        4.16820525       5.77744950       7.05705532        7      -0.00007113      -0.00025782       0.00004328
I       -2.68570796       6.06292105       1.76044653        8       0.00018234      -0.00031035      -0.00028350
I       -0.62676411       2.15197552       7.06061875        9      -0.00009311       0.00010592       0.00043153
