10
Lattice="9.763364491968181 0.0 0.0 -4.20439316699408 7.2822225802291705 0.0 0.0 0.0 9.270231827092628" Properties=species:S:1:pos:R:3 pbc="T T T"
Cs       5.62486826       2.42983290       9.26150154
Cs       0.96894904       4.85724042       0.00869528
K        0.51742457       0.00242312       4.63511671
In       0.51742840       0.00242470       0.00000983
I        7.72106773       0.00747956       1.85434776
I       -1.12725358       7.27957920       7.41589149
I        1.97997905       1.90947265       1.85435128
I        4.61385027       5.37760898       7.41589500
I        7.17356237       5.37254567       1.85434635
I       -0.57974521       1.91453227       7.41589007
