10
Lattice="9.259440897174029 0.8605302642255354 -0.013749642434740169 -5.374475078860126 7.588166125905927 -0.012802684161227165 0.012426397424293571 0.02512498005552595 8.828177447659284" Properties=species:S:1:pos:R:3:spacegroup_kinds:I:1:forces:R:3 spacegroup="P 1" unit_cell=conventional occupancy="_JSON {\"0\": {\"Cs\": 1.0}, \"1\": {\"Cs\": 1.0}, \"2\": {\"K\": 1.0}, \"3\": {\"In\": 1.0}, \"4\": {\"I\": 1.0}, \"5\": {\"I\": 1.0}, \"6\": {\"I\": 1.0}, \"7\": {\"I\": 1.0}, \"8\": {\"I\": 1.0}, \"9\": {\"I\": 1.0}}" energy=-25.793802409333676 free_energy=-25.793802409333676 stress="2.2242526826528355e-06 3.303207655226809e-07 2.8546093257571733e-06 3.303207655226809e-07 -1.1737490334755704e-06 2.2637353352071554e-06 2.8546093257571733e-06 2.2637353352071554e-06 -1.11781650732796e-06" pbc="T T T"
Cs       4.05955529       3.07796463       0.03460507        0       0.00021243       0.00005094      -0.00044773
Cs      -0.80521877       5.34553120       8.76797657        1      -0.00022218      -0.00005768       0.00032206
K        8.94412482       0.84791394       4.40085183        2       0.00002809       0.00002385      -0.00011106
In       8.93787821       0.83533452      -0.01323897        3       0.00016669       0.00012896      -0.00014593
I        7.55544524       2.84711105       1.74910239        4      -0.00016306      -0.00010925       0.00026494
I        4.95832367       6.43696786       7.03966655        5       0.00020827      -0.00005234      -0.00013096
I        0.73450118       2.19770527       7.05502645        6      -0.00027118       0.00013540       0.00012667
I        2.51980028       6.22572124       1.74749263        7       0.00032816      -0.00002977       0.00003863
I       -3.26315587       7.76334604       1.75026847        8      -0.00020069       0.00017225      -0.00010014
I        6.51757877       0.66019525       7.05224371        9      -0.00008651      -0.00026237       0.00018351
