10
Lattice="9.420360135191276 0.0 0.0 4.710180067635303 8.158271189851066 0.0 4.710180067711437 2.71942373000954 7.691692052618411" Properties=species:S:1:pos:R:3 pbc="T T T"
Cs       4.71016181       2.71941825       1.92292330
Cs      14.13055839       8.15827652       5.76876865
K        9.42036020       5.43884744       3.84584605
In       0.00000009       0.00000015       0.00000006
I        7.08071644       3.72711252       5.59034373
I       11.76000400       7.15058227       2.10134833
I        9.78275071       2.78426224       1.78754593
I        9.05796951       8.09343250       5.90414610
I        6.89955663       6.89430389       1.78754975
I       11.94116392       3.98339135       5.90414250
