40
Lattice="12.774139441151526 2.639169078656587e-10 -2.509465898212701e-15 2.639169078656951e-10 12.774139441152085 1.7231690189741486e-15 -2.509612378429841e-15 1.7230955810413462e-15 12.774139438256249" Properties=species:S:1:pos:R:3:spacegroup_kinds:I:1:forces:R:3 spacegroup="P 1" unit_cell=conventional occupancy="_JSON {\"0\": {\"Cs\": 1.0}, \"1\": {\"Pb\": 1.0}, \"2\": {\"I\": 1.0}, \"3\": {\"I\": 1.0}, \"4\": {\"I\": 1.0}, \"5\": {\"Cs\": 1.0}, \"6\": {\"Pb\": 1.0}, \"7\": {\"I\": 1.0}, \"8\": {\"I\": 1.0}, \"9\": {\"I\": 1.0}, \"10\": {\"Cs\": 1.0}, \"11\": {\"Pb\": 1.0}, \"12\": {\"I\": 1.0}, \"13\": {\"I\": 1.0}, \"14\": {\"I\": 1.0}, \"15\": {\"Cs\": 1.0}, \"16\": {\"Pb\": 1.0}, \"17\": {\"I\": 1.0}, \"18\": {\"I\": 1.0}, \"19\": {\"I\": 1.0}, \"20\": {\"Cs\": 1.0}, \"21\": {\"Pb\": 1.0}, \"22\": {\"I\": 1.0}, \"23\": {\"I\": 1.0}, \"24\": {\"I\": 1.0}, \"25\": {\"Cs\": 1.0}, \"26\": {\"Pb\": 1.0}, \"27\": {\"I\": 1.0}, \"28\": {\"I\": 1.0}, \"29\": {\"I\": 1.0}, \"30\": {\"Cs\": 1.0}, \"31\": {\"Pb\": 1.0}, \"32\": {\"I\": 1.0}, \"33\": {\"I\": 1.0}, \"34\": {\"I\": 1.0}, \"35\": {\"Cs\": 1.0}, \"36\": {\"Pb\": 1.0}, \"37\": {\"I\": 1.0}, \"38\": {\"I\": 1.0}, \"39\": {\"I\": 1.0}}" energy=-111.84593942494756 free_energy=-111.84593942494756 stress="2.629458029886279e-07 -7.059695049277506e-11 -1.2354286422644858e-17 -7.059695049277506e-11 2.629457975586158e-07 1.2087244821279767e-18 -1.2354286422644858e-17 1.2087244821279767e-18 2.632388868667357e-07" pbc="T T T"
Cs       3.19380345       3.19326627       3.19353486        0       0.00002176      -0.00002176      -0.00000000
Pb       0.00000247      -0.00000247       0.00000000        1       0.00005650      -0.00005650       0.00000000
I       -0.00006922       0.00006922       3.19353486        2       0.00000591      -0.00000591       0.00000000
I        3.19358169       0.00006922       0.00000000        3      -0.00009009      -0.00000591       0.00000000
I       -0.00006922       3.19348803       0.00000000        4       0.00000591       0.00009009       0.00000000
Cs       3.19380345       3.19326627       9.58060458        5       0.00002176      -0.00002176      -0.00000000
Pb       0.00000247      -0.00000247       6.38706972        6       0.00005650      -0.00005650      -0.00000000
I       -0.00006922       0.00006922       9.58060458        7       0.00000591      -0.00000591      -0.00000000
I        3.19358169       0.00006922       6.38706972        8      -0.00009009      -0.00000591       0.00000000
I       -0.00006922       3.19348803       6.38706972        9       0.00000591       0.00009009       0.00000000
Cs       3.19380345       9.58033599       3.19353486       10       0.00002176      -0.00002176      -0.00000000
Pb       0.00000247       6.38706725       0.00000000       11       0.00005650      -0.00005650       0.00000000
I       -0.00006922       6.38713894       3.19353486       12       0.00000591      -0.00000591       0.00000000
I        3.19358169       6.38713894       0.00000000       13      -0.00009009      -0.00000591       0.00000000
I       -0.00006922       9.58055775       0.00000000       14       0.00000591       0.00009009       0.00000000
Cs       3.19380345       9.58033599       9.58060458       15       0.00002176      -0.00002176      -0.00000000
Pb       0.00000247       6.38706725       6.38706972       16       0.00005650      -0.00005650      -0.00000000
I       -0.00006922       6.38713894       9.58060458       17       0.00000591      -0.00000591      -0.00000000
I        3.19358169       6.38713894       6.38706972       18      -0.00009009      -0.00000591       0.00000000
I       -0.00006922       9.58055775       6.38706972       19       0.00000591       0.00009009       0.00000000
Cs       9.58087317       3.19326627       3.19353486       20       0.00002176      -0.00002176      -0.00000000
Pb       6.38707219      -0.00000247       0.00000000       21       0.00005650      -0.00005650       0.00000000
I        6.38700050       0.00006922       3.19353486       22       0.00000591      -0.00000591       0.00000000
I        9.58065141       0.00006922       0.00000000       23      -0.00009009      -0.00000591       0.00000000
I        6.38700050       3.19348803       0.00000000       24       0.00000591       0.00009009       0.00000000
Cs       9.58087317       3.19326627       9.58060458       25       0.00002176      -0.00002176      -0.00000000
Pb       6.38707219      -0.00000247       6.38706972       26       0.00005650      -0.00005650      -0.00000000
I        6.38700050       0.00006922       9.58060458       27       0.00000591      -0.00000591      -0.00000000
I        9.58065141       0.00006922       6.38706972       28      -0.00009009      -0.00000591       0.00000000
I        6.38700050       3.19348803       6.38706972       29       0.00000591       0.00009009       0.00000000
Cs       9.58087317       9.58033599       3.19353486       30       0.00002176      -0.00002176      -0.00000000
Pb       6.38707219       6.38706725       0.00000000       31       0.00005650      -0.00005650       0.00000000
I        6.38700050       6.38713894       3.19353486       32       0.00000591      -0.00000591       0.00000000
I        9.58065141       6.38713894       0.00000000       33      -0.00009009      -0.00000591       0.00000000
I        6.38700050       9.58055775       0.00000000       34       0.00000591       0.00009009       0.00000000
Cs       9.58087317       9.58033599       9.58060458       35       0.00002176      -0.00002176      -0.00000000
Pb       6.38707219       6.38706725       6.38706972       36       0.00005650      -0.00005650      -0.00000000
I        6.38700050       6.38713894       9.58060458       37       0.00000591      -0.00000591      -0.00000000
I        9.58065141       6.38713894       6.38706972       38      -0.00009009      -0.00000591       0.00000000
I        6.38700050       9.58055775       6.38706972       39       0.00000591       0.00009009       0.00000000
