80
Lattice="18.454248106735882 -2.2835055542061475 -0.013551697272096113 -7.253374982906964 17.129732375212807 -0.020588071123577165 0.025664125417557325 0.01882962380419314 17.65624461490707" Properties=species:S:1:pos:R:3:spacegroup_kinds:I:1:forces:R:3 spacegroup="P 1" unit_cell=conventional occupancy="_JSON {\"0\": {\"Cs\": 1.0}, \"1\": {\"Cs\": 1.0}, \"2\": {\"K\": 1.0}, \"3\": {\"In\": 1.0}, \"4\": {\"I\": 1.0}, \"5\": {\"I\": 1.0}, \"6\": {\"I\": 1.0}, \"7\": {\"I\": 1.0}, \"8\": {\"I\": 1.0}, \"9\": {\"I\": 1.0}, \"10\": {\"Cs\": 1.0}, \"11\": {\"Cs\": 1.0}, \"12\": {\"K\": 1.0}, \"13\": {\"In\": 1.0}, \"14\": {\"I\": 1.0}, \"15\": {\"I\": 1.0}, \"16\": {\"I\": 1.0}, \"17\": {\"I\": 1.0}, \"18\": {\"I\": 1.0}, \"19\": {\"I\": 1.0}, \"20\": {\"Cs\": 1.0}, \"21\": {\"Cs\": 1.0}, \"22\": {\"K\": 1.0}, \"23\": {\"In\": 1.0}, \"24\": {\"I\": 1.0}, \"25\": {\"I\": 1.0}, \"26\": {\"I\": 1.0}, \"27\": {\"I\": 1.0}, \"28\": {\"I\": 1.0}, \"29\": {\"I\": 1.0}, \"30\": {\"Cs\": 1.0}, \"31\": {\"Cs\": 1.0}, \"32\": {\"K\": 1.0}, \"33\": {\"In\": 1.0}, \"34\": {\"I\": 1.0}, \"35\": {\"I\": 1.0}, \"36\": {\"I\": 1.0}, \"37\": {\"I\": 1.0}, \"38\": {\"I\": 1.0}, \"39\": {\"I\": 1.0}, \"40\": {\"Cs\": 1.0}, \"41\": {\"Cs\": 1.0}, \"42\": {\"K\": 1.0}, \"43\": {\"In\": 1.0}, \"44\": {\"I\": 1.0}, \"45\": {\"I\": 1.0}, \"46\": {\"I\": 1.0}, \"47\": {\"I\": 1.0}, \"48\": {\"I\": 1.0}, \"49\": {\"I\": 1.0}, \"50\": {\"Cs\": 1.0}, \"51\": {\"Cs\": 1.0}, \"52\": {\"K\": 1.0}, \"53\": {\"In\": 1.0}, \"54\": {\"I\": 1.0}, \"55\": {\"I\": 1.0}, \"56\": {\"I\": 1.0}, \"57\": {\"I\": 1.0}, \"58\": {\"I\": 1.0}, \"59\": {\"I\": 1.0}, \"60\": {\"Cs\": 1.0}, \"61\": {\"Cs\": 1.0}, \"62\": {\"K\": 1.0}, \"63\": {\"In\": 1.0}, \"64\": {\"I\": 1.0}, \"65\": {\"I\": 1.0}, \"66\": {\"I\": 1.0}, \"67\": {\"I\": 1.0}, \"68\": {\"I\": 1.0}, \"69\": {\"I\": 1.0}, \"70\": {\"Cs\": 1.0}, \"71\": {\"Cs\": 1.0}, \"72\": {\"K\": 1.0}, \"73\": {\"In\": 1.0}, \"74\": {\"I\": 1.0}, \"75\": {\"I\": 1.0}, \"76\": {\"I\": 1.0}, \"77\": {\"I\": 1.0}, \"78\": {\"I\": 1.0}, \"79\": {\"I\": 1.0}}" energy=-206.35050298075566 free_energy=-206.35050298075566 stress="-6.623010756866066e-06 -3.762554219857881e-06 7.801187962988409e-06 -3.762554219857881e-06 9.375063567518288e-06 -7.687226268244302e-06 7.801187962988409e-06 -7.687226268244302e-06 -4.389382829762935e-06" pbc="T T T"
Cs       2.17279665       6.16277086      17.62377713        0       0.00001079      -0.00006575       0.00000776
Cs       6.45753833       2.92741117      17.66623973        1      -0.00004273      -0.00006527      -0.00003126
K        1.49573379       0.81935937       4.41139072        2      -0.00002968      -0.00000531      -0.00003159
In       1.48924464       0.81465462      -0.00261199        3       0.00034750       0.00006721      -0.00026527
I        2.94926039       2.77150131       1.75929350        4      -0.00003747      -0.00008548      -0.00012171
I        5.64262616       6.29038802       7.04647051        5      -0.00004970      -0.00002801      -0.00000572
I        3.92140056       0.53537065       7.05687748        6       0.00016490      -0.00002987      -0.00015453
I        8.29709513      -0.03835518       1.75912953        7       0.00004693       0.00000117       0.00006979
I       17.28181880       4.85821109       1.74177506        8       0.00003861      -0.00004618       0.00005323
I        0.53713609       3.06182119       7.05720051        9      -0.00002224       0.00018778      -0.00015504
Cs       2.15996711       6.15334193       8.79564935       10       0.00001859      -0.00001514       0.00004068
Cs       6.44469308       2.91799703       8.83810928       11       0.00002774      -0.00004975       0.00001677
K        1.50855658       0.82877780      13.23951653       12      -0.00001595      -0.00001395      -0.00004523
In       1.50218547       0.82411988       8.82539012       13      -0.00033446      -0.00029141       0.00049220
I        2.96207238       2.78088205      10.58737269       14       0.00005473       0.00004509      -0.00004804
I        5.65545557       6.29979356      15.87459012       15      -0.00001629       0.00002757       0.00004133
I        3.93428086       0.54476365      15.88490752       16      -0.00013403       0.00003112       0.00022343
I        8.30992605      -0.02894085      10.58727640       17       0.00008298       0.00000088      -0.00004328
I       17.29464751       4.86763453      10.56989778       18       0.00005469      -0.00007464       0.00005074
I        0.54997344       3.07122747      15.88528287       19       0.00000975       0.00014290       0.00004121
Cs      -1.45388901      14.72762671      17.61349525       20      -0.00000498      -0.00002766      -0.00001894
Cs       2.83084178      11.49227530      17.65594374       21       0.00001779      -0.00003226      -0.00002190
K       -2.13095546       9.38422563       4.40107823       22      -0.00004091       0.00001389       0.00005334
In      -2.13737567       9.37951732      -0.01290554       23      -0.00006053       0.00008044      -0.00024684
I       -0.67743745      11.33634342       1.74896613       24       0.00003306       0.00000986      -0.00002854
I        2.01593834      14.85525119       7.03617068       25      -0.00005310      -0.00002468      -0.00000782
I        0.29472831       9.10023262       7.04655399       26       0.00004305      -0.00002004      -0.00000889
I        4.67042565       8.52650189       1.74882822       27      -0.00002321       0.00001945       0.00009663
I       -4.79911071      15.70658197       1.74501703       28       0.00000870       0.00001173       0.00005907
I       -3.08956598      11.62671131       7.04685972       29       0.00006896       0.00000144       0.00005864
Cs      -1.46671974      14.71821711       8.78535295       30      -0.00001483      -0.00005700       0.00005500
Cs       2.81800605      11.48286287       8.82781902       31       0.00004034      -0.00004839      -0.00000396
K       -2.11812024       9.39364114      13.22920403       32      -0.00004562       0.00001429       0.00004431
In      -2.12451635       9.38892649       8.81521191       33      -0.00022417       0.00010097      -0.00020830
I       -0.66460773      11.34575451      10.57708586       34       0.00004421       0.00003354      -0.00002701
I        2.02877058      14.86466664      15.86428073       35      -0.00003753      -0.00000165       0.00006525
I        0.30756009       9.10964560      15.87467454       36       0.00001778      -0.00000816       0.00001893
I        4.68324543       8.53592401      10.57696947       37       0.00003922      -0.00000309       0.00001191
I       -4.78627020      15.71597824      10.57319846       38      -0.00004912       0.00012777      -0.00017073
I       -3.07673081      11.63612083      15.87497650       39       0.00004998       0.00003779       0.00006405
Cs      11.39992522       5.02101030      17.61700206       40       0.00000056      -0.00003790       0.00001424
Cs      15.68465554       1.78565638      17.65946931       41      -0.00000838      -0.00004425      -0.00004472
K       10.72285360      -0.32239220       4.40461420       42      -0.00002206      -0.00000435      -0.00003794
In      10.71640827      -0.32706252      -0.00943593       43       0.00008123      -0.00015583       0.00002669
I       12.17637601       1.62973300       1.75249522       44       0.00000612      -0.00002551      -0.00007414
I       -3.58450293       7.43213274       7.05323371       45      -0.00000972       0.00003159       0.00005445
I       13.14855510      -0.60639684       7.05006128       46       0.00000315       0.00000839      -0.00000005
I       -0.93001225       1.10338890       1.76588357       47      -0.00007231       0.00002859       0.00018447
I        8.05469539       5.99996033       1.74855776       48       0.00003228      -0.00001264       0.00002298
I        9.76425386       1.92008166       7.05039922       49       0.00001484       0.00010723      -0.00004558
Cs      11.38708572       5.01159774       8.78887608       50       0.00003251      -0.00004906       0.00003334
Cs      15.67182541       1.77624474       8.83132907       51      -0.00002111      -0.00006659       0.00002233
K       10.73568509      -0.31297880      13.23273586       52      -0.00002026      -0.00000348      -0.00003594
In      10.72926212      -0.31767911       8.81864372       53      -0.00000307       0.00000487       0.00029315
I       12.18920857       1.63915160      10.58063600       54      -0.00002100      -0.00006752      -0.00016584
I       -3.57166659       7.44155403      15.88136558       55      -0.00003028      -0.00001013       0.00003008
I       13.16138766      -0.59698192      15.87816570       56      -0.00002361       0.00001025       0.00009216
I       -0.91721170       1.11281818      10.59407373       57       0.00018554      -0.00001944      -0.00014161
I        8.06752483       6.00938885      10.57667720       58       0.00004078      -0.00007471       0.00002978
I        9.77708991       1.92948387      15.87852604       59       0.00000709       0.00015274      -0.00004622
Cs       7.77323792      13.58587702      17.60671203       60      -0.00002884      -0.00005210      -0.00000080
Cs      12.05796664      10.35052647      17.64917280       61       0.00001227      -0.00005654      -0.00004141
K        7.09616823       8.24247265       4.39430258       62      -0.00003316       0.00001629       0.00004387
In       7.08974314       8.23777821      -0.01968453       63      -0.00003181      -0.00000265      -0.00024211
I        8.54968600      10.19458776       1.74219419       64       0.00003942       0.00002392      -0.00003873
I       -7.21119430      15.99698835       7.04292567       65       0.00000355       0.00005495       0.00005534
I        9.52186309       7.95847516       7.03976940       66       0.00000202      -0.00000930       0.00000795
I       -4.55669672       9.66825462       1.75559755       67      -0.00002902       0.00002018       0.00010537
I        4.42802304      14.56481170       1.73827601       68      -0.00003514       0.00009970      -0.00006697
I        6.13755684      10.48496330       7.04008437       69       0.00006836      -0.00001512       0.00005675
Cs       7.76039719      13.57646322       8.77858175       70       0.00002457      -0.00004309       0.00004873
Cs      12.04513296      10.34110506       8.82104280       71       0.00002638      -0.00002432       0.00000263
K        7.10900293       8.25188610      13.22242319       72      -0.00003964       0.00001914       0.00004870
In       7.10259206       8.24715360       8.80841015       73      -0.00010047       0.00023240      -0.00006375
I        8.56252214      10.20401196      10.57033094       74      -0.00000409      -0.00003936      -0.00011370
I       -7.19834589      16.00643747      15.87106746       75      -0.00008602      -0.00007547       0.00003309
I        9.53469470       7.96788618      15.86788620       76      -0.00001903       0.00000442       0.00005978
I       -4.54387864       9.67767548      10.58374369       77       0.00004779      -0.00000094       0.00002652
I        4.44085178      14.57423233      10.56640578       78      -0.00003070       0.00007862      -0.00009649
I        6.15038956      10.49437192      15.86820969       79       0.00005751       0.00003583       0.00004392
