80
Lattice="16.149188803185027 0.0 0.0 8.074594401660477 13.985607754030509 0.0 8.074594401791028 4.661869251444846 13.185757804488722" Properties=species:S:1:pos:R:3 pbc="T T T"
Cs       4.03723950       2.33091732       1.64822232
Cs      12.11194916       6.99282073       4.94465630
K        8.07459435       4.66186903       3.29643932
In       0.00000012       0.00000038       0.00000015
I        6.48694098       2.60383332       4.06840069
I        9.66224777       6.71990444       2.52447792
I        9.22058184       2.97724158       1.53214061
I        6.92860626       6.34649612       5.06073794
I        5.91405936       5.90947531       1.53215269
I       10.23512983       3.41426386       5.06072655
Cs       8.07453670       4.66185195       8.24110122
Cs      16.14924636       9.32375536      11.53753520
K       12.11189155       6.99280366       9.88931822
In       4.03729732       2.33093501       6.59287905
I       10.52423818       4.93476795      10.66127960
I       13.69954497       9.05083907       9.11735682
I       13.25787904       5.30817621       8.12501951
I       10.96590346       8.67743075      11.65361684
I        9.95135656       8.24040994       8.12503159
I       14.27242703       5.74519849      11.65360545
Cs       8.07453670       9.32372120       1.64822232
Cs      16.14924636      13.98562461       4.94465630
K       12.11189155      11.65467291       3.29643932
In       4.03729732       6.99280426       0.00000015
I       10.52423818       9.59663720       4.06840069
I       13.69954497      13.71270832       2.52447792
I       13.25787904       9.97004546       1.53214061
I       10.96590346      13.33930000       5.06073794
I        9.95135656      12.90227919       1.53215269
I       14.27242703      10.40706774       5.06072655
Cs      12.11183390      11.65465583       8.24110122
Cs      20.18654356      16.31655924      11.53753520
K       16.14918876      13.98560754       9.88931822
In       8.07459453       9.32373888       6.59287905
I       14.56153539      11.92757182      10.66127960
I       17.73684217      16.04364295       9.11735682
I       17.29517624      12.30098009       8.12501951
I       15.00320066      15.67023463      11.65361684
I       13.98865376      15.23321381       8.12503159
I       18.30972423      12.73800237      11.65360545
Cs      12.11183390       2.33091732       1.64822232
Cs      20.18654356       6.99282073       4.94465630
K       16.14918875       4.66186903       3.29643932
In       8.07459453       0.00000038       0.00000015
I       14.56153538       2.60383332       4.06840069
I       17.73684217       6.71990444       2.52447792
I       17.29517624       2.97724158       1.53214061
I       15.00320066       6.34649612       5.06073794
I       13.98865376       5.90947531       1.53215269
I       18.30972423       3.41426386       5.06072655
Cs      16.14913111       4.66185195       8.24110122
Cs      24.22384076       9.32375536      11.53753520
K       20.18648596       6.99280366       9.88931822
In      12.11189173       2.33093501       6.59287905
I       18.59883259       4.93476795      10.66127960
I       21.77413937       9.05083907       9.11735682
I       21.33247344       5.30817621       8.12501951
I       19.04049786       8.67743075      11.65361684
I       18.02595096       8.24040994       8.12503159
I       22.34702143       5.74519849      11.65360545
Cs      16.14913111       9.32372120       1.64822232
Cs      24.22384076      13.98562461       4.94465630
K       20.18648596      11.65467291       3.29643932
In      12.11189173       6.99280426       0.00000015
I       18.59883259       9.59663720       4.06840069
I       21.77413937      13.71270832       2.52447792
I       21.33247344       9.97004546       1.53214061
I       19.04049786      13.33930000       5.06073794
I       18.02595096      12.90227919       1.53215269
I       22.34702143      10.40706774       5.06072655
Cs      20.18642831      11.65465583       8.24110122
Cs      28.26113796      16.31655924      11.53753520
K       24.22378316      13.98560754       9.88931822
In      16.14918893       9.32373888       6.59287905
I       22.63612979      11.92757182      10.66127960
I       25.81143657      16.04364295       9.11735682
I       25.36977064      12.30098009       8.12501951
I       23.07779507      15.67023463      11.65361684
I       22.06324817      15.23321381       8.12503159
I       26.38431863      12.73800237      11.65360545
