80
Lattice="17.446698960196738 -0.5390584666875013 -0.3921262356265373 8.244993959816268 15.34853133859528 -0.3676822647344008 8.287459824122228 4.779031302903139 14.748380051250296" Properties=species:S:1:pos:R:3:spacegroup_kinds:I:1:forces:R:3 spacegroup="P 1" unit_cell=conventional occupancy="_JSON {\"0\": {\"Cs\": 1.0}, \"1\": {\"Cs\": 1.0}, \"2\": {\"K\": 1.0}, \"3\": {\"In\": 1.0}, \"4\": {\"I\": 1.0}, \"5\": {\"I\": 1.0}, \"6\": {\"I\": 1.0}, \"7\": {\"I\": 1.0}, \"8\": {\"I\": 1.0}, \"9\": {\"I\": 1.0}, \"10\": {\"Cs\": 1.0}, \"11\": {\"Cs\": 1.0}, \"12\": {\"K\": 1.0}, \"13\": {\"In\": 1.0}, \"14\": {\"I\": 1.0}, \"15\": {\"I\": 1.0}, \"16\": {\"I\": 1.0}, \"17\": {\"I\": 1.0}, \"18\": {\"I\": 1.0}, \"19\": {\"I\": 1.0}, \"20\": {\"Cs\": 1.0}, \"21\": {\"Cs\": 1.0}, \"22\": {\"K\": 1.0}, \"23\": {\"In\": 1.0}, \"24\": {\"I\": 1.0}, \"25\": {\"I\": 1.0}, \"26\": {\"I\": 1.0}, \"27\": {\"I\": 1.0}, \"28\": {\"I\": 1.0}, \"29\": {\"I\": 1.0}, \"30\": {\"Cs\": 1.0}, \"31\": {\"Cs\": 1.0}, \"32\": {\"K\": 1.0}, \"33\": {\"In\": 1.0}, \"34\": {\"I\": 1.0}, \"35\": {\"I\": 1.0}, \"36\": {\"I\": 1.0}, \"37\": {\"I\": 1.0}, \"38\": {\"I\": 1.0}, \"39\": {\"I\": 1.0}, \"40\": {\"Cs\": 1.0}, \"41\": {\"Cs\": 1.0}, \"42\": {\"K\": 1.0}, \"43\": {\"In\": 1.0}, \"44\": {\"I\": 1.0}, \"45\": {\"I\": 1.0}, \"46\": {\"I\": 1.0}, \"47\": {\"I\": 1.0}, \"48\": {\"I\": 1.0}, \"49\": {\"I\": 1.0}, \"50\": {\"Cs\": 1.0}, \"51\": {\"Cs\": 1.0}, \"52\": {\"K\": 1.0}, \"53\": {\"In\": 1.0}, \"54\": {\"I\": 1.0}, \"55\": {\"I\": 1.0}, \"56\": {\"I\": 1.0}, \"57\": {\"I\": 1.0}, \"58\": {\"I\": 1.0}, \"59\": {\"I\": 1.0}, \"60\": {\"Cs\": 1.0}, \"61\": {\"Cs\": 1.0}, \"62\": {\"K\": 1.0}, \"63\": {\"In\": 1.0}, \"64\": {\"I\": 1.0}, \"65\": {\"I\": 1.0}, \"66\": {\"I\": 1.0}, \"67\": {\"I\": 1.0}, \"68\": {\"I\": 1.0}, \"69\": {\"I\": 1.0}, \"70\": {\"Cs\": 1.0}, \"71\": {\"Cs\": 1.0}, \"72\": {\"K\": 1.0}, \"73\": {\"In\": 1.0}, \"74\": {\"I\": 1.0}, \"75\": {\"I\": 1.0}, \"76\": {\"I\": 1.0}, \"77\": {\"I\": 1.0}, \"78\": {\"I\": 1.0}, \"79\": {\"I\": 1.0}}" energy=-205.19156053074474 free_energy=-205.19156053074474 stress="-1.942703690899128e-06 2.1098389035020691e-07 -7.675950074373459e-07 2.1098389035020691e-07 -1.690976706139129e-06 7.021580175093042e-07 -7.675950074373459e-07 7.021580175093042e-07 2.931217546043467e-07" pbc="T T T"
Cs       4.10408762       2.35012662       1.67400438        0      -0.00045110      -0.00008123      -0.00015243
Cs      12.88425249       7.44598062       5.31921534        1       0.00005145       0.00003621       0.00006883
K        8.49416049       4.89732189       3.49723665        2       0.00022708      -0.00026810       0.00010304
In      17.44709933      -0.53906566      -0.39207296        3      -0.00056265       0.00047615      -0.00011983
I        5.87890926       4.19516601       5.77334723        4       0.00031827       0.00021761      -0.00003179
I       11.11220957       5.60063403       1.22441042        5      -0.00003929      -0.00003382      -0.00012205
I        8.76243943       1.67127119       2.06569232        6      -0.00021919      -0.00012663       0.00017049
I        8.22903617       8.12274653       4.92928002        7      -0.00006734       0.00002137      -0.00052558
I        6.52724357       6.31286618       0.92301974        8      -0.00033242       0.00016270       0.00011053
I       10.46239443       3.48117220       6.07122174        9       0.00002753      -0.00025611       0.00029729
Cs       8.24710000       4.73927769       9.04934475       10      -0.00021375      -0.00024030       0.00006509
Cs      17.03388050       9.83681494      12.69637300       11      -0.00059849      -0.00032749      -0.00029273
K       12.64051055       7.28721626      10.87117274       12      -0.00014208      -0.00045513       0.00009424
In      21.58982257       1.85049605       6.98203340       13      -0.00016013      -0.00045342      -0.00003661
I       10.02390533       6.58182302      13.14452049       14       0.00036270       0.00052551       0.00015842
I       15.25351470       7.98676573       8.59363881       15       0.00010574       0.00021017      -0.00017375
I       12.90401769       4.05895289       9.44088224       16       0.00012281       0.00032352       0.00018151
I       12.37121385      10.51331998      12.30273786       17       0.00004399      -0.00024887       0.00003915
I       10.67006669       8.70306576       8.29913826       18      -0.00020750      -0.00021502      -0.00043688
I       14.60648354       5.87025440      13.44604952       19      -0.00014218       0.00001307      -0.00022160
Cs       8.22656289      10.02460278       1.49298798       20      -0.00060809      -0.00000702      -0.00041363
Cs      17.00962165      15.12188459       5.13627612       21      -0.00045017      -0.00019041      -0.00011805
K       12.61750812      12.57295533       3.31334731       22       0.00008912      -0.00060008       0.00034598
In      21.56944254       7.13542337      -0.57584904       23      -0.00000236      -0.00066308      -0.00003833
I       10.00187076      11.86801531       5.58823928       24       0.00016454       0.00000215       0.00026515
I       15.23378215      13.27435927       1.03912607       25       0.00004684       0.00004454      -0.00002917
I       12.88535786       9.34591327       1.88206828       26       0.00008717      -0.00005323      -0.00005466
I       12.35081497      15.79905422       4.74339442       27       0.00015850       0.00004795       0.00016328
I       10.64912322      13.98667803       0.73943856       28       0.00035220      -0.00003868      -0.00000908
I       14.58412118      11.15350231       5.88620479       29      -0.00037066       0.00015161       0.00032049
Cs      12.37089881      12.41316417       8.86518226       30      -0.00029134      -0.00021501      -0.00023679
Cs      21.15431087      17.50978800      12.51189382       31      -0.00036871       0.00008094      -0.00028336
K       16.76189787      14.96066957      10.68740225       32       0.00007795      -0.00001952       0.00004739
In      25.71263423       9.52438184       6.79844833       33       0.00002352       0.00045674       0.00009445
I       14.14603926      14.25747976      12.96245934       34       0.00043989       0.00075446      -0.00020918
I       19.37668835      15.66241894       8.41137042       35       0.00019173      -0.00003065       0.00005274
I       17.02398943      11.73311023       9.25677069       36       0.00024230       0.00036227       0.00027082
I       16.49272009      18.18706996      12.11946212       37      -0.00006308      -0.00053170      -0.00048027
I       14.79237641      16.37667521       8.11391428       38      -0.00000754      -0.00011209      -0.00011543
I       18.72885031      13.54547858      13.26339317       39      -0.00036302      -0.00010598      -0.00028503
Cs      12.82610963       2.07911785       1.47887347       40       0.00001670       0.00013949      -0.00048820
Cs      21.60670675       7.17524765       5.12275346       41       0.00048733      -0.00001998       0.00032647
K       17.21727300       4.62761387       3.30083180       42      -0.00001440       0.00009473       0.00012386
In       8.72373012      -0.26938722      -0.19589187       43      -0.00010727      -0.00020848      -0.00061634
I       14.60126515       3.92615357       5.57593730       44       0.00063457       0.00005209      -0.00012410
I       19.83394795       5.33076980       1.02665376       45       0.00012406       0.00011303       0.00016061
I       17.48721249       1.40206959       1.86890364       46      -0.00018996      -0.00007623       0.00010467
I       16.95386446       7.85438057       4.73109489       47      -0.00013629      -0.00008681       0.00022754
I       15.25165317       6.04435329       0.72535815       48       0.00010820       0.00008272       0.00034049
I       19.18560314       3.21169468       5.87468536       49      -0.00008608       0.00016431       0.00011031
Cs      16.96891813       4.46714754       8.85221643       50       0.00055641       0.00006656       0.00000805
Cs      25.75469244       9.56297313      12.49732247       51       0.00013406       0.00041638       0.00000962
K       21.36173036       7.01623000      10.67550305       52      -0.00014874       0.00050837      -0.00011844
In      12.86726178       2.12000426       7.17794022       53      -0.00086904      -0.00033322       0.00009001
I       18.74595088       6.31451006      12.94974701       54       0.00034097       0.00030247       0.00029717
I       23.97578030       7.71976864       8.39928918       55       0.00014280      -0.00036386       0.00030181
I       21.62716017       3.78937918       9.24499553       56       0.00002487      -0.00000653       0.00017985
I       21.09497678      10.24401749      12.10687689       57      -0.00027713      -0.00039132      -0.00044261
I       19.39349626       8.43408044       8.10202189       58      -0.00000461       0.00016511      -0.00039909
I       23.33042963       5.60231330      13.24981592       59       0.00011595      -0.00029826       0.00013646
Cs      16.94846318       9.75345253       1.29415797       60      -0.00006011       0.00022838      -0.00021556
Cs      25.73085299      14.84849507       4.93769863       61       0.00049745       0.00028940       0.00005449
K       21.33926110      12.30123094       3.11741624       62      -0.00006330       0.00043719       0.00009316
In      12.84657594       7.40537593      -0.37966725       63      -0.00026946      -0.00008607       0.00016164
I       18.72333255      11.60070531       5.39287360       64       0.00061070      -0.00012910       0.00027950
I       23.95631801      13.00621186       0.84408117       65      -0.00025200      -0.00026563       0.00007551
I       21.60874789       9.07573429       1.68592811       66      -0.00022382      -0.00023314       0.00004360
I       21.07490536      15.52837622       4.54798435       67      -0.00011199       0.00022365      -0.00016871
I       19.37323259      13.71800117       0.54264742       68       0.00012444       0.00021751       0.00038113
I       23.30862693      10.88531605       5.68974642       69       0.00007397       0.00004087       0.00032166
Cs      21.09175927      12.14152700       8.66745117       70       0.00028071       0.00009405       0.00030708
Cs      29.87673111      17.23881820      12.31538529       71       0.00016009       0.00007755      -0.00026645
K       25.48450937      14.69099316      10.49122163       72      -0.00000452       0.00024867      -0.00005860
In      16.98877800       9.79383245       6.99389159       73       0.00004035      -0.00040468      -0.00007057
I       22.86809681      13.98918679      12.76518370       74       0.00061077       0.00037218       0.00015707
I       28.09872295      15.39284203       8.21433999       75       0.00014423       0.00007203       0.00004812
I       25.74964895      11.46448137       9.06022821       76       0.00013331       0.00004578      -0.00005024
I       25.21787185      17.91784719      11.92270656       77      -0.00001768      -0.00026563       0.00023790
I       23.51705898      16.10776142       7.91617009       78       0.00007187      -0.00012771       0.00036722
I       27.45238157      13.27545697      13.06605907       79      -0.00006963       0.00023073      -0.00038877
