20
Lattice="17.777239001085658 2.181824869550019 4.231596761311149 3.376037468908671 7.811402081715074 2.1861099676381075 2.5285357681671594 1.9944412859994278 8.677451479959736" Properties=species:S:1:pos:R:3:spacegroup_kinds:I:1:forces:R:3 spacegroup="P 1" unit_cell=conventional occupancy="_JSON {\"0\": {\"Cs\": 1.0}, \"1\": {\"Cs\": 1.0}, \"2\": {\"K\": 1.0}, \"3\": {\"In\": 1.0}, \"4\": {\"I\": 1.0}, \"5\": {\"I\": 1.0}, \"6\": {\"I\": 1.0}, \"7\": {\"I\": 1.0}, \"8\": {\"I\": 1.0}, \"9\": {\"I\": 1.0}, \"10\": {\"Cs\": 1.0}, \"11\": {\"Cs\": 1.0}, \"12\": {\"K\": 1.0}, \"13\": {\"In\": 1.0}, \"14\": {\"I\": 1.0}, \"15\": {\"I\": 1.0}, \"16\": {\"I\": 1.0}, \"17\": {\"I\": 1.0}, \"18\": {\"I\": 1.0}, \"19\": {\"I\": 1.0}}" energy=-51.297836283331314 free_energy=-51.297836283331314 stress="-1.8308920309605648e-06 2.6424271974754423e-06 5.877555568034261e-06 2.6424271974754423e-06 3.7938013453685793e-06 -7.199546002093386e-07 5.877555568034261e-06 -7.199546002093386e-07 5.063246786328593e-06" pbc="T T T"
Cs       3.69660434       2.91424975       3.22517015        0      -0.00050484       0.00001038       0.00030310
Cs      11.09749662       7.98250928       9.75379049        1      -0.00028492      -0.00001476       0.00024527
K        7.39636633       5.44842219       6.48965309        2       0.00022483      -0.00004374       0.00006270
In       0.00004649      -0.00003845       0.00015364        3      -0.00083619      -0.00013174       0.00008971
I        4.49512632       3.49594498       7.01904309        4       0.00023171       0.00037686      -0.00061632
I       10.29787158       7.40109058       5.96119139        5       0.00025429      -0.00035652      -0.00051738
I        8.91310356       3.27268975       4.14460902        6       0.00001358      -0.00082943      -0.00005631
I        5.88001556       7.62463650       8.83442442        7       0.00021580       0.00006921       0.00017094
I        5.61913469       6.48546208       3.61405068        8       0.00030521      -0.00000611      -0.00009440
I        9.17365705       4.41050429       9.36508472        9       0.00013956       0.00034711       0.00014744
Cs      12.58516184       4.00514809       5.34092815       10      -0.00028356      -0.00002308       0.00038033
Cs      19.98614726       9.07342879      11.86961591       11      -0.00037741       0.00003400       0.00018915
K       16.28494916       6.53933055       8.60543375       12       0.00039539      -0.00005688       0.00011257
In       8.88846334       1.09076727       2.11586771       13       0.00023035       0.00063774       0.00032379
I       13.38392051       4.58692435       9.13488965       14      -0.00050098       0.00003058      -0.00034307
I       19.18639990       8.49197339       8.07695746       15       0.00056272      -0.00028875      -0.00062283
I       17.80159483       4.36351860       6.26026309       16       0.00029757      -0.00037429       0.00054965
I       14.76865640       8.71553992      10.95022841       17       0.00011769       0.00006821       0.00007589
I       14.50777221       7.57636939       5.72985971       18       0.00002892       0.00016233      -0.00026536
I       18.06244292       5.50145623      11.48100909       19      -0.00022971       0.00038889      -0.00013489
