10
Lattice="12.364920860624837 -1.778822312213247 2.6684640959298926 1.1104041193996657 6.210624780630985 -0.9911474630620075 -1.1569020551213174 1.191144347876509 6.167901549601822" Properties=species:S:1:pos:R:3:spacegroup_kinds:I:1:forces:R:3 spacegroup="P 1" unit_cell=conventional occupancy="_JSON {\"0\": {\"Cs\": 1.0}, \"1\": {\"Pb\": 1.0}, \"2\": {\"I\": 1.0}, \"3\": {\"I\": 1.0}, \"4\": {\"I\": 1.0}, \"5\": {\"Cs\": 1.0}, \"6\": {\"Pb\": 1.0}, \"7\": {\"I\": 1.0}, \"8\": {\"I\": 1.0}, \"9\": {\"I\": 1.0}}" energy=-27.961484392503902 free_energy=-27.961484392503902 stress="-2.5619730704254284e-06 8.286142786368241e-06 5.21242668255875e-06 8.286142786368241e-06 -1.8303017369570972e-05 5.674494062890321e-06 5.21242668255875e-06 5.674494062890321e-06 1.2341743123328177e-05" pbc="T T T"
Cs       3.07224810       3.25641310       3.26040195        0       0.00062875       0.00005374       0.00030685
Pb       0.00172299       0.00008709      -0.00113035        1      -0.00067416       0.00004854       0.00064749
I       11.78393339      -1.18348776       5.75126149        2       0.00014704      -0.00000975      -0.00049438
I        3.09146121      -0.44568059       0.66536177        3      -0.00022748       0.00011287      -0.00022907
I       12.91657930       1.32721660       2.17207781        4       0.00012585      -0.00020539      -0.00023089
Cs       9.25470853       2.36700194       4.59463400        5       0.00062875       0.00005374       0.00030685
Pb       6.18418342      -0.88932407       1.33310169        6      -0.00067416       0.00004854       0.00064749
I        5.60147296      -0.29407660       4.41702944        7       0.00014704      -0.00000975      -0.00049438
I        9.27392164      -1.33509175       1.99959382        8      -0.00022748       0.00011287      -0.00022907
I        6.73411887       2.21662775       0.83784576        9       0.00012585      -0.00020539      -0.00023089
