20
Lattice="12.773808800737386 -3.9577028158796105e-09 -1.1027445082627845e-16 -3.957702821380227e-09 12.773808800737392 -2.407561854253145e-16 -5.4630525195572544e-17 -1.1981880116305945e-16 6.3869044001036315" Properties=species:S:1:pos:R:3:spacegroup_kinds:I:1:forces:R:3 spacegroup="P 1" unit_cell=conventional occupancy="_JSON {\"0\": {\"Cs\": 1.0}, \"1\": {\"Pb\": 1.0}, \"2\": {\"I\": 1.0}, \"3\": {\"I\": 1.0}, \"4\": {\"I\": 1.0}, \"5\": {\"Cs\": 1.0}, \"6\": {\"Pb\": 1.0}, \"7\": {\"I\": 1.0}, \"8\": {\"I\": 1.0}, \"9\": {\"I\": 1.0}, \"10\": {\"Cs\": 1.0}, \"11\": {\"Pb\": 1.0}, \"12\": {\"I\": 1.0}, \"13\": {\"I\": 1.0}, \"14\": {\"I\": 1.0}, \"15\": {\"Cs\": 1.0}, \"16\": {\"Pb\": 1.0}, \"17\": {\"I\": 1.0}, \"18\": {\"I\": 1.0}, \"19\": {\"I\": 1.0}}" energy=-55.922969415082655 free_energy=-55.922969415082655 stress="-7.489151460218339e-06 -1.6934646930503216e-11 -2.358394271534982e-18 -1.6934646930503216e-11 -7.489151460292553e-06 -3.0501270296294106e-18 -2.358394271534982e-18 -3.0501270296294106e-18 -7.4891548165232764e-06" pbc="T T T"
Cs       3.19348763       3.19341676       3.19345220        0      -0.00000212       0.00000212       0.00000000
Pb       0.00000705      -0.00000705      -0.00000000        1      -0.00000027       0.00000027      -0.00000000
I        0.00003317      -0.00003317       3.19345220        2      -0.00000525       0.00000525      -0.00000000
I        3.19346110      -0.00003317      -0.00000000        3       0.00001289       0.00000525       0.00000000
I        0.00003317       3.19344330      -0.00000000        4      -0.00000525      -0.00001289       0.00000000
Cs       3.19348763       9.58032116       3.19345220        5      -0.00000212       0.00000212       0.00000000
Pb       0.00000705       6.38689735      -0.00000000        6      -0.00000027       0.00000027       0.00000000
I        0.00003317       6.38687123       3.19345220        7      -0.00000525       0.00000525      -0.00000000
I        3.19346110       6.38687123      -0.00000000        8       0.00001289       0.00000525       0.00000000
I        0.00003317       9.58034770      -0.00000000        9      -0.00000525      -0.00001289       0.00000000
Cs       9.58039204       3.19341676       3.19345220       10      -0.00000212       0.00000212       0.00000000
Pb       6.38691145      -0.00000706      -0.00000000       11      -0.00000027       0.00000027      -0.00000000
I        6.38693757      -0.00003317       3.19345220       12      -0.00000525       0.00000525      -0.00000000
I        9.58036550      -0.00003317      -0.00000000       13       0.00001289       0.00000525       0.00000000
I        6.38693757       3.19344329      -0.00000000       14      -0.00000525      -0.00001289       0.00000000
Cs       9.58039203       9.58032116       3.19345220       15      -0.00000212       0.00000212       0.00000000
Pb       6.38691145       6.38689734      -0.00000000       16      -0.00000027       0.00000027       0.00000000
I        6.38693757       6.38687123       3.19345220       17      -0.00000525       0.00000525      -0.00000000
I        9.58036550       6.38687123      -0.00000000       18       0.00001289       0.00000525       0.00000000
I        6.38693757       9.58034769      -0.00000000       19      -0.00000525      -0.00001289       0.00000000
