80
Lattice="18.236284317373833 0.0 0.0 -14.601066559864872 8.513943743899475 0.0 9.164743758118114 15.71716206279512 3.5666995103020804" Properties=species:S:1:pos:R:3 pbc="T T T"
Cs      -1.05739173       2.91382016      -0.00002246
Cs       4.41550008       1.49482953      -0.00002246
K        2.29118594       3.92929052       0.89167488
In       0.77025855       0.07583943       0.00001515
I        2.16361791       2.76426072       0.35680137
I        5.77688133       9.50297053       1.42657257
I        6.05637099       6.28633901       1.42656048
I        7.64414305       1.57224202       0.35678927
I       -4.46954990       4.71303436       0.35678927
I        1.75138850       7.40251854       1.42656048
Cs       3.52498015      10.77240119       1.78332729
Cs       8.99787196       9.35341056       1.78332729
K        6.87355782      11.78787155       2.67502463
In       5.35263043       7.93442047       1.78336490
I        6.74598979      10.62284175       2.14015112
I       10.35925321      17.36155156       3.20992233
I       10.63874287      14.14492004       3.20991024
I       12.22651493       9.43082305       2.14013903
I        0.11282198      12.57161540       2.14013903
I        6.33376038      15.26109957       3.20991024
Cs      -8.35792501       7.17079203      -0.00002246
Cs      -2.88503320       5.75180140      -0.00002246
K       -5.00934734       8.18626239       0.89167488
In      -6.53027473       4.33281131       0.00001515
I       -5.13691537       7.02123259       0.35680137
I       -1.52365195      13.75994240       1.42657257
I       -1.24416229      10.54331088       1.42656048
I        0.34360977       5.82921389       0.35678927
I      -11.77008318       8.97000624       0.35678927
I       -5.54914478      11.65949041       1.42656048
Cs      -3.77555313      15.02937306       1.78332729
Cs       1.69733868      13.61038243       1.78332729
K       -0.42697546      16.04484342       2.67502463
In      -1.94790285      12.19139234       1.78336490
I       -0.55454349      14.87981362       2.14015112
I        3.05871993      21.61852343       3.20992233
I        3.33820959      18.40189192       3.20991024
I        4.92598165      13.68779492       2.14013903
I       -7.18771130      16.82858727       2.14013903
I       -0.96677290      19.51807144       3.20991024
Cs       8.06075043       2.91382016      -0.00002246
Cs      13.53364224       1.49482953      -0.00002246
K       11.40932810       3.92929052       0.89167488
In       9.88840071       0.07583943       0.00001515
I       11.28176007       2.76426072       0.35680137
I       14.89502349       9.50297053       1.42657257
I       15.17451315       6.28633901       1.42656048
I       16.76228521       1.57224202       0.35678927
I        4.64859226       4.71303436       0.35678927
I       10.86953066       7.40251854       1.42656048
Cs      12.64312231      10.77240119       1.78332729
Cs      18.11601412       9.35341056       1.78332729
K       15.99169998      11.78787155       2.67502463
In      14.47077259       7.93442047       1.78336490
I       15.86413195      10.62284175       2.14015112
I       19.47739537      17.36155156       3.20992233
I       19.75688503      14.14492004       3.20991024
I       21.34465708       9.43082305       2.14013903
I        9.23096414      12.57161540       2.14013903
I       15.45190254      15.26109957       3.20991024
Cs       0.76021715       7.17079203      -0.00002246
Cs       6.23310896       5.75180140      -0.00002246
K        4.10879482       8.18626239       0.89167488
In       2.58786743       4.33281131       0.00001515
I        3.98122679       7.02123259       0.35680137
I        7.59449021      13.75994240       1.42657257
I        7.87397987      10.54331088       1.42656048
I        9.46175193       5.82921389       0.35678927
I       -2.65194102       8.97000624       0.35678927
I        3.56899738      11.65949041       1.42656048
Cs       5.34258903      15.02937306       1.78332729
Cs      10.81548084      13.61038243       1.78332729
K        8.69116670      16.04484342       2.67502463
In       7.17023931      12.19139234       1.78336490
I        8.56359867      14.87981362       2.14015112
I       12.17686209      21.61852343       3.20992233
I       12.45635175      18.40189192       3.20991024
I       14.04412380      13.68779492       2.14013903
I        1.93043086      16.82858727       2.14013903
I        8.15136926      19.51807144       3.20991024
