80
Lattice="16.68493763219767 0.0 0.0 -0.8071849973375318 15.75682808507561 0.0 3.799840430599443 4.101069188840009 13.668588761982003" Properties=species:S:1:pos:R:3 pbc="T T T"
Cs       3.43188958       5.25227690      -0.00002748
Cs       6.34724335       2.62613889      -0.00002748
K        0.94996011       1.02526730       3.41714719
In       0.92013884       0.00000088       0.00001745
I        3.38182701       2.47596794       1.36732995
I        8.29724886       7.45298245       5.46699203
I        3.70720732       1.64029048       5.46697823
I        6.53518171       0.41024412       1.36731615
I        0.08234076       6.22293522       1.36731615
I        1.41398695       3.70601342       5.46697823
Cs       5.33180980       7.30281150       6.83426690
Cs       8.24716357       4.67667348       6.83426690
K        2.84988032       3.07580189      10.25144157
In       2.82005905       2.05053547       6.83431183
I        5.28174722       4.52650253       8.20162434
I       10.19716908       9.50351705      12.30128641
I        5.60712753       3.69082507      12.30127261
I        8.43510193       2.46077871       8.20161054
I        1.98226098       8.27346981       8.20161054
I        3.31390717       5.75654801      12.30127261
Cs       3.02829708      13.13069095      -0.00002748
Cs       5.94365085      10.50455293      -0.00002748
K        0.54636761       8.90368134       3.41714719
In       0.51654634       7.87841492       0.00001745
I        2.97823451      10.35438198       1.36732995
I        7.89365637      15.33139649       5.46699203
I        3.30361482       9.51870452       5.46697823
I        6.13158922       8.28865816       1.36731615
I       -0.32125174      14.10134926       1.36731615
I        1.01039446      11.58442746       5.46697823
Cs       4.92821730      15.18122554       6.83426690
Cs       7.84357107      12.55508753       6.83426690
K        2.44628782      10.95421593      10.25144157
In       2.41646656       9.92894951       6.83431183
I        4.87815472      12.40491657       8.20162434
I        9.79357658      17.38193109      12.30128641
I        5.20353503      11.56923911      12.30127261
I        8.03150943      10.33919276       8.20161054
I        1.57866848      16.15188386       8.20161054
I        2.91031467      13.63496205      12.30127261
Cs      11.77435840       5.25227690      -0.00002748
Cs      14.68971217       2.62613889      -0.00002748
K        9.29242892       1.02526730       3.41714719
In       9.26260766       0.00000088       0.00001745
I       11.72429582       2.47596794       1.36732995
I       16.63971768       7.45298245       5.46699203
I       12.04967613       1.64029048       5.46697823
I       14.87765053       0.41024412       1.36731615
I        8.42480958       6.22293522       1.36731615
I        9.75645577       3.70601342       5.46697823
Cs      13.67427861       7.30281150       6.83426690
Cs      16.58963238       4.67667348       6.83426690
K       11.19234914       3.07580189      10.25144157
In      11.16252787       2.05053547       6.83431183
I       13.62421604       4.52650253       8.20162434
I       18.53963790       9.50351705      12.30128641
I       13.94959635       3.69082507      12.30127261
I       16.77757075       2.46077871       8.20161054
I       10.32472979       8.27346981       8.20161054
I       11.65637599       5.75654801      12.30127261
Cs      11.37076590      13.13069095      -0.00002748
Cs      14.28611967      10.50455293      -0.00002748
K        8.88883643       8.90368134       3.41714719
In       8.85901516       7.87841492       0.00001745
I       11.32070332      10.35438198       1.36732995
I       16.23612518      15.33139649       5.46699203
I       11.64608363       9.51870452       5.46697823
I       14.47405803       8.28865816       1.36731615
I        8.02121708      14.10134926       1.36731615
I        9.35286327      11.58442746       5.46697823
Cs      13.27068611      15.18122554       6.83426690
Cs      16.18603989      12.55508753       6.83426690
K       10.78875664      10.95421593      10.25144157
In      10.75893537       9.92894951       6.83431183
I       13.22062354      12.40491657       8.20162434
I       18.13604540      17.38193109      12.30128641
I       13.54600385      11.56923911      12.30127261
I       16.37397825      10.33919276       8.20161054
I        9.92113730      16.15188386       8.20161054
I       11.25278349      13.63496205      12.30127261
