10
Lattice="9.180287904288727 -0.023245484254245122 0.004236458609150017 4.593265306383456 7.996362860101614 -0.016283773554469298 4.576320127892642 2.617653292146257 6.936548417579582" Properties=species:S:1:pos:R:3:spacegroup_kinds:I:1:forces:R:3 spacegroup="P 1" unit_cell=conventional occupancy="_JSON {\"0\": {\"Cs\": 1.0}, \"1\": {\"Cs\": 1.0}, \"2\": {\"K\": 1.0}, \"3\": {\"In\": 1.0}, \"4\": {\"I\": 1.0}, \"5\": {\"I\": 1.0}, \"6\": {\"I\": 1.0}, \"7\": {\"I\": 1.0}, \"8\": {\"I\": 1.0}, \"9\": {\"I\": 1.0}}" energy=-25.648946272069274 free_energy=-25.648946272069274 stress="4.3461725461714265e-07 -1.5673213177965963e-06 -3.316518844858021e-06 -1.5673213177965963e-06 1.2163300574222482e-08 -1.3998852162410475e-06 -3.316518844858021e-06 -1.3998852162410475e-06 6.112409377864305e-06" pbc="T T T"
Cs       4.60110087       2.63464373       1.92034135        0       0.00007804       0.00019505       0.00019701
Cs      13.74880064       7.95555921       5.00327268        1      -0.00017540       0.00011409       0.00016925
K        9.17500196       5.29593212       3.46217627        2      -0.00019750      -0.00049431      -0.00002098
In       9.18035769      -0.02311781       0.00421427        3      -0.00013845       0.00002459       0.00028832
I        6.96021799       3.19773370       5.25110435        4       0.00024347      -0.00001597       0.00013477
I       11.38984366       7.39316309       1.67388802        5      -0.00005665       0.00021000      -0.00067854
I        9.87472438       2.28267614       1.74684162        6       0.00018724       0.00033412      -0.00027087
I        8.47497834       8.30799752       5.17826918        7      -0.00022440      -0.00013834      -0.00015124
I        6.25042491       6.19133598       1.68005991        8       0.00024263      -0.00018913       0.00008749
I       12.09926713       4.39929771       5.24432326        9       0.00004101      -0.00004010       0.00024478
