40
Lattice="17.49354322045118 0.0 0.0 0.37330269659233506 9.147028646126994 0.0 0.0 0.0 12.6392814112898" Properties=species:S:1:pos:R:3 pbc="T T T"
Cs       5.50794781       9.01396798       3.15982031
Cs       1.42607390       4.44078559       3.15982031
Cs       5.67087379       1.29078060       9.47946102
Cs       9.75283464       5.86462686       9.47946102
Pb       1.02935320       0.57910036      -0.00000225
Pb       5.58941648       5.15244377      -0.00001156
Pb       1.02935320       0.57910036       6.31964288
Pb       5.58941648       5.15244377       6.31965218
I        2.98288845       6.97154311       0.52512855
I        3.78438683       2.39800214       0.52544202
I        9.03878300       0.66545525       3.15982031
I        8.19594893       3.33354423      12.11375450
I        7.39445729       7.90703191      12.11406798
I        6.33375546       5.23862972       3.15982031
I        2.98288845       6.97154311       5.79451207
I        3.78438683       2.39800214       5.79419860
I        2.13996906       9.63996592       9.47946102
I        8.19594893       3.33354423       6.84516753
I        7.39445729       7.90703191       6.84485406
I        4.84501910       5.06611175       9.47946102
Cs      14.25471942       9.01396798       3.15982031
Cs      10.17284551       4.44078559       3.15982031
Cs      14.41764540       1.29078060       9.47946102
Cs      18.49960625       5.86462686       9.47946102
Pb       9.77612481       0.57910036      -0.00000225
Pb      14.33618809       5.15244377      -0.00001156
Pb       9.77612481       0.57910036       6.31964288
Pb      14.33618809       5.15244377       6.31965218
I       11.72966006       6.97154311       0.52512855
I       12.53115844       2.39800214       0.52544202
I       17.78555461       0.66545525       3.15982031
I       16.94272054       3.33354423      12.11375450
I       16.14122890       7.90703191      12.11406798
I       15.08052707       5.23862972       3.15982031
I       11.72966006       6.97154311       5.79451207
I       12.53115844       2.39800214       5.79419860
I       10.88674067       9.63996592       9.47946102
I       16.94272054       3.33354423       6.84516753
I       16.14122890       7.90703191       6.84485406
I       13.59179071       5.06611175       9.47946102
