40
Lattice="17.323816994088443 -0.3509174008512082 3.2450620961679784e-13 0.18528150953751338 9.152854893957942 -3.325675709882564e-13 2.439667861674995e-13 -4.661839148129675e-13 12.638482351770632" Properties=species:S:1:pos:R:3:spacegroup_kinds:I:1:forces:R:3 spacegroup="P 1" unit_cell=conventional occupancy="_JSON {\"0\": {\"Cs\": 1.0}, \"1\": {\"Cs\": 1.0}, \"2\": {\"Cs\": 1.0}, \"3\": {\"Cs\": 1.0}, \"4\": {\"Pb\": 1.0}, \"5\": {\"Pb\": 1.0}, \"6\": {\"Pb\": 1.0}, \"7\": {\"Pb\": 1.0}, \"8\": {\"I\": 1.0}, \"9\": {\"I\": 1.0}, \"10\": {\"I\": 1.0}, \"11\": {\"I\": 1.0}, \"12\": {\"I\": 1.0}, \"13\": {\"I\": 1.0}, \"14\": {\"I\": 1.0}, \"15\": {\"I\": 1.0}, \"16\": {\"I\": 1.0}, \"17\": {\"I\": 1.0}, \"18\": {\"I\": 1.0}, \"19\": {\"I\": 1.0}, \"20\": {\"Cs\": 1.0}, \"21\": {\"Cs\": 1.0}, \"22\": {\"Cs\": 1.0}, \"23\": {\"Cs\": 1.0}, \"24\": {\"Pb\": 1.0}, \"25\": {\"Pb\": 1.0}, \"26\": {\"Pb\": 1.0}, \"27\": {\"Pb\": 1.0}, \"28\": {\"I\": 1.0}, \"29\": {\"I\": 1.0}, \"30\": {\"I\": 1.0}, \"31\": {\"I\": 1.0}, \"32\": {\"I\": 1.0}, \"33\": {\"I\": 1.0}, \"34\": {\"I\": 1.0}, \"35\": {\"I\": 1.0}, \"36\": {\"I\": 1.0}, \"37\": {\"I\": 1.0}, \"38\": {\"I\": 1.0}, \"39\": {\"I\": 1.0}}" energy=-113.01605225695278 free_energy=-113.01605225695278 stress="5.844710885363282e-06 -1.0722487640304002e-06 3.556351356958259e-14 -1.0722487640304002e-06 4.856576832446292e-06 -1.1776001778462063e-13 3.556351356958259e-14 -1.1776001778462063e-13 -1.4171336079610283e-06" pbc="T T T"
Cs       5.27361236       8.91849489       3.15962055        0       0.00014280      -0.00023639       0.00000000
Cs       1.32273521       4.42009552       3.15962055        1      -0.00013898      -0.00010564       0.00000000
Cs       5.58898826       1.17739934       9.47886172        2      -0.00008236      -0.00009132      -0.00000000
Cs       9.53988995       5.67568281       9.47886172        3       0.00013937       0.00034546       0.00000000
Pb       1.00773239       0.55932863      12.63853887        4      -0.00006456      -0.00045214      -0.00022013
Pb       5.43130311       5.04778437      12.63832337        5       0.00003597       0.00047750       0.00067387
Pb       1.00773239       0.55932863       6.31918457        6      -0.00006456      -0.00045214       0.00022013
Pb       5.43130311       5.04778437       6.31940007        7       0.00003597       0.00047750      -0.00067387
I        2.81390632       6.92284384       0.52713236        8      -0.00015949      -0.00019059      -0.00045811
I        3.69913187       2.32637654       0.52665492        9       0.00012804      -0.00019151      -0.00010344
I        8.93821635       0.48610949       3.15962055       10      -0.00075064      -0.00031874       0.00000000
I        8.04869777       3.17297683      12.11136958       11       0.00023978       0.00023347       0.00033113
I        7.16347249       7.76945269      12.11182957       12      -0.00006816       0.00015626       0.00011284
I        6.16774486       5.12070517       3.15962055       13      -0.00029323      -0.00053734      -0.00000000
I        2.81390632       6.92284384       5.79210874       14      -0.00015949      -0.00019059       0.00045811
I        3.69913187       2.32637654       5.79258617       15       0.00012804      -0.00019151       0.00010344
I        1.73912170       0.45686877       9.47886172       16       0.00071300       0.00035767       0.00000000
I        8.04869777       3.17297683       6.84635386       17       0.00023978       0.00023347      -0.00033113
I        7.16347249       7.76945269       6.84589387       18      -0.00006816       0.00015626      -0.00011284
I        4.69492315       4.97510124       9.47886172       19       0.00004687       0.00052035       0.00000000
Cs      13.93552086       8.74303619       3.15962055       20       0.00014280      -0.00023639      -0.00000000
Cs       9.98464371       4.24463682       3.15962055       21      -0.00013898      -0.00010564      -0.00000000
Cs      14.25089676       1.00194063       9.47886172       22      -0.00008236      -0.00009132       0.00000000
Cs       0.87798146       5.85114151       9.47886172       23       0.00013937       0.00034546      -0.00000000
Pb       9.66964089       0.38386993      12.63853887       24      -0.00006456      -0.00045214      -0.00022013
Pb      14.09321161       4.87232567      12.63832337       25       0.00003597       0.00047750       0.00067387
Pb       9.66964089       0.38386993       6.31918457       26      -0.00006456      -0.00045214       0.00022013
Pb      14.09321161       4.87232567       6.31940007       27       0.00003597       0.00047750      -0.00067387
I       11.47581482       6.74738514       0.52713236       28      -0.00015949      -0.00019059      -0.00045811
I       12.36104037       2.15091783       0.52665492       29       0.00012804      -0.00019151      -0.00010344
I        0.27630785       0.66156819       3.15962055       30      -0.00075064      -0.00031874      -0.00000000
I       16.71060627       2.99751813      12.11136958       31       0.00023978       0.00023347       0.00033113
I       15.82538098       7.59399399      12.11182957       32      -0.00006816       0.00015626       0.00011284
I       14.82965336       4.94524647       3.15962055       33      -0.00029323      -0.00053734       0.00000000
I       11.47581482       6.74738514       5.79210874       34      -0.00015949      -0.00019059       0.00045811
I       12.36104037       2.15091783       5.79258617       35       0.00012804      -0.00019151       0.00010344
I       10.40103019       0.28141007       9.47886172       36       0.00071300       0.00035767      -0.00000000
I       16.71060627       2.99751813       6.84635386       37       0.00023978       0.00023347      -0.00033113
I       15.82538098       7.59399399       6.84589387       38      -0.00006816       0.00015626      -0.00011284
I       13.35683164       4.79964254       9.47886172       39       0.00004687       0.00052035      -0.00000000
