20
Lattice="17.125068423088404 -0.42691748723158823 -3.0531093963467573 -4.154245143317129 7.634566611471891 0.4227540610803622 -2.816375822149592 -2.0482266466913273 9.2756608493688" Properties=species:S:1:pos:R:3:spacegroup_kinds:I:1:forces:R:3 spacegroup="P 1" unit_cell=conventional occupancy="_JSON {\"0\": {\"Cs\": 1.0}, \"1\": {\"Cs\": 1.0}, \"2\": {\"K\": 1.0}, \"3\": {\"In\": 1.0}, \"4\": {\"I\": 1.0}, \"5\": {\"I\": 1.0}, \"6\": {\"I\": 1.0}, \"7\": {\"I\": 1.0}, \"8\": {\"I\": 1.0}, \"9\": {\"I\": 1.0}, \"10\": {\"Cs\": 1.0}, \"11\": {\"Cs\": 1.0}, \"12\": {\"K\": 1.0}, \"13\": {\"In\": 1.0}, \"14\": {\"I\": 1.0}, \"15\": {\"I\": 1.0}, \"16\": {\"I\": 1.0}, \"17\": {\"I\": 1.0}, \"18\": {\"I\": 1.0}, \"19\": {\"I\": 1.0}}" energy=-51.259633785839554 free_energy=-51.259633785839554 stress="-5.232552131175376e-06 2.1551162702824375e-06 -1.2398951966455358e-08 2.1551162702824375e-06 3.4740880664230464e-06 -2.3077652634620993e-06 -1.2398951966455358e-08 -2.3077652634620993e-06 -1.4143437271604683e-05" pbc="T T T"
Cs       4.04121295       0.48236876       9.11880918        0      -0.00017331       0.00023686       0.00017105
Cs       2.21190990       5.05138088      -1.76881631        1       0.00017430      -0.00012218       0.00008268
K       -1.25860517      -2.14973610       4.55834117        2       0.00015000       0.00016517       0.00004019
In       2.33040220       0.08056723      -0.41215282        3       0.00055277       0.00002454      -0.00001686
I        8.92729152      -0.80801230       0.21622035        4       0.00037161       0.00004951      -0.00023710
I        1.45524315      -1.26435093       6.71645842        5       0.00003402       0.00003189       0.00029373
I        3.12229756       2.53027217       1.11636142        6      -0.00028207      -0.00031751      -0.00018108
I        3.16789414       3.01174770       6.22929083        7      -0.00006706       0.00018354       0.00003350
I        8.83529007       5.94476991      -0.05189249        8       0.00015489      -0.00012912       0.00012441
I       -2.59303903      -0.44634208       7.40811332        9      -0.00025646       0.00011902      -0.00023712
Cs      12.60374147       0.26889730       7.59224022       10      -0.00008908       0.00030628       0.00023734
Cs      10.77445004       4.83793292      -3.29535427       11       0.00008418      -0.00018673       0.00000187
K        7.30394089      -2.36319104       3.03176794       12       0.00007638       0.00014359       0.00009450
In      10.89307858      -0.13286131      -1.93867196       13      -0.00076409      -0.00033294      -0.00030253
I        0.36480856      -0.59452129       1.74266273       14       0.00005651      -0.00010236       0.00020363
I       10.01772215      -1.47783733       5.19000551       15       0.00039542       0.00017403      -0.00009274
I       11.68484219       2.31675051      -0.41025650       16      -0.00024248       0.00005413       0.00011471
I       -5.39464871       3.22527711       7.75590495       17      -0.00011755      -0.00022779      -0.00025494
I        0.27278455       6.15816908       1.47473237       18      -0.00015820       0.00011457      -0.00017674
I        5.96946225      -0.65972793       5.88147925       19       0.00010022      -0.00018452       0.00010149
