20
Lattice="18.597298229714568 0.0 0.0 -1.2083835100365223 9.219798514821674 0.0 0.0 0.0 8.828618324462026" Properties=species:S:1:pos:R:3 pbc="T T T"
Cs       2.88685383       3.11029306       0.02797060
Cs      -0.61549038       6.18355924       8.80036455
K       -2.90940475       0.03707864       4.41429825
In      -2.90946584       0.03704801       0.00009828
I       -3.20684388       2.46479962       1.76610061
I        5.47818245       6.82925900       7.06252731
I       -0.77651563       2.44399085       7.06259045
I        3.04784060       6.84969684       1.76616375
I       -1.68748362       9.23620365       1.76612623
I        3.95887891       0.05765173       7.06255292
Cs      12.18550294       3.11029306       0.02797060
Cs       8.68315874       6.18355924       8.80036455
K        6.38924436       0.03707864       4.41429825
In       6.38918328       0.03704801       0.00009828
I        6.09180523       2.46479962       1.76610061
I       14.77683156       6.82925900       7.06252731
I        8.52213348       2.44399085       7.06259045
I       12.34648971       6.84969684       1.76616375
I        7.61116550       9.23620365       1.76612623
I       13.25752802       0.05765173       7.06255292
