80
Lattice="17.59424521239029 0.0 0.0 10.42719001666457 12.537568154652408 0.0 8.193567112192454 -0.337239904818113 12.531974787781799" Properties=species:S:1:pos:R:3 pbc="T T T"
Cs       4.52682702       1.52502675       1.56650047
Cs      13.58067403       4.57513700       4.69948668
K        9.05375057       3.05008185       3.13299359
In       0.00000013       0.00000031       0.00000013
I        6.88016141       0.64948223       3.99607889
I       11.22733978       5.45068124       2.26990827
I        9.91226115       2.02280723       1.53709215
I        8.19523944       4.07735622       4.72889491
I        7.03599194       4.70007500       1.37527736
I       11.07150958       1.40008972       4.89071037
Cs       8.62361057       1.35640680       7.83248786
Cs      17.67745759       4.40651704      10.96547407
K       13.15053413       2.88146190       9.39898099
In       4.09678368      -0.16861964       6.26598752
I       10.97694497       0.48086228      10.26206629
I       15.32412333       5.28206129       8.53589566
I       14.00904471       1.85418728       7.80307955
I       12.29202300       3.90873626      10.99488231
I       11.13277550       4.53145505       7.64126476
I       15.16829313       1.23146977      11.15669777
Cs       9.74042203       7.79381083       1.56650047
Cs      18.79426904      10.84392107       4.69948668
K       14.26734558       9.31886593       3.13299359
In       5.21359513       6.26878439       0.00000013
I       12.09375642       6.91826631       3.99607889
I       16.44093478      11.71946532       2.26990827
I       15.12585616       8.29159131       1.53709215
I       13.40883445      10.34614029       4.72889491
I       12.24958695      10.96885908       1.37527736
I       16.28510458       7.66887380       4.89071037
Cs      13.83720558       7.62519088       7.83248786
Cs      22.89105260      10.67530112      10.96547407
K       18.36412914       9.15024597       9.39898099
In       9.31037869       6.10016443       6.26598752
I       16.19053997       6.74964635      10.26206629
I       20.53771834      11.55084536       8.53589566
I       19.22263972       8.12297135       7.80307955
I       17.50561800      10.17752034      10.99488231
I       16.34637051      10.80023913       7.64126476
I       20.38188814       7.50025384      11.15669777
Cs      13.32394962       1.52502675       1.56650047
Cs      22.37779664       4.57513700       4.69948668
K       17.85087318       3.05008185       3.13299359
In       8.79712273       0.00000031       0.00000013
I       15.67728402       0.64948223       3.99607889
I       20.02446238       5.45068124       2.26990827
I       18.70938376       2.02280723       1.53709215
I       16.99236205       4.07735622       4.72889491
I       15.83311455       4.70007500       1.37527736
I       19.86863218       1.40008972       4.89071037
Cs      17.42073318       1.35640680       7.83248786
Cs      26.47458020       4.40651704      10.96547407
K       21.94765673       2.88146190       9.39898099
In      12.89390629      -0.16861964       6.26598752
I       19.77406757       0.48086228      10.26206629
I       24.12124594       5.28206129       8.53589566
I       22.80616731       1.85418728       7.80307955
I       21.08914560       3.90873626      10.99488231
I       19.92989810       4.53145505       7.64126476
I       23.96541574       1.23146977      11.15669777
Cs      18.53754463       7.79381083       1.56650047
Cs      27.59139165      10.84392107       4.69948668
K       23.06446819       9.31886593       3.13299359
In      14.01071774       6.26878439       0.00000013
I       20.89087902       6.91826631       3.99607889
I       25.23805739      11.71946532       2.26990827
I       23.92297877       8.29159131       1.53709215
I       22.20595705      10.34614029       4.72889491
I       21.04670956      10.96885908       1.37527736
I       25.08222719       7.66887380       4.89071037
Cs      22.63432819       7.62519088       7.83248786
Cs      31.68817520      10.67530112      10.96547407
K       27.16125174       9.15024597       9.39898099
In      18.10750130       6.10016443       6.26598752
I       24.98766258       6.74964635      10.26206629
I       29.33484095      11.55084536       8.53589566
I       28.01976232       8.12297135       7.80307955
I       26.30274061      10.17752034      10.99488231
I       25.14349311      10.80023913       7.64126476
I       29.17901075       7.50025384      11.15669777
