80
Lattice="18.318365607439397 -1.0942846774845996 0.5665705494810432 9.900518673058075 13.948494097919525 3.334875566057116 8.78591511584039 1.9171157547172328 16.10516089602715" Properties=species:S:1:pos:R:3:spacegroup_kinds:I:1:forces:R:3 spacegroup="P 1" unit_cell=conventional occupancy="_JSON {\"0\": {\"Cs\": 1.0}, \"1\": {\"Cs\": 1.0}, \"2\": {\"K\": 1.0}, \"3\": {\"In\": 1.0}, \"4\": {\"I\": 1.0}, \"5\": {\"I\": 1.0}, \"6\": {\"I\": 1.0}, \"7\": {\"I\": 1.0}, \"8\": {\"I\": 1.0}, \"9\": {\"I\": 1.0}, \"10\": {\"Cs\": 1.0}, \"11\": {\"Cs\": 1.0}, \"12\": {\"K\": 1.0}, \"13\": {\"In\": 1.0}, \"14\": {\"I\": 1.0}, \"15\": {\"I\": 1.0}, \"16\": {\"I\": 1.0}, \"17\": {\"I\": 1.0}, \"18\": {\"I\": 1.0}, \"19\": {\"I\": 1.0}, \"20\": {\"Cs\": 1.0}, \"21\": {\"Cs\": 1.0}, \"22\": {\"K\": 1.0}, \"23\": {\"In\": 1.0}, \"24\": {\"I\": 1.0}, \"25\": {\"I\": 1.0}, \"26\": {\"I\": 1.0}, \"27\": {\"I\": 1.0}, \"28\": {\"I\": 1.0}, \"29\": {\"I\": 1.0}, \"30\": {\"Cs\": 1.0}, \"31\": {\"Cs\": 1.0}, \"32\": {\"K\": 1.0}, \"33\": {\"In\": 1.0}, \"34\": {\"I\": 1.0}, \"35\": {\"I\": 1.0}, \"36\": {\"I\": 1.0}, \"37\": {\"I\": 1.0}, \"38\": {\"I\": 1.0}, \"39\": {\"I\": 1.0}, \"40\": {\"Cs\": 1.0}, \"41\": {\"Cs\": 1.0}, \"42\": {\"K\": 1.0}, \"43\": {\"In\": 1.0}, \"44\": {\"I\": 1.0}, \"45\": {\"I\": 1.0}, \"46\": {\"I\": 1.0}, \"47\": {\"I\": 1.0}, \"48\": {\"I\": 1.0}, \"49\": {\"I\": 1.0}, \"50\": {\"Cs\": 1.0}, \"51\": {\"Cs\": 1.0}, \"52\": {\"K\": 1.0}, \"53\": {\"In\": 1.0}, \"54\": {\"I\": 1.0}, \"55\": {\"I\": 1.0}, \"56\": {\"I\": 1.0}, \"57\": {\"I\": 1.0}, \"58\": {\"I\": 1.0}, \"59\": {\"I\": 1.0}, \"60\": {\"Cs\": 1.0}, \"61\": {\"Cs\": 1.0}, \"62\": {\"K\": 1.0}, \"63\": {\"In\": 1.0}, \"64\": {\"I\": 1.0}, \"65\": {\"I\": 1.0}, \"66\": {\"I\": 1.0}, \"67\": {\"I\": 1.0}, \"68\": {\"I\": 1.0}, \"69\": {\"I\": 1.0}, \"70\": {\"Cs\": 1.0}, \"71\": {\"Cs\": 1.0}, \"72\": {\"K\": 1.0}, \"73\": {\"In\": 1.0}, \"74\": {\"I\": 1.0}, \"75\": {\"I\": 1.0}, \"76\": {\"I\": 1.0}, \"77\": {\"I\": 1.0}, \"78\": {\"I\": 1.0}, \"79\": {\"I\": 1.0}}" energy=-205.19157641051945 free_energy=-205.19157641051945 stress="-4.345550921865245e-08 6.381556796034076e-07 -1.8695741480465472e-07 6.381556796034076e-07 5.428777913949033e-07 3.287949377490293e-07 -1.8695741480465472e-07 3.287949377490293e-07 -1.0867169350739202e-06" pbc="T T T"
Cs       4.65205070       2.03105751       2.45981380        0       0.00001261      -0.00011552       0.00014739
Cs      13.85031080       5.35503692       7.54345946        1      -0.00000263      -0.00007897      -0.00012798
K        9.25116240       3.69276425       5.00163952        2       0.00002401       0.00003387      -0.00003162
In      18.31828225      -1.09441990       0.56649707        3       0.00024487       0.00015733       0.00018998
I        6.19822528       2.24964181       6.06350451        4       0.00002134       0.00005556      -0.00002209
I       12.30426199       5.13586700       3.93979431        5      -0.00007764      -0.00006845       0.00002688
I        9.91018205       1.48919117       2.31461275        6      -0.00000445      -0.00003857       0.00005871
I        8.59227807       5.89646044       7.68860196        7       0.00002049       0.00004620       0.00003826
I        7.20615257       5.26047678       2.57973114        8       0.00012595      -0.00009849       0.00008664
I       11.29601763       2.12510033       7.42357109        9       0.00020921      -0.00008388      -0.00006883
Cs       9.04515936       2.98949699      10.51250286       10      -0.00002703      -0.00014461       0.00005972
Cs      18.24335225       6.31365013      15.59593886       11      -0.00006478       0.00002697      -0.00001141
K       13.64413966       4.65132745      13.05424760       12       0.00004085       0.00002856       0.00004557
In      22.71132627      -0.13569279       8.61927931       13      -0.00005012      -0.00005355      -0.00024413
I       10.59131883       3.20812094      14.11616052       14      -0.00012846       0.00003833      -0.00009300
I       16.69699903       6.09455261      11.99240835       15       0.00013602       0.00004102       0.00001179
I       14.30295852       2.44759703      10.36709748       16       0.00006826      -0.00000067       0.00018846
I       12.98525807       6.85520483      15.74124742       17      -0.00007524       0.00001784      -0.00008331
I       11.59918399       6.21877914      10.63224495       18       0.00017160      -0.00010901       0.00018976
I       15.68917407       3.08388472      15.47632814       19      -0.00026794       0.00020380      -0.00027295
Cs       9.60249498       9.00518971       4.12731339       20      -0.00004061      -0.00014057       0.00011318
Cs      18.80061530      12.32935245       9.21084484       21      -0.00003106       0.00001388      -0.00007909
K       14.20144921      10.66700720       6.66910740       22       0.00001019       0.00004369       0.00000528
In      23.26850622       5.88006803       2.23412764       23       0.00056209      -0.00017928      -0.00019915
I       11.14855034       9.22377810       7.73102438       24       0.00012012       0.00012326      -0.00021828
I       17.25435147      12.11022871       5.60724405       25      -0.00001505      -0.00001613       0.00010646
I       14.86030842       8.46326336       3.98193174       26      -0.00001242       0.00006592       0.00015412
I       13.54249211      12.87089723       9.35610418       27       0.00004840      -0.00003056      -0.00000302
I       12.15648219      12.23449179       4.24711262       28       0.00006895       0.00000374       0.00008338
I       16.24649597       9.09949591       9.09111421       29      -0.00029337       0.00024451      -0.00014749
Cs      13.99524902       9.96386278      12.17987723       30       0.00004786      -0.00011871       0.00009906
Cs      23.19354252      13.28780335      17.26338656       31      -0.00006374      -0.00005589      -0.00004021
K       18.59435812      11.62557434      14.72164259       32       0.00005011       0.00003321       0.00002987
In      27.66169098       6.83830926      10.28654634       33      -0.00069046       0.00033918       0.00007422
I       15.54151296      10.18243948      15.78351549       34      -0.00015625       0.00004912       0.00006054
I       21.64738497      13.06872331      13.65982043       35       0.00006239      -0.00006123      -0.00004554
I       19.25330611       9.42205918      12.03464752       36       0.00009790      -0.00014882       0.00004780
I       17.93559770      13.82925038      17.40865624       37      -0.00014390       0.00008308      -0.00010551
I       16.54942366      13.19323739      12.29977285       38       0.00003343      -0.00004958       0.00007788
I       20.63916800      10.05795189      17.14360636       39       0.00034976      -0.00021018      -0.00010879
Cs      13.81137941       1.48377788       2.74321388       40      -0.00005722      -0.00012446       0.00006070
Cs      23.00955903       4.80792544       7.82662771       41      -0.00004276       0.00000931       0.00001486
K       18.41039752       3.14557134       5.28493106       42       0.00000545       0.00005666       0.00005678
In       9.15908138      -0.54704921       0.28335825       43       0.00047798      -0.00020349      -0.00014097
I       15.35738794       1.70251481       6.34686799       44       0.00013785       0.00003663      -0.00017637
I       21.46335453       4.58874366       4.22313083       45      -0.00007626       0.00009436       0.00007532
I       19.06932462       0.94186112       2.59781188       46      -0.00012784       0.00001490       0.00008503
I       17.75141688       5.34949926       7.97192679       47       0.00011404       0.00001581       0.00005396
I       16.36548818       4.71310195       2.86302674       48      -0.00007515       0.00011739      -0.00008426
I       20.45542391       1.57816410       7.70695651       49      -0.00018338       0.00010124      -0.00000639
Cs      18.20412734       2.44245274      10.79578312       50       0.00001133      -0.00008983       0.00000418
Cs      27.40246829       5.76640213      15.87918426       51       0.00000675      -0.00008535       0.00002427
K       22.80331520       4.10415580      13.33752068       52       0.00000916       0.00002929      -0.00004396
In      13.55221553       0.41124398       8.33578582       53      -0.00045657       0.00016230       0.00013502
I       19.75034871       2.66112913      14.39929367       54      -0.00008450      -0.00005860       0.00015138
I       25.85635076       5.54722420      12.27575709       55       0.00007594       0.00008906      -0.00022145
I       23.46228904       1.90060252      10.65050096       56       0.00000208      -0.00011455       0.00008248
I       22.14450979       6.30783892      16.02446866       57      -0.00002626       0.00014805       0.00000404
I       20.75832451       5.67185331      10.91566516       58       0.00003884       0.00002405      -0.00001506
I       24.84818445       2.53657362      15.75943023       59       0.00017765      -0.00012250      -0.00001508
Cs      18.76143352       8.45813612       4.41057222       60      -0.00000639      -0.00009596       0.00010358
Cs      27.95976481      11.78210378       9.49411660       61      -0.00000304      -0.00009192      -0.00003612
K       23.36061127      10.11982395       6.95233088       62       0.00003251       0.00004782       0.00004076
In      14.10943482       6.42695985       1.95062700       63      -0.00010039       0.00015583       0.00016460
I       20.30759694       8.67683160       8.01416272       64       0.00006291      -0.00000547       0.00007740
I       26.41374231      11.56291095       5.89059014       65      -0.00014964       0.00003279      -0.00003737
I       24.01969546       7.91630312       4.26538432       66      -0.00011732      -0.00011779      -0.00003563
I       22.70173686      12.32356419       9.63931107       67       0.00006965       0.00007155       0.00003840
I       21.31561489      11.68757027       4.53054703       68      -0.00000722       0.00002513      -0.00013468
I       25.40553638       8.55222961       9.37425522       69       0.00023338      -0.00018060       0.00010330
Cs      23.15455492       9.41660175      12.46329038       70      -0.00002098      -0.00013118      -0.00005630
Cs      32.35277479      12.74072102      17.54659379       71      -0.00003165       0.00000575       0.00007573
K       27.75359994      11.07840628      15.00499720       72       0.00000939       0.00002143      -0.00001217
In      18.50242802       7.38573944      10.00341431       73      -0.00007336      -0.00020901      -0.00026133
I       24.70064270       9.63530062      16.06684029       74      -0.00000856       0.00000346      -0.00006426
I       30.80648796      12.52153876      13.94317054       75       0.00012137       0.00014493      -0.00007687
I       28.41245507       8.87467325      12.31784368       76       0.00000034      -0.00001131       0.00016290
I       27.09468365      13.28227596      17.69193948       77       0.00000831       0.00008359       0.00001002
I       25.70868252      12.64585429      12.58301982       78      -0.00006656       0.00011380       0.00001824
I       29.79864032       9.51099496      17.42701701       79      -0.00026114       0.00019046      -0.00011722
