40
Lattice="18.23527400641417 0.0 0.0 -5.143727452578083 16.099341530434003 0.0 -2.5930034138788214 -2.2486193940215133 6.52070043937917" Properties=species:S:1:pos:R:3 pbc="T T T"
Cs       4.44365638       2.76169728       0.02072633
Cs      -2.02933393       3.21062164       6.49990019
K       -1.29650171      -1.12430970       3.26035022
In      -0.76922776       0.08563992       0.00002680
I       -1.94474100       1.75540522       1.30441748
I        4.35905661       4.21696859       5.21628801
I       -1.11419870       0.38836832       5.21630437
I        3.52851088       5.58390762       1.30443384
I       -1.47366571       7.66748046       1.30442300
I        3.88799666      -1.69516057       5.21629354
Cs       1.87179266      10.81136805       0.02072633
Cs      -4.60119766      11.26029240       6.49990019
K       -3.86836543       6.92536107       3.26035022
In      -3.34109148       8.13531068       0.00002680
I       -4.51660473       9.80507599       1.30441748
I        1.78719288      12.26663935       5.21628801
I       -3.68606243       8.43803909       5.21630437
I        0.95664715      13.63357839       1.30443384
I       -4.04552943      15.71715122       1.30442300
I        1.31613293       6.35451020       5.21629354
Cs      13.56129338       2.76169728       0.02072633
Cs       7.08830307       3.21062164       6.49990019
K        7.82113530      -1.12430970       3.26035022
In       8.34840925       0.08563992       0.00002680
I        7.17289600       1.75540522       1.30441748
I       13.47669361       4.21696859       5.21628801
I        8.00343830       0.38836832       5.21630437
I       12.64614788       5.58390762       1.30443384
I        7.64397130       7.66748046       1.30442300
I       13.00563366      -1.69516057       5.21629354
Cs      10.98942966      10.81136805       0.02072633
Cs       4.51643934      11.26029240       6.49990019
K        5.24927157       6.92536107       3.26035022
In       5.77654552       8.13531068       0.00002680
I        4.60103227       9.80507599       1.30441748
I       10.90482989      12.26663935       5.21628801
I        5.43157458       8.43803909       5.21630437
I       10.07428416      13.63357839       1.30443384
I        5.07210757      15.71715122       1.30442300
I       10.43376993       6.35451020       5.21629354
