40
Lattice="20.3067613956973 0.7016725376974068 3.2834022595268335 -4.205454493208492 7.738798652892898 0.6427741340752917 -2.742193176662992 -2.5176415807387618 12.196428802929805" Properties=species:S:1:pos:R:3:spacegroup_kinds:I:1:forces:R:3 spacegroup="P 1" unit_cell=conventional occupancy="_JSON {\"0\": {\"Cs\": 1.0}, \"1\": {\"Cs\": 1.0}, \"2\": {\"Cs\": 1.0}, \"3\": {\"Cs\": 1.0}, \"4\": {\"Pb\": 1.0}, \"5\": {\"Pb\": 1.0}, \"6\": {\"Pb\": 1.0}, \"7\": {\"Pb\": 1.0}, \"8\": {\"I\": 1.0}, \"9\": {\"I\": 1.0}, \"10\": {\"I\": 1.0}, \"11\": {\"I\": 1.0}, \"12\": {\"I\": 1.0}, \"13\": {\"I\": 1.0}, \"14\": {\"I\": 1.0}, \"15\": {\"I\": 1.0}, \"16\": {\"I\": 1.0}, \"17\": {\"I\": 1.0}, \"18\": {\"I\": 1.0}, \"19\": {\"I\": 1.0}, \"20\": {\"Cs\": 1.0}, \"21\": {\"Cs\": 1.0}, \"22\": {\"Cs\": 1.0}, \"23\": {\"Cs\": 1.0}, \"24\": {\"Pb\": 1.0}, \"25\": {\"Pb\": 1.0}, \"26\": {\"Pb\": 1.0}, \"27\": {\"Pb\": 1.0}, \"28\": {\"I\": 1.0}, \"29\": {\"I\": 1.0}, \"30\": {\"I\": 1.0}, \"31\": {\"I\": 1.0}, \"32\": {\"I\": 1.0}, \"33\": {\"I\": 1.0}, \"34\": {\"I\": 1.0}, \"35\": {\"I\": 1.0}, \"36\": {\"I\": 1.0}, \"37\": {\"I\": 1.0}, \"38\": {\"I\": 1.0}, \"39\": {\"I\": 1.0}}" energy=-112.42754925073714 free_energy=-112.42754925073714 stress="-1.6856891691623774e-05 -7.571672663589885e-06 3.3654612015639427e-06 -7.571672663589885e-06 1.1279486444151878e-05 2.1733826879933345e-07 3.3654612015639427e-06 2.1733826879933345e-07 -2.470919382928599e-06" pbc="T T T"
Cs       1.54027774       7.08930952       3.99816277        0       0.00042328       0.00022847      -0.00012139
Cs      -3.62351533       4.40164668       4.12823967        1       0.00007085       0.00059818       0.00000633
Cs       4.31198220      -1.79933593       9.46414521        2       0.00016287      -0.00010680      -0.00028463
Cs       5.22143115       3.38566539      11.85824410        3       0.00008868       0.00000772      -0.00021068
Pb      -0.18600258       1.36167198       0.25072016        4       0.00010038      -0.00004039      -0.00007702
Pb       3.78897508       3.45726525       1.11857230        5      -0.00013439       0.00004928       0.00036574
Pb      -1.66667300       0.29587752       6.36494987        6       0.00045253      -0.00010652       0.00014697
Pb       2.30815020       2.39183762       7.23275620        7       0.00002497       0.00041104       0.00031355
I        0.70526390       4.41914267       0.85328182        8      -0.00017085      -0.00017396      -0.00014798
I        2.87774872       0.43815057       0.51599071        9       0.00018149       0.00033136      -0.00047658
I        8.70624776       1.50187079       4.91323059       10       0.00002800       0.00009728      -0.00014166
I        4.10678956      -0.24501482      13.10277935       11       0.00010611      -0.00003195      -0.00008985
I        2.35400658       3.71600073      14.58140679       12      -0.00038472      -0.00033158       0.00014225
I        3.57065155       2.60278608       4.21208385       13      -0.00041646      -0.00027845       0.00036683
I       -0.75639056       3.31451007       6.96982502       14       0.00025172       0.00035635      -0.00014341
I        1.41753681      -0.66515126       6.62974446       15       0.00014039      -0.00018132       0.00020535
I       -2.31803981      -1.03610602       9.29053475       16       0.00020308      -0.00014076       0.00011914
I        5.42643619       1.83128467       8.21922677       17       0.00026159      -0.00003606       0.00008655
I        2.97411524       5.61001472       7.38217862       18       0.00013830      -0.00060488       0.00070520
I        1.69880428       2.27140988      10.38941438       19      -0.00027876       0.00017348      -0.00031261
Cs      11.69373339       7.44050152       5.63945554       20       0.00035739      -0.00007966       0.00036075
Cs       6.53001876       4.75277595       5.77036306       21      -0.00022583       0.00050201      -0.00019934
Cs      14.46534645      -1.44914795      11.10546359       22       0.00018308       0.00028611       0.00024833
Cs      -4.93190164       3.03498248      10.21666891       23      -0.00007210      -0.00004879      -0.00008205
Pb       9.96747874       1.71238213       1.89224769       24      -0.00006821      -0.00018290       0.00015686
Pb      13.94225810       3.80824017       2.76048274       25       0.00009638       0.00039257      -0.00035639
Pb       8.48686152       0.64674792       8.00670471       26      -0.00001419       0.00024464      -0.00033473
Pb      12.46190381       2.74306090       8.87466379       27      -0.00043861      -0.00031913       0.00038506
I       10.85831343       4.76977944       2.49489256       28       0.00003297       0.00007333      -0.00005133
I       13.03173715       0.78958909       2.15651835       29      -0.00019806      -0.00023587      -0.00018211
I       18.85959875       1.85272167       6.55487568       30      -0.00018656       0.00014196       0.00018657
I       14.26000210       0.10584925      14.74458070       31       0.00009604       0.00027005      -0.00043269
I       12.50687771       4.06700678      16.22333769       32      -0.00003274      -0.00005712      -0.00013998
I       13.72408421       2.95374946       5.85370608       33      -0.00048524      -0.00061731       0.00017836
I        9.39742875       3.66577273       8.61092495       34       0.00006147      -0.00016845      -0.00010993
I       11.57085510      -0.31408428       8.27240743       35      -0.00003313      -0.00057844      -0.00027499
I        7.83500320      -0.68537645      10.93204911       36       0.00027354      -0.00010046       0.00013459
I       15.58001810       2.18168750       9.86138880       37      -0.00023360       0.00021941      -0.00030865
I       13.12807708       5.96046760       9.02458030       38      -0.00011923      -0.00008991      -0.00016989
I       11.85206267       2.62228949      12.03077988       39      -0.00024243       0.00012748       0.00053945
