20
Lattice="18.4440957487367 0.058829314827113094 0.08823586869754538 4.6447488067386145 7.989136881231401 0.033885580429775526 4.642538483508287 2.678252669185569 6.962577197247567" Properties=species:S:1:pos:R:3:spacegroup_kinds:I:1:forces:R:3 spacegroup="P 1" unit_cell=conventional occupancy="_JSON {\"0\": {\"Cs\": 1.0}, \"1\": {\"Cs\": 1.0}, \"2\": {\"K\": 1.0}, \"3\": {\"In\": 1.0}, \"4\": {\"I\": 1.0}, \"5\": {\"I\": 1.0}, \"6\": {\"I\": 1.0}, \"7\": {\"I\": 1.0}, \"8\": {\"I\": 1.0}, \"9\": {\"I\": 1.0}, \"10\": {\"Cs\": 1.0}, \"11\": {\"Cs\": 1.0}, \"12\": {\"K\": 1.0}, \"13\": {\"In\": 1.0}, \"14\": {\"I\": 1.0}, \"15\": {\"I\": 1.0}, \"16\": {\"I\": 1.0}, \"17\": {\"I\": 1.0}, \"18\": {\"I\": 1.0}, \"19\": {\"I\": 1.0}}" energy=-51.29788202078653 free_energy=-51.29788202078653 stress="4.758348434044281e-06 1.5516538795585845e-06 -6.589532829357784e-06 1.5516538795585845e-06 8.629073044149203e-06 -1.373714413941444e-06 -6.589532829357784e-06 -1.373714413941444e-06 -1.321147202691403e-05" pbc="T T T"
Cs       4.63192897       2.69289078       1.94638110        0      -0.00019730      -0.00039278       0.00061173
Cs      13.87766844       8.00523641       5.09434319        1       0.00020424      -0.00036673      -0.00068242
K        9.25448922       5.34768922       3.52108571        2       0.00026596       0.00056407      -0.00049290
In      18.44389665       0.05859311       0.08834901        3      -0.00005807       0.00017544      -0.00008734
I        6.99147779       3.23266442       5.22727441        4       0.00003260      -0.00000426       0.00037916
I       11.51737437       7.46386641       1.81260576        5      -0.00031210      -0.00003347       0.00020364
I        9.95034975       2.36645036       1.74402901        6      -0.00037104      -0.00031694      -0.00017558
I        8.55925013       8.33038406       5.29658693        7       0.00003554      -0.00045689      -0.00028752
I        6.33588689       6.21449049       1.72250720        8      -0.00028225      -0.00011931       0.00022266
I       12.17406930       4.48256284       5.31767388        9       0.00000124       0.00008583       0.00023071
Cs      13.85404324       2.72232067       1.99050638       10      -0.00028972      -0.00041425       0.00060022
Cs      23.09989394       8.03456552       5.13843371       11      -0.00018603      -0.00029444      -0.00063051
K       18.47662077       5.37720523       3.56521501       12       0.00003295       0.00027624      -0.00050016
In       9.22177485       0.02926537       0.04421588       13       0.00023108      -0.00006198      -0.00004332
I       16.21316306       3.26202456       5.27155504       14       0.00085574       0.00014284      -0.00009687
I       20.73912762       7.49325912       1.85686946       15       0.00045319      -0.00004974      -0.00017801
I       19.17220072       2.39553025       1.78790726       16       0.00000401       0.00054943       0.00053244
I       17.78136582       8.35944227       5.34054175       17      -0.00008963       0.00043037       0.00029691
I       15.55785367       6.24385594       1.76663956       18      -0.00025873       0.00007918       0.00018253
I       21.39615616       4.51191595       5.36192121       19      -0.00007166       0.00020740      -0.00008535
