20
Lattice="21.404261851207064 0.0 0.0 -3.5771657975026394 7.0310866576807225 0.0 -2.763935871686697 2.0986162349987816 6.977776945241584" Properties=species:S:1:pos:R:3 pbc="T T T"
Cs       2.26197535       5.26575550      -0.00002811
Cs       7.02174092       2.92205994      -0.00002811
K       -1.38196794       1.04930812       3.48888847
In       1.07938792       0.57836842       0.00002459
I        2.39458516       2.84178346       1.39604257
I        4.12522189       7.44465222       5.58177498
I        1.67451319       2.25710395       5.58177153
I        8.42243076       0.99821504       1.39603911
I       -2.11283060       6.18577612       1.39603009
I       -2.06952472       4.10068518       5.58176250
Cs      12.96410627       5.26575550      -0.00002811
Cs      17.72387185       2.92205994      -0.00002811
K        9.32016299       1.04930812       3.48888847
In      11.78151885       0.57836842       0.00002459
I       13.09671609       2.84178346       1.39604257
I       14.82735282       7.44465222       5.58177498
I       12.37664412       2.25710395       5.58177153
I       19.12456169       0.99821504       1.39603911
I        8.58930033       6.18577612       1.39603009
I        8.63260620       4.10068518       5.58176250
