20
Lattice="18.54745197022515 -1.6114289698208044 1.7977842683689493 -3.6649389447440464 8.261079293011102 -0.19633068692636832 -2.075977609903171 2.6504133811222013 8.264301132833225" Properties=species:S:1:pos:R:3:spacegroup_kinds:I:1:forces:R:3 spacegroup="P 1" unit_cell=conventional occupancy="_JSON {\"0\": {\"Cs\": 1.0}, \"1\": {\"Cs\": 1.0}, \"2\": {\"K\": 1.0}, \"3\": {\"In\": 1.0}, \"4\": {\"I\": 1.0}, \"5\": {\"I\": 1.0}, \"6\": {\"I\": 1.0}, \"7\": {\"I\": 1.0}, \"8\": {\"I\": 1.0}, \"9\": {\"I\": 1.0}, \"10\": {\"Cs\": 1.0}, \"11\": {\"Cs\": 1.0}, \"12\": {\"K\": 1.0}, \"13\": {\"In\": 1.0}, \"14\": {\"I\": 1.0}, \"15\": {\"I\": 1.0}, \"16\": {\"I\": 1.0}, \"17\": {\"I\": 1.0}, \"18\": {\"I\": 1.0}, \"19\": {\"I\": 1.0}}" energy=-51.2033854027558 free_energy=-51.2033854027558 stress="-7.313123360720012e-06 -3.964713674953179e-06 -6.426580536784396e-06 -3.964713674953179e-06 -6.1820844890930004e-06 2.1204969723209424e-06 -6.426580536784396e-06 2.1204969723209424e-06 -1.021308007398309e-05" pbc="T T T"
Cs      -0.63296544       8.56187576       8.60051040        0      -0.00005982       0.00013371      -0.00072531
Cs       3.56029953       5.48825281       8.94685016        1      -0.00048447      -0.00034779      -0.00015978
K        0.30900060       0.56887759       4.41684369        2       0.00014203       0.00041321       0.00018984
In       0.74005578       0.67573214      -0.00227636        3      -0.00064373      -0.00020947       0.00041498
I        2.01850644       2.52577856       2.00374927        4       0.00032037       0.00060439      -0.00046965
I        3.01536083       8.85349478       7.05207805        5      -0.00053874      -0.00035190       0.00041308
I        1.24653373       3.11005318       6.76490012        6      -0.00051147      -0.00059137       0.00007440
I        7.45784856       0.01112575       2.48760648        7       0.00044603       0.00010750       0.00031101
I       -2.12129051       6.68499404       1.64348765        8       0.00082133       0.00030345       0.00007759
I       -2.18546791       5.64833503       6.54067102        9       0.00052248      -0.00002644      -0.00008771
Cs       8.64076126       7.75616035       9.49940333       10      -0.00006599       0.00013925      -0.00072937
Cs      12.83402473       4.68253928       9.84574135       11      -0.00047769      -0.00035344      -0.00015493
K        9.58272696      -0.23683690       5.31573249       12       0.00013334       0.00041187       0.00021018
In      10.01378682      -0.12997805       0.89663885       13      -0.00068082      -0.00024079       0.00028483
I       11.29223074       1.72005936       2.90263502       14       0.00033915       0.00063744      -0.00043468
I       12.28908901       8.04778457       7.95097746       15      -0.00056179      -0.00038250       0.00037338
I       10.52026016       2.30433851       7.66379083       16      -0.00051826      -0.00059111       0.00008342
I       16.73157390      -0.79458818       3.38650004       17       0.00045459       0.00010500       0.00030183
I        7.15243349       5.87928371       2.54237599       18       0.00083396       0.00027722       0.00009854
I        7.08825695       4.84262241       7.43956029       19       0.00052953      -0.00003823      -0.00007165
