10
Lattice="9.260226301053148 -0.7361695897285353 -0.42270149859305245 -3.9504886650123003 8.324821219053783 1.2523815800834173 0.3095721787765756 -1.1703133894547428 8.74531876908322" Properties=species:S:1:pos:R:3:spacegroup_kinds:I:1:forces:R:3 spacegroup="P 1" unit_cell=conventional occupancy="_JSON {\"0\": {\"Cs\": 1.0}, \"1\": {\"Cs\": 1.0}, \"2\": {\"K\": 1.0}, \"3\": {\"In\": 1.0}, \"4\": {\"I\": 1.0}, \"5\": {\"I\": 1.0}, \"6\": {\"I\": 1.0}, \"7\": {\"I\": 1.0}, \"8\": {\"I\": 1.0}, \"9\": {\"I\": 1.0}}" energy=-25.793816125783763 free_energy=-25.793816125783763 stress="-4.514576825822494e-06 -1.9455803182563257e-06 4.327562488779301e-06 -1.9455803182563257e-06 3.4572510224614355e-06 -1.1506122906893456e-06 4.327562488779301e-06 -1.1506122906893456e-06 -1.3961672919466943e-06" pbc="T T T"
Cs       1.53961718       4.80349058       9.49600294        0      -0.00050837       0.00032154       0.00050185
Cs       5.94357550       1.78114436       8.94831268        1      -0.00034334       0.00033869      -0.00018619
K        0.93192735       0.08266820       4.43467109        2      -0.00023548       0.00041928       0.00039726
In       0.77665801       0.66868107       0.06250877        3       0.00061944       0.00022334      -0.00024690
I        2.22797331       2.42606693       2.02984146        4       0.00010017       0.00000861      -0.00019047
I        4.94508880       5.32942438       7.67021025        5      -0.00016473      -0.00026366      -0.00039569
I        3.45268147      -0.45721666       6.94705688        6       0.00077610      -0.00026195       0.00031740
I        7.67039531      -0.11184237       1.50017113        7      -0.00030899      -0.00025596       0.00027115
I        7.18653593       5.84146688       2.31317259        8       0.00040309       0.00009220      -0.00027557
I       -0.01340899       1.91416601       7.38637341        9      -0.00033789      -0.00062209      -0.00019285
