5
Lattice="6.387060369535307 0.0 0.0 0.0 6.387060369535306 0.0 0.0 0.0 6.387060369535306" Properties=species:S:1:pos:R:3:oxi_states:R:1 pbc="T T T"
Cs       3.19363615       3.19342422       3.19353018       1.00000000
Pb      -0.00000000      -0.00000000       0.00000000       2.00000000
I        0.00000000      -0.00000000       3.19353018      -1.00000000
I        3.19353018       0.00000000      -0.00000000      -1.00000000
I       -0.00000000       3.19353018       0.00000000      -1.00000000
