80
Lattice="25.163114052818607 -3.2662183713789568 1.1075488234540989 -2.8426076152056314 14.009140141429636 -1.0873515423542255 -0.07773502059841583 2.1905558847975697 14.243879700101306" Properties=species:S:1:pos:R:3:spacegroup_kinds:I:1:forces:R:3 spacegroup="P 1" unit_cell=conventional occupancy="_JSON {\"0\": {\"Cs\": 1.0}, \"1\": {\"Cs\": 1.0}, \"2\": {\"K\": 1.0}, \"3\": {\"In\": 1.0}, \"4\": {\"I\": 1.0}, \"5\": {\"I\": 1.0}, \"6\": {\"I\": 1.0}, \"7\": {\"I\": 1.0}, \"8\": {\"I\": 1.0}, \"9\": {\"I\": 1.0}, \"10\": {\"Cs\": 1.0}, \"11\": {\"Cs\": 1.0}, \"12\": {\"K\": 1.0}, \"13\": {\"In\": 1.0}, \"14\": {\"I\": 1.0}, \"15\": {\"I\": 1.0}, \"16\": {\"I\": 1.0}, \"17\": {\"I\": 1.0}, \"18\": {\"I\": 1.0}, \"19\": {\"I\": 1.0}, \"20\": {\"Cs\": 1.0}, \"21\": {\"Cs\": 1.0}, \"22\": {\"K\": 1.0}, \"23\": {\"In\": 1.0}, \"24\": {\"I\": 1.0}, \"25\": {\"I\": 1.0}, \"26\": {\"I\": 1.0}, \"27\": {\"I\": 1.0}, \"28\": {\"I\": 1.0}, \"29\": {\"I\": 1.0}, \"30\": {\"Cs\": 1.0}, \"31\": {\"Cs\": 1.0}, \"32\": {\"K\": 1.0}, \"33\": {\"In\": 1.0}, \"34\": {\"I\": 1.0}, \"35\": {\"I\": 1.0}, \"36\": {\"I\": 1.0}, \"37\": {\"I\": 1.0}, \"38\": {\"I\": 1.0}, \"39\": {\"I\": 1.0}, \"40\": {\"Cs\": 1.0}, \"41\": {\"Cs\": 1.0}, \"42\": {\"K\": 1.0}, \"43\": {\"In\": 1.0}, \"44\": {\"I\": 1.0}, \"45\": {\"I\": 1.0}, \"46\": {\"I\": 1.0}, \"47\": {\"I\": 1.0}, \"48\": {\"I\": 1.0}, \"49\": {\"I\": 1.0}, \"50\": {\"Cs\": 1.0}, \"51\": {\"Cs\": 1.0}, \"52\": {\"K\": 1.0}, \"53\": {\"In\": 1.0}, \"54\": {\"I\": 1.0}, \"55\": {\"I\": 1.0}, \"56\": {\"I\": 1.0}, \"57\": {\"I\": 1.0}, \"58\": {\"I\": 1.0}, \"59\": {\"I\": 1.0}, \"60\": {\"Cs\": 1.0}, \"61\": {\"Cs\": 1.0}, \"62\": {\"K\": 1.0}, \"63\": {\"In\": 1.0}, \"64\": {\"I\": 1.0}, \"65\": {\"I\": 1.0}, \"66\": {\"I\": 1.0}, \"67\": {\"I\": 1.0}, \"68\": {\"I\": 1.0}, \"69\": {\"I\": 1.0}, \"70\": {\"Cs\": 1.0}, \"71\": {\"Cs\": 1.0}, \"72\": {\"K\": 1.0}, \"73\": {\"In\": 1.0}, \"74\": {\"I\": 1.0}, \"75\": {\"I\": 1.0}, \"76\": {\"I\": 1.0}, \"77\": {\"I\": 1.0}, \"78\": {\"I\": 1.0}, \"79\": {\"I\": 1.0}}" energy=-204.24307659023654 free_energy=-204.24307659023654 stress="-3.263196461309289e-07 -4.234531509397672e-06 5.452595593829941e-06 -4.234531509397672e-06 5.813907965563657e-06 -3.39144562181904e-06 5.452595593829941e-06 -3.39144562181904e-06 1.585428512967278e-05" pbc="T T T"
Cs       6.35725405       0.13926363       1.57390463        0       0.00018447       0.00012416      -0.00010596
Cs       0.71046931       5.56191559       6.77474356        1      -0.00038753      -0.00032224       0.00004143
K        2.28872452       1.86978859       3.68711861        2       0.00015346       0.00053174      -0.00005853
In      22.37420811      -3.08884307      -0.07370932        3      -0.00023629      -0.00063873       0.00025171
I       23.19257438      -1.44753615       1.99122956        4       0.00025708      -0.00013756      -0.00018560
I       10.43151920       5.34590703       4.72958246        5       0.00003263      -0.00033067      -0.00008035
I        2.89946517       2.37081232       7.25902521        6      -0.00010478       0.00026654       0.00029090
I        6.52387920       3.77733354      -0.11485619        7      -0.00043311       0.00001444      -0.00024404
I        2.05023441       5.41966072       3.16629919        8       0.00030469       0.00007600       0.00003493
I        8.22044449       1.28481752       4.88152947        9       0.00014698       0.00033834       0.00033902
Cs       6.32129604       1.23477970       8.69864944       10      -0.00008330      -0.00011307      -0.00014982
Cs       0.66763718       6.65659199      13.89527617       11      -0.00002714       0.00018266       0.00029674
K        2.25088091       2.96402812      10.81001121       12      -0.00001066       0.00047017      -0.00025732
In      22.33590601      -1.98876227       7.04820560       13      -0.00053122      -0.00053386       0.00022078
I       23.15435014      -0.34885241       9.11414744       14       0.00046551       0.00017886      -0.00032619
I       10.39438447       6.44455754      11.85339458       15      -0.00052628      -0.00007797       0.00000665
I        2.85703333       3.46575805      14.38098407       16       0.00019913      -0.00035150       0.00005760
I        6.47929226       4.86873903       6.99933543       17      -0.00005799       0.00037401       0.00007530
I        2.01598412       6.51431542      10.29031819       18      -0.00013464      -0.00022042      -0.00029112
I        8.18334622       2.38338868      12.00598239       19      -0.00034601       0.00020857      -0.00035285
Cs       4.93764922       7.14433996       1.03095185       20      -0.00019231       0.00019701       0.00007112
Cs      -0.71171837      12.56626775       6.23107667       21      -0.00022313      -0.00009546      -0.00012644
K        0.86920194       8.87511324       3.14400230       22      -0.00014315      -0.00003766       0.00016307
In      20.95092707       3.91239543      -0.62219604       23       0.00029185       0.00056284       0.00068084
I       21.77047639       5.54950942       1.44570596       24       0.00002138       0.00040016      -0.00042970
I        9.01129919      12.35230566       4.18894896       25      -0.00055037      -0.00064962      -0.00019780
I        1.47824549       9.37577888       6.71647121       26       0.00034109       0.00006824      -0.00000094
I        5.09795007      10.78067999      -0.66206576       27       0.00033628      -0.00049118       0.00001419
I        0.62870026      12.42298402       2.62256587       28       0.00015051       0.00026291       0.00031184
I        6.80094136       8.29180555       4.33771317       29      -0.00071550       0.00004532      -0.00014418
Cs       4.90067286       8.23778267       8.15452313       30       0.00005769       0.00038766      -0.00032796
Cs      -0.75506339      13.65906789      13.35261996       31      -0.00004184       0.00045071       0.00018761
K        0.83123541       9.96932099      10.26641247       32      -0.00032865       0.00025631      -0.00035880
In      20.91239096       5.01552489       6.50254110       33      -0.00015131       0.00009969       0.00066932
I       21.72898318       6.65871636       8.56680963       34       0.00011860      -0.00065071      -0.00027812
I        8.97182819      13.44701271      11.30968193       35      -0.00015612      -0.00002361      -0.00006123
I        1.43780121      10.47107945      13.83673548       36      -0.00000193      -0.00022445       0.00044969
I        5.05873311      11.87416572       6.45933031       37      -0.00007191      -0.00011350       0.00001769
I        0.59233487      13.51906178       9.74633482       38      -0.00007510      -0.00013745       0.00002939
I        6.76147307       9.38733564      11.46170061       39       0.00010155       0.00008040      -0.00006729
Cs      18.94116569      -1.49179718       2.13174489       40       0.00006704       0.00009990      -0.00015588
Cs      13.28860958       3.92678037       7.32561671       41      -0.00023529       0.00033542       0.00023601
K       14.86977120       0.23674986       4.23920845       42       0.00023320       0.00010948       0.00006317
In       9.79343660      -1.45690609      -0.62840594       43      -0.00025465       0.00061797       0.00015509
I       10.61282949       0.18410921       1.43629750       44       0.00000171      -0.00052030      -0.00015102
I       23.01367209       3.71976220       5.28860546       45       0.00024986      -0.00066208      -0.00069109
I       15.47851881       0.73756541       7.81104392       46       0.00003546      -0.00001463       0.00023156
I       19.09720012       2.13938018       0.42742569       47       0.00016164       0.00062680       0.00053263
I       14.63199232       3.78582636       3.71823719       48       0.00059991       0.00005806       0.00053778
I       20.80520134      -0.33868880       5.43768370       49      -0.00039814      -0.00070067      -0.00029427
Cs      18.90063125      -0.39323130       9.25116692       50       0.00039305      -0.00020670      -0.00010122
Cs      13.25008726       5.02246072      14.44748295       51       0.00008455       0.00028233       0.00005921
K       14.83113562       1.33168451      11.36154003       52      -0.00014779       0.00049858      -0.00021728
In       9.75318403      -0.36250911       6.49280951       53      -0.00007447       0.00042952       0.00027086
I       10.57021629       1.27997503       8.55755557       54       0.00036762      -0.00044621      -0.00057338
I       22.97332289       4.80953973      12.40316200       55       0.00021118      -0.00025795       0.00021587
I       15.44148448       1.83367941      14.93305900       56       0.00028426      -0.00022512       0.00025719
I       19.06091075       3.24271025       7.55708770       57       0.00022287       0.00031195      -0.00018681
I       14.59256313       4.88130764      10.84017933       58       0.00007198       0.00016504      -0.00027218
I       20.76433739       0.75061121      12.56019286       59      -0.00030177      -0.00027273      -0.00068327
Cs      17.51867031       5.50919129       1.58286481       60       0.00013606       0.00012207       0.00024897
Cs      11.86834099      10.93146228       6.78316355       61      -0.00044890       0.00055262      -0.00006679
K       13.44838473       7.24077030       3.69461224       62       0.00012845       0.00022916       0.00012650
In       8.37377935       5.55017182      -1.17182317       63      -0.00003960      -0.00037647       0.00029812
I        9.19251583       7.19324411       0.89152277       64      -0.00011425      -0.00072062      -0.00044702
I       21.59210148      10.72297190       4.74440900       65      -0.00001204      -0.00049175      -0.00038160
I       14.05623212       7.74144659       7.26654999       66       0.00022835       0.00034517       0.00008763
I       17.67955374       9.14833191      -0.10661959       67      -0.00024417      -0.00028963      -0.00014676
I       13.21272298      10.79151333       3.17653107       68       0.00014056      -0.00015759      -0.00033102
I       19.37998933       6.66202608       4.88999565       69       0.00012682      -0.00009447       0.00031875
Cs      17.47791938       6.61075764       8.70586090       70       0.00043154      -0.00033905      -0.00003170
Cs      11.83175214      12.02878997      13.90427651       71      -0.00015491       0.00021314       0.00030370
K       13.41100457       8.33706160      10.81764985       72      -0.00026964      -0.00021159       0.00006114
In       8.33212558       6.64120962       5.94711341       73      -0.00000937       0.00056127       0.00065004
I        9.15051148       8.28178190       8.01279170       74       0.00041556      -0.00022272       0.00003609
I       21.55254247      11.81414814      11.86535609       75       0.00000788       0.00017654      -0.00024255
I       14.01904493       8.83714569      14.38875409       76       0.00018219       0.00007312       0.00026852
I       17.64028583      10.24827838       7.01378779       77       0.00013867      -0.00032072      -0.00021803
I       13.17396613      11.88607842      10.29696181       78       0.00016859       0.00024976       0.00036160
I       19.34148389       7.75558372      12.01458559       79      -0.00001664       0.00004601      -0.00029418
