80
Lattice="21.40307603067721 0.0 0.0 -0.8071402783676421 15.755955138820392 0.0 -0.26018961823709114 3.893039111381299 14.242874372438884" Properties=species:S:1:pos:R:3 pbc="T T T"
Cs       6.07936533       2.64389967       0.02263139
Cs       2.24839630       7.20401549       7.09871625
K       -0.06504740       0.97325978       3.56071859
In      -0.92006038       0.01171569       0.00003108
I       -1.02841061       2.47548165       1.42458914
I        9.35616438       7.37249875       5.69685108
I        1.68833342       3.62554878       5.69687105
I        6.63941605       6.22231432       1.42460911
I        1.44514684       8.26145118       1.42459724
I        6.88262487       1.58646494       5.69685918
Cs       5.94927052       4.59041922       7.14406857
Cs       2.11830150       9.15053504      14.22015343
K       -0.19514221       2.91977933      10.68215578
In      -1.05015519       1.95823525       7.12146826
I       -1.15850542       4.42200120       8.54602633
I        9.22606957       9.31901831      12.81828827
I        1.55823861       5.57206834      12.81830823
I        6.50932124       8.16883387       8.54604630
I        1.31505203      10.20797074       8.54603443
I        6.75253006       3.53298450      12.81829637
Cs       5.67579519      10.52187724       0.02263139
Cs       1.84482617      15.08199306       7.09871625
K       -0.46861754       8.85123735       3.56071859
In      -1.32363052       7.88969326       0.00003108
I       -1.43198075      10.35345922       1.42458914
I        8.95259424      15.25047632       5.69685108
I        1.28476328      11.50352635       5.69687105
I        6.23584591      14.10029189       1.42460911
I        1.04157670      16.13942875       1.42459724
I        6.47905473       9.46444251       5.69685918
Cs       5.54570039      12.46839679       7.14406857
Cs       1.71473136      17.02851261      14.22015343
K       -0.59871235      10.79775690      10.68215578
In      -1.45372533       9.83621282       7.12146826
I       -1.56207556      12.29997877       8.54602633
I        8.82249943      17.19699587      12.81828827
I        1.15466847      13.45004590      12.81830823
I        6.10575110      16.04681144       8.54604630
I        0.91148189      18.08594831       8.54603443
I        6.34895992      11.41096207      12.81829637
Cs      16.78090335       2.64389967       0.02263139
Cs      12.94993432       7.20401549       7.09871625
K       10.63649061       0.97325978       3.56071859
In       9.78147763       0.01171569       0.00003108
I        9.67312740       2.47548165       1.42458914
I       20.05770240       7.37249875       5.69685108
I       12.38987143       3.62554878       5.69687105
I       17.34095406       6.22231432       1.42460911
I       12.14668485       8.26145118       1.42459724
I       17.58416289       1.58646494       5.69685918
Cs      16.65080854       4.59041922       7.14406857
Cs      12.81983951       9.15053504      14.22015343
K       10.50639580       2.91977933      10.68215578
In       9.65138282       1.95823525       7.12146826
I        9.54303259       4.42200120       8.54602633
I       19.92760759       9.31901831      12.81828827
I       12.25977663       5.57206834      12.81830823
I       17.21085926       8.16883387       8.54604630
I       12.01659004      10.20797074       8.54603443
I       17.45406808       3.53298450      12.81829637
Cs      16.37733321      10.52187724       0.02263139
Cs      12.54636418      15.08199306       7.09871625
K       10.23292047       8.85123735       3.56071859
In       9.37790749       7.88969326       0.00003108
I        9.26955726      10.35345922       1.42458914
I       19.65413226      15.25047632       5.69685108
I       11.98630130      11.50352635       5.69687105
I       16.93738393      14.10029189       1.42460911
I       11.74311471      16.13942875       1.42459724
I       17.18059275       9.46444251       5.69685918
Cs      16.24723840      12.46839679       7.14406857
Cs      12.41626937      17.02851261      14.22015343
K       10.10282566      10.79775690      10.68215578
In       9.24781268       9.83621282       7.12146826
I        9.13946245      12.29997877       8.54602633
I       19.52403745      17.19699587      12.81828827
I       11.85620649      13.45004590      12.81830823
I       16.80728912      16.04681144       8.54604630
I       11.61301990      18.08594831       8.54603443
I       17.05049794      11.41096207      12.81829637
