10
Lattice="12.774505045235193 1.2932955499822856e-10 2.143291503663625e-15 6.466477750556386e-11 6.387252522617598 6.567129966220075e-16 1.0716593807350376e-15 6.567804945705634e-16 6.387252522237849" Properties=species:S:1:pos:R:3:spacegroup_kinds:I:1:forces:R:3 spacegroup="P 1" unit_cell=conventional occupancy="_JSON {\"0\": {\"Cs\": 1.0}, \"1\": {\"Pb\": 1.0}, \"2\": {\"I\": 1.0}, \"3\": {\"I\": 1.0}, \"4\": {\"I\": 1.0}, \"5\": {\"Cs\": 1.0}, \"6\": {\"Pb\": 1.0}, \"7\": {\"I\": 1.0}, \"8\": {\"I\": 1.0}, \"9\": {\"I\": 1.0}}" energy=-27.961484652205506 free_energy=-27.961484652205506 stress="8.8330242892926e-06 -3.1971955741938665e-12 4.901713987652001e-18 -3.1971955741938665e-12 8.83302428842533e-06 -7.13334063614896e-18 4.901713987652001e-18 -7.13334063614896e-18 8.833038582174697e-06" pbc="T T T"
Cs       3.19373955       3.19351297       3.19362626        0       0.00000612      -0.00000612      -0.00000000
Pb       0.00000029      -0.00000029      -0.00000000        1       0.00001173      -0.00001174      -0.00000000
I       -0.00001000       0.00001000       3.19362626        2      -0.00000374       0.00000374       0.00000000
I        3.19363360       0.00001000       0.00000000        3      -0.00001036       0.00000374       0.00000000
I       -0.00001000       3.19361892       0.00000000        4      -0.00000374       0.00001036       0.00000000
Cs       9.58099208       3.19351297       3.19362626        5       0.00000612      -0.00000612      -0.00000000
Pb       6.38725281      -0.00000029       0.00000000        6       0.00001173      -0.00001174      -0.00000000
I        6.38724252       0.00001000       3.19362626        7      -0.00000374       0.00000374       0.00000000
I        9.58088613       0.00001000       0.00000000        8      -0.00001036       0.00000374       0.00000000
I        6.38724252       3.19361892       0.00000000        9      -0.00000374       0.00001036       0.00000000
