40
Lattice="15.879648784413842 0.0 0.0 -8.941001946919659 15.486269642637106 0.0 -0.043960851533992644 4.816273048058184 7.920690978968361" Properties=species:S:1:pos:R:3 pbc="T T T"
Cs      -0.25460930       5.20801095      -0.00000204
Cs       3.88216582       2.62696601      -0.00000204
K        0.05713655       2.45405720       3.96034615
In       0.07911746       0.04592139       0.00000183
I        0.97998024       3.03975077       1.58466968
I        2.60361738       9.61149955       6.33602433
I        2.12577549       3.89861631       6.33602410
I        5.92832100       1.00949698       1.58466945
I       -3.22801278       6.72238116       1.58466873
I       -1.12821630       5.92887103       6.33602339
Cs      -4.72511027      12.95114577      -0.00000204
Cs      -0.58833515      10.37010083      -0.00000204
K       -4.41336442      10.19719202       3.96034615
In      -4.39138352       7.78905621       0.00000183
I       -3.49052073      10.78288559       1.58466968
I       -1.86688359      17.35463437       6.33602433
I       -2.34472548      11.64175113       6.33602410
I        1.45782002       8.75263181       1.58466945
I       -7.69851375      14.46551598       1.58466873
I       -5.59871727      13.67200585       6.33602339
Cs       7.68521509       5.20801095      -0.00000204
Cs      11.82199021       2.62696601      -0.00000204
K        7.99696094       2.45405720       3.96034615
In       8.01894185       0.04592139       0.00000183
I        8.91980463       3.03975077       1.58466968
I       10.54344178       9.61149955       6.33602433
I       10.06559988       3.89861631       6.33602410
I       13.86814539       1.00949698       1.58466945
I        4.71181161       6.72238116       1.58466873
I        6.81160809       5.92887103       6.33602339
Cs       3.21471412      12.95114577      -0.00000204
Cs       7.35148924      10.37010083      -0.00000204
K        3.52645997      10.19719202       3.96034615
In       3.54844088       7.78905621       0.00000183
I        4.44930366      10.78288559       1.58466968
I        6.07294080      17.35463437       6.33602433
I        5.59509891      11.64175113       6.33602410
I        9.39764442       8.75263181       1.58466945
I        0.24131064      14.46551598       1.58466873
I        2.34110712      13.67200585       6.33602339
