80
Lattice="22.3379803806928 -3.6776938572832965 1.270234283741658 -3.684490582311727 16.477460973964487 0.2502865303882991 9.105369780825011 1.8090644926401278 14.901847279872355" Properties=species:S:1:pos:R:3:spacegroup_kinds:I:1:forces:R:3 spacegroup="P 1" unit_cell=conventional occupancy="_JSON {\"0\": {\"Cs\": 1.0}, \"1\": {\"Cs\": 1.0}, \"2\": {\"K\": 1.0}, \"3\": {\"In\": 1.0}, \"4\": {\"I\": 1.0}, \"5\": {\"I\": 1.0}, \"6\": {\"I\": 1.0}, \"7\": {\"I\": 1.0}, \"8\": {\"I\": 1.0}, \"9\": {\"I\": 1.0}, \"10\": {\"Cs\": 1.0}, \"11\": {\"Cs\": 1.0}, \"12\": {\"K\": 1.0}, \"13\": {\"In\": 1.0}, \"14\": {\"I\": 1.0}, \"15\": {\"I\": 1.0}, \"16\": {\"I\": 1.0}, \"17\": {\"I\": 1.0}, \"18\": {\"I\": 1.0}, \"19\": {\"I\": 1.0}, \"20\": {\"Cs\": 1.0}, \"21\": {\"Cs\": 1.0}, \"22\": {\"K\": 1.0}, \"23\": {\"In\": 1.0}, \"24\": {\"I\": 1.0}, \"25\": {\"I\": 1.0}, \"26\": {\"I\": 1.0}, \"27\": {\"I\": 1.0}, \"28\": {\"I\": 1.0}, \"29\": {\"I\": 1.0}, \"30\": {\"Cs\": 1.0}, \"31\": {\"Cs\": 1.0}, \"32\": {\"K\": 1.0}, \"33\": {\"In\": 1.0}, \"34\": {\"I\": 1.0}, \"35\": {\"I\": 1.0}, \"36\": {\"I\": 1.0}, \"37\": {\"I\": 1.0}, \"38\": {\"I\": 1.0}, \"39\": {\"I\": 1.0}, \"40\": {\"Cs\": 1.0}, \"41\": {\"Cs\": 1.0}, \"42\": {\"K\": 1.0}, \"43\": {\"In\": 1.0}, \"44\": {\"I\": 1.0}, \"45\": {\"I\": 1.0}, \"46\": {\"I\": 1.0}, \"47\": {\"I\": 1.0}, \"48\": {\"I\": 1.0}, \"49\": {\"I\": 1.0}, \"50\": {\"Cs\": 1.0}, \"51\": {\"Cs\": 1.0}, \"52\": {\"K\": 1.0}, \"53\": {\"In\": 1.0}, \"54\": {\"I\": 1.0}, \"55\": {\"I\": 1.0}, \"56\": {\"I\": 1.0}, \"57\": {\"I\": 1.0}, \"58\": {\"I\": 1.0}, \"59\": {\"I\": 1.0}, \"60\": {\"Cs\": 1.0}, \"61\": {\"Cs\": 1.0}, \"62\": {\"K\": 1.0}, \"63\": {\"In\": 1.0}, \"64\": {\"I\": 1.0}, \"65\": {\"I\": 1.0}, \"66\": {\"I\": 1.0}, \"67\": {\"I\": 1.0}, \"68\": {\"I\": 1.0}, \"69\": {\"I\": 1.0}, \"70\": {\"Cs\": 1.0}, \"71\": {\"Cs\": 1.0}, \"72\": {\"K\": 1.0}, \"73\": {\"In\": 1.0}, \"74\": {\"I\": 1.0}, \"75\": {\"I\": 1.0}, \"76\": {\"I\": 1.0}, \"77\": {\"I\": 1.0}, \"78\": {\"I\": 1.0}, \"79\": {\"I\": 1.0}}" energy=-205.50095322200303 free_energy=-205.50095322200303 stress="8.67517838057198e-08 -5.898229198765787e-07 5.036649636827822e-07 -5.898229198765787e-07 1.9715217215425265e-07 -2.8373206932814734e-07 5.036649636827822e-07 -2.8373206932814734e-07 2.7484000847256044e-07" pbc="T T T"
Cs       8.76306916       2.31803775       2.98868182        0      -0.00004555      -0.00024969      -0.00001999
Cs       4.32547983       5.61724057       5.19143577        1       0.00020094       0.00006174       0.00030643
K        1.88134808       0.76669206       3.71079823        2       0.00016279       0.00012370      -0.00002532
In      21.94291501      -3.36342054       1.25584313        3       0.00023590       0.00022355      -0.00009050
I       23.35754560      -0.90926196       2.16029824        4      -0.00005902       0.00007324      -0.00045975
I       12.06769125       5.16567004       7.29283363        5       0.00013639       0.00001095      -0.00039902
I        5.29775151       1.51727888       4.59486926        6      -0.00010780      -0.00002898      -0.00017931
I        7.79188888       6.41672206       3.58573957        7       0.00000965       0.00016679       0.00025618
I        0.09364891       6.91088920       0.95151145        8      -0.00030911       0.00008147      -0.00009337
I       12.99509184       1.02322557       7.22835383        9      -0.00007874       0.00006325       0.00045832
Cs      13.31559484       3.22028816      10.43976770       10       0.00008945       0.00016955      -0.00029010
Cs       8.87865222       6.52124673      12.64314540       11       0.00005511      -0.00007429       0.00022010
K       25.08756719      14.47153980      12.68213923       12       0.00013638       0.00010408       0.00016867
In      26.49587258      -2.45783323       8.70662675       13      -0.00000942      -0.00021456      -0.00031958
I       27.91145572      -0.00418651       9.60998642       14      -0.00012717       0.00020895       0.00016477
I       16.62231827       6.07029882      14.74214367       15       0.00005542      -0.00017139       0.00034641
I        9.85020861       2.42196032      12.04594796       16      -0.00036305       0.00012802      -0.00002800
I       12.34454429       7.32209032      11.03803811       17      -0.00039984      -0.00014087      -0.00011816
I        4.64607196       7.81528455       8.40215376       18       0.00033877      -0.00047336      -0.00001057
I       17.54744397       1.92777747      14.68060701       19      -0.00015711      -0.00008045      -0.00010896
Cs       6.92039920      10.55448932       3.11334633       20      -0.00005331       0.00037785       0.00016082
Cs       2.48377261      13.85648955       5.31795279       21      -0.00034740      -0.00022760       0.00002167
K       22.37600705       5.32796038       5.10549432       22       0.00006170       0.00000444       0.00005933
In      20.10057581       4.87595393       1.37932857       23       0.00018409       0.00010069      -0.00014531
I       21.51577156       7.32974765       2.28380802       24      -0.00006669      -0.00032912       0.00012819
I       10.22739127      13.40409253       7.41635010       25       0.00003824       0.00021148       0.00015880
I        3.45413370       9.75535062       4.71911995       26       0.00030039       0.00033721      -0.00014230
I        5.94936181      14.65476747       3.71240335       27       0.00009419       0.00016130      -0.00039874
I        1.93646775      -1.32811877       0.82686212       28      -0.00000128       0.00004184       0.00011658
I       11.15313094       9.26263196       7.35351414       29       0.00025941      -0.00038840       0.00041563
Cs      11.47428640      11.46007468      10.56445773       30      -0.00018978       0.00017982       0.00003452
Cs       7.03651382      14.76065101      12.76801908       31       0.00003156      -0.00005878      -0.00005944
K       26.92938001       6.23242196      12.55608349       32       0.00005458      -0.00000282       0.00006648
In      24.65266032       5.77984256       8.83082101       33      -0.00027121       0.00018763       0.00020612
I       26.06785197       8.23365975       9.73534733       34      -0.00019758       0.00024650      -0.00027898
I       14.77851886      14.30870646      14.86797250       35       0.00015071      -0.00016894       0.00020062
I        8.00762940      10.66112628      12.16960596       36       0.00012317      -0.00022184       0.00020653
I       10.50220152      15.56029413      11.16196125       37       0.00008408      -0.00018911      -0.00014411
I        6.48855945      -0.42351612       8.27872569       38       0.00009184       0.00000356      -0.00030779
I       15.70593320      10.16666362      14.80431851       39      -0.00005778       0.00009900      -0.00002958
Cs      19.93179388       0.47839934       3.62358961       40       0.00018301       0.00002558      -0.00003956
Cs      15.49381171       3.77878573       5.82700368       41       0.00006825       0.00021917      -0.00012138
K       13.05001046      -1.07150937       4.34508529       42      -0.00003634      -0.00039483       0.00018015
In      10.77294127      -1.52437035       0.62064734       43      -0.00015861      -0.00007432      -0.00020050
I       12.18807090       0.92963243       1.52460675       44       0.00030831       0.00030143      -0.00010262
I       23.23749123       3.32606149       7.92689725       45      -0.00009983      -0.00002907      -0.00009184
I       16.46594758      -0.32068759       5.22861229       46       0.00009281      -0.00033522       0.00017378
I       18.96006725       4.57804150       4.22053934       47       0.00010949      -0.00021558       0.00039786
I       11.26306428       5.07254061       1.58634093       48       0.00008643      -0.00000329       0.00003149
I       24.16486820      -0.81521746       7.86428248       49      -0.00028973      -0.00004518       0.00002454
Cs      24.48489340       1.38262998      11.07524207       50      -0.00002672      -0.00010585      -0.00023409
Cs      20.04751395       4.68188141      13.27851322       51       0.00000492       0.00039595      -0.00019767
K       13.91775929      16.31086167      12.04654348       52       0.00009170      -0.00017828      -0.00003048
In      15.32662849      -0.61933233       8.06998982       53       0.00018270       0.00020223       0.00055364
I       16.74143614       1.83468103       8.97429561       54       0.00001766      -0.00022848       0.00014122
I       27.79113257       4.23095702      15.37678585       55      -0.00002421      -0.00020597       0.00037382
I       21.01825187       0.58263318      12.68085733       56       0.00032957       0.00036558      -0.00034316
I       23.51319542       5.48109718      11.67257067       57       0.00023114       0.00043658      -0.00034840
I       15.81434160       5.97563546       9.03813578       58       0.00021159       0.00037548      -0.00013411
I       28.71688762       0.08820824      15.31602056       59       0.00025697      -0.00004078      -0.00025358
Cs      18.09012074       8.71595973       3.74895440       60      -0.00006938      -0.00000591      -0.00004015
Cs      13.65305773      12.01732376       5.95218870       61      -0.00014464      -0.00013480       0.00014987
K       11.20815933       7.16712706       4.47029930       62      -0.00018074      -0.00001882      -0.00001143
In       8.93206802       6.71541738       0.74428868       63      -0.00028804      -0.00075788      -0.00007035
I       10.34669575       9.16919410       1.64885099       64       0.00014213      -0.00017086       0.00014106
I       21.39600690      11.56572038       8.05274359       65       0.00010069       0.00000282       0.00015111
I       14.62401108       7.91620156       5.35472797       66      -0.00022073       0.00008752       0.00029371
I       17.11909335      12.81511025       4.34741008       67      -0.00003236       0.00033380      -0.00014493
I       13.10437499      -3.16694040       1.46191322       68      -0.00012769      -0.00001142       0.00016026
I       22.32159236       7.42288001       7.98925316       69       0.00021790       0.00003016      -0.00003696
Cs      22.64252095       9.62102495      11.19966388       70       0.00015371      -0.00012103       0.00019052
Cs      18.20490184      12.92285043      13.40310515       71      -0.00006583      -0.00023260      -0.00009590
K       15.76122915       8.07102498      11.92099344       72      -0.00018459       0.00039024      -0.00007052
In      13.48350062       7.61913988       8.19652394       73       0.00044136       0.00015460      -0.00067820
I       14.89949172      10.07285910       9.09995761       74      -0.00001279      -0.00023241      -0.00010495
I       25.94923817      12.46919815      15.50317541       75      -0.00044376       0.00031411      -0.00011751
I       19.17691360       8.82241813      12.80481767       76      -0.00015194      -0.00004578       0.00037752
I       21.67141284      13.72277505      11.79822259       77      -0.00019222      -0.00047983       0.00004122
I       17.65814340      -2.26160160       8.91227938       78      -0.00055003       0.00001662      -0.00011209
I       26.87470361       8.32760113      15.43942911       79       0.00001689       0.00006987       0.00015135
