80
Lattice="16.73756840674311 0.0 0.0 -0.3688410713156265 16.73350388993638 0.0 6.538871146282797 3.2026134372863138 14.125389064562782" Properties=species:S:1:pos:R:3 pbc="T T T"
Cs       5.24085849       3.08657268       0.02247695
Cs       5.63840467       7.46659891       7.04019326
K        1.63471779       0.80065336       3.53134727
In      -0.28727005       0.29256067       0.00001280
I        0.33691501       2.81594961       1.41284189
I       10.54234469       7.73724366       5.64986319
I        4.48358177       3.75786556       5.64986814
I        6.39567724       6.79529187       1.41284685
I        2.36761948       8.96092253       1.41283966
I        8.51164715       1.59224995       5.64986096
Cs       8.51029407       4.68787939       7.08517149
Cs       8.90784024       9.06790563      14.10288779
K        4.90415336       2.40196008      10.59404180
In       2.98216552       1.89386739       7.06270733
I        3.60635058       4.41725633       8.47553642
I       13.81178026       9.33855038      12.71255772
I        7.75301734       5.35917228      12.71256267
I        9.66511281       8.39659859       8.47554138
I        5.63705505      10.56222925       8.47553419
I       11.78108272       3.19355667      12.71255549
Cs       5.05643796      11.45332462       0.02247695
Cs       5.45398413      15.83335086       7.04019326
K        1.45029725       9.16740530       3.53134727
In      -0.47169059       8.65931262       0.00001280
I        0.15249447      11.18270156       1.41284189
I       10.35792415      16.10399561       5.64986319
I        4.29916123      12.12461751       5.64986814
I        6.21125670      15.16204382       1.41284685
I        2.18319894      17.32767448       1.41283966
I        8.32722661       9.95900189       5.64986096
Cs       8.32587353      13.05463134       7.08517149
Cs       8.72341971      17.43465757      14.10288779
K        4.71973282      10.76871202      10.59404180
In       2.79774499      10.26061934       7.06270733
I        3.42193005      12.78400828       8.47553642
I       13.62735973      17.70530233      12.71255772
I        7.56859680      13.72592423      12.71256267
I        9.48069228      16.76335054       8.47554138
I        5.45263451      18.92898120       8.47553419
I       11.59666218      11.56030861      12.71255549
Cs      13.60964270       3.08657268       0.02247695
Cs      14.00718887       7.46659891       7.04019326
K       10.00350199       0.80065336       3.53134727
In       8.08151415       0.29256067       0.00001280
I        8.70569921       2.81594961       1.41284189
I       18.91112889       7.73724366       5.64986319
I       12.85236597       3.75786556       5.64986814
I       14.76446144       6.79529187       1.41284685
I       10.73640368       8.96092253       1.41283966
I       16.88043135       1.59224995       5.64986096
Cs      16.87907827       4.68787939       7.08517149
Cs      17.27662445       9.06790563      14.10288779
K       13.27293756       2.40196008      10.59404180
In      11.35094972       1.89386739       7.06270733
I       11.97513479       4.41725633       8.47553642
I       22.18056447       9.33855038      12.71255772
I       16.12180154       5.35917228      12.71256267
I       18.03389702       8.39659859       8.47554138
I       14.00583925      10.56222925       8.47553419
I       20.14986692       3.19355667      12.71255549
Cs      13.42522216      11.45332462       0.02247695
Cs      13.82276834      15.83335086       7.04019326
K        9.81908145       9.16740530       3.53134727
In       7.89709362       8.65931262       0.00001280
I        8.52127868      11.18270156       1.41284189
I       18.72670836      16.10399561       5.64986319
I       12.66794543      12.12461751       5.64986814
I       14.58004091      15.16204382       1.41284685
I       10.55198314      17.32767448       1.41283966
I       16.69601082       9.95900189       5.64986096
Cs      16.69465773      13.05463134       7.08517149
Cs      17.09220391      17.43465757      14.10288779
K       13.08851703      10.76871202      10.59404180
In      11.16652919      10.26061934       7.06270733
I       11.79071425      12.78400828       8.47553642
I       21.99614393      17.70530233      12.71255772
I       15.93738101      13.72592423      12.71256267
I       17.84947648      16.76335054       8.47554138
I       13.82141872      18.92898120       8.47553419
I       19.96544639      11.56030861      12.71255549
