40
Lattice="19.361551977632406 0.0 0.0 -14.757768606697201 10.555316810599455 0.0 1.5041304782281066 -2.5244241522019353 7.6253862118086575" Properties=species:S:1:pos:R:3 pbc="T T T"
Cs       6.13278489      -0.81803580       7.61819740
Cs      -1.05507165       3.46086257       0.00714488
K        0.75206524      -1.26221208       3.81269311
In       0.63585222      -0.05520496       0.00001167
I        8.07719734      -0.55651045       1.52532579
I       -2.99948807       3.19931918       6.10006778
I        1.54626729       0.82193010       1.52533061
I        3.53146074       1.82090649       6.10007260
I        5.16936826       3.33172848       1.52532494
I       -0.09165503      -0.68889622       6.10006693
Cs      -1.24609941       4.45962260       7.61819740
Cs      -8.43395596       8.73852098       0.00714488
K       -6.62681906       4.01544633       3.81269311
In      -6.74303208       5.22245344       0.00001167
I        0.69831303       4.72114796       1.52532579
I      -10.37837237       8.47697758       6.10006778
I       -5.83261702       6.09958850       1.52533061
I       -3.84742357       7.09856489       6.10007260
I       -2.20951605       8.60938688       1.52532494
I       -7.47053933       4.58876219       6.10006693
Cs      15.81356088      -0.81803580       7.61819740
Cs       8.62570433       3.46086257       0.00714488
K       10.43284123      -1.26221208       3.81269311
In      10.31662821      -0.05520496       0.00001167
I       17.75797333      -0.55651045       1.52532579
I        6.68128792       3.19931918       6.10006778
I       11.22704328       0.82193010       1.52533061
I       13.21223673       1.82090649       6.10007260
I       14.85014424       3.33172848       1.52532494
I        9.58912096      -0.68889622       6.10006693
Cs       8.43467658       4.45962260       7.61819740
Cs       1.24682003       8.73852098       0.00714488
K        3.05395692       4.01544633       3.81269311
In       2.93774391       5.22245344       0.00001167
I       10.37908902       4.72114796       1.52532579
I       -0.69759638       8.47697758       6.10006778
I        3.84815897       6.09958850       1.52533061
I        5.83335242       7.09856489       6.10007260
I        7.47125994       8.60938688       1.52532494
I        2.21023666       4.58876219       6.10006693
