20
Lattice="18.102616337908927 -0.6192608824572016 3.650653773356262 4.779958313734289 7.279238632126636 0.6387513457629422 3.1498468815498066 3.0360346663068056 8.071289412983084" Properties=species:S:1:pos:R:3:spacegroup_kinds:I:1:forces:R:3 spacegroup="P 1" unit_cell=conventional occupancy="_JSON {\"0\": {\"Cs\": 1.0}, \"1\": {\"Cs\": 1.0}, \"2\": {\"K\": 1.0}, \"3\": {\"In\": 1.0}, \"4\": {\"I\": 1.0}, \"5\": {\"I\": 1.0}, \"6\": {\"I\": 1.0}, \"7\": {\"I\": 1.0}, \"8\": {\"I\": 1.0}, \"9\": {\"I\": 1.0}, \"10\": {\"Cs\": 1.0}, \"11\": {\"Cs\": 1.0}, \"12\": {\"K\": 1.0}, \"13\": {\"In\": 1.0}, \"14\": {\"I\": 1.0}, \"15\": {\"I\": 1.0}, \"16\": {\"I\": 1.0}, \"17\": {\"I\": 1.0}, \"18\": {\"I\": 1.0}, \"19\": {\"I\": 1.0}}" energy=-51.297888440924716 free_energy=-51.297888440924716 stress="-3.3350461291194946e-07 2.511029509451564e-06 -1.232034838879193e-06 2.511029509451564e-06 -9.677314380914334e-07 2.845695087286954e-07 -1.232034838879193e-06 2.845695087286954e-07 -9.181557806814996e-07" pbc="T T T"
Cs       4.24976474       2.67212589       2.55282125        0      -0.00024951       0.00063693      -0.00014615
Cs      12.73252691       7.33119270       7.98316696        1      -0.00033113       0.00051161       0.00002081
K        8.49025521       5.00299863       5.26683253        2       0.00011091       0.00015628       0.00068527
In      18.10225933      -0.61885139       3.65067374        3       0.00060657      -0.00037347      -0.00041719
I        5.25416661       3.88054271       6.14871470        4      -0.00024726      -0.00050218       0.00060160
I       11.72616070       6.12706743       4.38607244        5       0.00013284      -0.00066527       0.00003825
I        9.50349399       2.15487852       3.43290860        6       0.00007110       0.00009089      -0.00089599
I        7.47775672       7.85053982       7.10439212        7       0.00021469      -0.00041966      -0.00062583
I        6.84805763       5.86628465       2.25303948        8      -0.00020696      -0.00014780      -0.00006338
I       10.13329104       4.13992062       8.28147114        9       0.00017994      -0.00010735       0.00005596
Cs      13.30096852       2.36260407       4.37804428       10      -0.00022373       0.00063495      -0.00017197
Cs      21.78377838       7.02159377       9.80853333       11      -0.00037649       0.00034532      -0.00023712
K       17.54190153       4.69367721       7.09227935       12      -0.00048821      -0.00031272       0.00040897
In       9.05123303      -0.30926186       1.82519294       13      -0.00069778      -0.00055940       0.00040104
I       14.30513405       3.57061570       7.97411175       14       0.00090529      -0.00001940      -0.00023109
I       20.77715514       5.81706025       6.21125104       15       0.00039837      -0.00033755       0.00039481
I       18.55461877       1.84508495       5.25797387       16       0.00010383       0.00065349      -0.00028556
I       16.52927522       7.54020034       8.92981377       17      -0.00017823       0.00068330      -0.00019068
I       15.89936927       5.55653117       4.07816590       18       0.00016208      -0.00031034       0.00053356
I       19.18455097       3.83041379      10.10677203       19       0.00011368       0.00004238       0.00012469
