40
Lattice="17.046365958917544 0.0 0.0 8.523182979530546 14.762585962587638 0.0 4.261591489834156 2.460430993818154 6.959149952369036" Properties=species:S:1:pos:R:3 pbc="T T T"
Cs       4.26155904       2.46042126       1.73978864
Cs      12.78480683       7.38130246       5.21936115
K        8.52318300       4.92086189       3.47957494
In       0.00000010       0.00000023       0.00000009
I        6.56467071       3.14825297       4.78382736
I       10.48169533       6.69347064       2.17532249
I        9.16762203       2.74295165       1.61728769
I        7.87874363       7.09877193       5.34186212
I        6.24251423       6.23773080       1.61729448
I       10.80385203       3.60399362       5.34185571
Cs       8.52315053       9.84171424       1.73978864
Cs      17.04639832      14.76259544       5.21936115
K       12.78477449      12.30215487       3.47957494
In       4.26159159       7.38129321       0.00000009
I       10.82626220      10.52954596       4.78382736
I       14.74328682      14.07476362       2.17532249
I       13.42921352      10.12424463       1.61728769
I       12.14033512      14.48006491       5.34186212
I       10.50410572      13.61902378       1.61729448
I       15.06544352      10.98528660       5.34185571
Cs      12.78474202       2.46042126       1.73978864
Cs      21.30798981       7.38130246       5.21936115
K       17.04636598       4.92086189       3.47957494
In       8.52318308       0.00000023       0.00000009
I       15.08785369       3.14825297       4.78382736
I       19.00487831       6.69347064       2.17532249
I       17.69080501       2.74295165       1.61728769
I       16.40192661       7.09877193       5.34186212
I       14.76569721       6.23773080       1.61729448
I       19.32703501       3.60399362       5.34185571
Cs      17.04633351       9.84171424       1.73978864
Cs      25.56958130      14.76259544       5.21936115
K       21.30795747      12.30215487       3.47957494
In      12.78477457       7.38129321       0.00000009
I       19.34944517      10.52954596       4.78382736
I       23.26646980      14.07476362       2.17532249
I       21.95239650      10.12424463       1.61728769
I       20.66351810      14.48006491       5.34186212
I       19.02728870      13.61902378       1.61729448
I       23.58862650      10.98528660       5.34185571
