80
Lattice="15.817160426156029 0.0 0.0 -7.538108785592566 20.532336329747782 0.0 -4.68433684067971 4.565023986529098 10.425676549849596" Properties=species:S:1:pos:R:3 pbc="T T T"
Cs      -0.26026834      11.05631410       2.60641910
Cs      -1.89769541       5.92343909       2.60641910
Cs       1.01222273       4.67070626       7.81925737
Cs       2.64971708       9.80399943       7.81925737
Pb       0.64837108       0.44806394      -0.00000242
Pb       2.71815421       5.58104037      -0.00000828
Pb      -1.69379734       2.73057593       5.21284062
Pb       0.37598579       7.86355236       5.21284648
I       -0.64993690       7.81239413       0.43319187
I        2.12804652       2.67929327       0.43338933
I        6.68046253       1.68619476       2.60641910
I        1.40190700       7.91483675       9.99222153
I       -1.37607120      13.04790405       9.99241898
I        2.18136069       6.81906478       2.60641910
I       -2.60271419       9.71543302       4.77964632
I        0.17526923       4.58233216       4.77944887
I       -5.92854731      14.04124937       7.81925737
I        3.35468429       6.01179786       5.64629322
I        0.57670609      11.14486516       5.64609576
I       -1.42942806       8.90795122       7.81925737
Cs      -4.02932273      21.32248226       2.60641910
Cs      -5.66674980      16.18960726       2.60641910
Cs      -2.75683166      14.93687443       7.81925737
Cs      -1.11933731      20.07016759       7.81925737
Pb      -3.12068332      10.71423210      -0.00000242
Pb      -1.05090019      15.84720853      -0.00000828
Pb      -5.46285174      12.99674409       5.21284062
Pb      -3.39306861      18.12972052       5.21284648
I       -4.41899129      18.07856230       0.43319187
I       -1.64100787      12.94546143       0.43338933
I        2.91140814      11.95236293       2.60641910
I       -2.36714739      18.18100491       9.99222153
I       -5.14512560      23.31407221       9.99241898
I       -1.58769370      17.08523294       2.60641910
I       -6.37176858      19.98160119       4.77964632
I       -3.59378516      14.84850032       4.77944887
I       -9.69760170      24.30741753       7.81925737
I       -0.41437010      16.27796602       5.64629322
I       -3.19234831      21.41103332       5.64609576
I       -5.19848245      19.17411938       7.81925737
Cs       7.64831188      11.05631410       2.60641910
Cs       6.01088480       5.92343909       2.60641910
Cs       8.92080294       4.67070626       7.81925737
Cs      10.55829729       9.80399943       7.81925737
Pb       8.55695129       0.44806394      -0.00000242
Pb      10.62673442       5.58104037      -0.00000828
Pb       6.21478287       2.73057593       5.21284062
Pb       8.28456600       7.86355236       5.21284648
I        7.25864332       7.81239413       0.43319187
I       10.03662674       2.67929327       0.43338933
I       14.58904274       1.68619476       2.60641910
I        9.31048721       7.91483675       9.99222153
I        6.53250901      13.04790405       9.99241898
I       10.08994090       6.81906478       2.60641910
I        5.30586603       9.71543302       4.77964632
I        8.08384945       4.58233216       4.77944887
I        1.98003291      14.04124937       7.81925737
I       11.26326450       6.01179786       5.64629322
I        8.48528630      11.14486516       5.64609576
I        6.47915216       8.90795122       7.81925737
Cs       3.87925748      21.32248226       2.60641910
Cs       2.24183041      16.18960726       2.60641910
Cs       5.15174855      14.93687443       7.81925737
Cs       6.78924290      20.07016759       7.81925737
Pb       4.78789690      10.71423210      -0.00000242
Pb       6.85768003      15.84720853      -0.00000828
Pb       2.44572848      12.99674409       5.21284062
Pb       4.51551161      18.12972052       5.21284648
I        3.48958892      18.07856230       0.43319187
I        6.26757234      12.94546143       0.43338933
I       10.81998835      11.95236293       2.60641910
I        5.54143282      18.18100491       9.99222153
I        2.76345462      23.31407221       9.99241898
I        6.32088651      17.08523294       2.60641910
I        1.53681163      19.98160119       4.77964632
I        4.31479505      14.84850032       4.77944887
I       -1.78902149      24.30741753       7.81925737
I        7.49421011      16.27796602       5.64629322
I        4.71623191      21.41103332       5.64609576
I        2.71009776      19.17411938       7.81925737
