80
Lattice="17.73111249753851 1.2530198979480929 2.818789768869772 -6.804581503745341 19.623060482914752 -4.702560169121653 -2.9321626529201494 2.3000033812121665 11.759053438557483" Properties=species:S:1:pos:R:3:spacegroup_kinds:I:1:forces:R:3 spacegroup="P 1" unit_cell=conventional occupancy="_JSON {\"0\": {\"Cs\": 1.0}, \"1\": {\"Cs\": 1.0}, \"2\": {\"Cs\": 1.0}, \"3\": {\"Cs\": 1.0}, \"4\": {\"Pb\": 1.0}, \"5\": {\"Pb\": 1.0}, \"6\": {\"Pb\": 1.0}, \"7\": {\"Pb\": 1.0}, \"8\": {\"I\": 1.0}, \"9\": {\"I\": 1.0}, \"10\": {\"I\": 1.0}, \"11\": {\"I\": 1.0}, \"12\": {\"I\": 1.0}, \"13\": {\"I\": 1.0}, \"14\": {\"I\": 1.0}, \"15\": {\"I\": 1.0}, \"16\": {\"I\": 1.0}, \"17\": {\"I\": 1.0}, \"18\": {\"I\": 1.0}, \"19\": {\"I\": 1.0}, \"20\": {\"Cs\": 1.0}, \"21\": {\"Cs\": 1.0}, \"22\": {\"Cs\": 1.0}, \"23\": {\"Cs\": 1.0}, \"24\": {\"Pb\": 1.0}, \"25\": {\"Pb\": 1.0}, \"26\": {\"Pb\": 1.0}, \"27\": {\"Pb\": 1.0}, \"28\": {\"I\": 1.0}, \"29\": {\"I\": 1.0}, \"30\": {\"I\": 1.0}, \"31\": {\"I\": 1.0}, \"32\": {\"I\": 1.0}, \"33\": {\"I\": 1.0}, \"34\": {\"I\": 1.0}, \"35\": {\"I\": 1.0}, \"36\": {\"I\": 1.0}, \"37\": {\"I\": 1.0}, \"38\": {\"I\": 1.0}, \"39\": {\"I\": 1.0}, \"40\": {\"Cs\": 1.0}, \"41\": {\"Cs\": 1.0}, \"42\": {\"Cs\": 1.0}, \"43\": {\"Cs\": 1.0}, \"44\": {\"Pb\": 1.0}, \"45\": {\"Pb\": 1.0}, \"46\": {\"Pb\": 1.0}, \"47\": {\"Pb\": 1.0}, \"48\": {\"I\": 1.0}, \"49\": {\"I\": 1.0}, \"50\": {\"I\": 1.0}, \"51\": {\"I\": 1.0}, \"52\": {\"I\": 1.0}, \"53\": {\"I\": 1.0}, \"54\": {\"I\": 1.0}, \"55\": {\"I\": 1.0}, \"56\": {\"I\": 1.0}, \"57\": {\"I\": 1.0}, \"58\": {\"I\": 1.0}, \"59\": {\"I\": 1.0}, \"60\": {\"Cs\": 1.0}, \"61\": {\"Cs\": 1.0}, \"62\": {\"Cs\": 1.0}, \"63\": {\"Cs\": 1.0}, \"64\": {\"Pb\": 1.0}, \"65\": {\"Pb\": 1.0}, \"66\": {\"Pb\": 1.0}, \"67\": {\"Pb\": 1.0}, \"68\": {\"I\": 1.0}, \"69\": {\"I\": 1.0}, \"70\": {\"I\": 1.0}, \"71\": {\"I\": 1.0}, \"72\": {\"I\": 1.0}, \"73\": {\"I\": 1.0}, \"74\": {\"I\": 1.0}, \"75\": {\"I\": 1.0}, \"76\": {\"I\": 1.0}, \"77\": {\"I\": 1.0}, \"78\": {\"I\": 1.0}, \"79\": {\"I\": 1.0}}" energy=-222.636015639753 free_energy=-222.636015639753 stress="-1.8453158215935553e-07 -4.2139136256170557e-07 1.9616149294335545e-06 -4.2139136256170557e-07 -4.1282444769145784e-06 2.7734699750114746e-06 1.9616149294335545e-06 2.7734699750114746e-06 -9.196000055443835e-07" pbc="T T T"
Cs       1.06969457       9.73670284       1.32115998        0      -0.00017641       0.00014509       0.00006845
Cs      -2.01950245       5.78552375       2.22397525        1      -0.00001391      -0.00019148       0.00007088
Cs       2.69455946       3.07790988       9.17398211        2      -0.00005407      -0.00023364       0.00002869
Cs       5.51115451       8.99198687       8.95312373        3       0.00015680      -0.00005612       0.00001812
Pb      -2.03842853       3.29039011      11.87596180        4      -0.00006768      -0.00058256      -0.00017266
Pb       0.02594117       7.62527774      11.11593329        5       0.00021464       0.00061019       0.00003068
Pb      -1.29895907       2.13961932       5.62490266        6      -0.00048347      -0.00048537       0.00022716
Pb       2.28277429       6.80341369       5.50091731        7       0.00030288       0.00009100      -0.00011075
I       -1.88032249       8.15427798      -0.83425090        8       0.00013145       0.00015431      -0.00004471
I        3.66496574       2.18762162       0.62450125        9       0.00004423      -0.00000367      -0.00003273
I        7.40760217       2.46813680       3.88614641       10      -0.00005624      -0.00029408       0.00020319
I        6.03566257       7.11364905      12.25644878       11       0.00034226       0.00044178       0.00024957
I       -0.53819740      10.33893892       9.77302336       12       0.00001371      -0.00017880       0.00029578
I        2.97736573       6.43969735       2.31766913       13       0.00011650       0.00022686      -0.00005696
I       -0.26461164       8.33886269       4.85216053       14      -0.00021080       0.00015396      -0.00018120
I        1.46100392       3.46074798       5.45619952       15       0.00042548       0.00046147      -0.00009960
I       -4.70684986      11.96919791       6.65991623       16      -0.00012624      -0.00030594      -0.00015209
I        5.44775008       5.03788802       7.00665801       17      -0.00023103       0.00018718       0.00010362
I        4.26507474       9.23318925       5.22369592       18       0.00006229      -0.00026908       0.00020409
I        2.07399648       6.90070135       8.70532286       19       0.00008975      -0.00005374       0.00008737
Cs      -2.33273860      19.54819373      -1.03018319       20      -0.00004741       0.00018250       0.00012819
Cs      -5.42180974      15.59694426      -0.12724962       21       0.00003347      -0.00009457      -0.00008545
Cs      -0.70770381      12.88935365       6.82290926       22       0.00001679      -0.00011196      -0.00021911
Cs       2.10883590      18.80352007       6.60182302       23       0.00023566      -0.00011111       0.00001273
Pb      -5.44064782      13.10184198       9.52466821       24      -0.00047987      -0.00025309       0.00011962
Pb      -3.37641066      17.43697251       8.76457477       25      -0.00013929       0.00000817       0.00018297
Pb      -4.70131259      11.95103932       3.27382347       26       0.00009955       0.00037316      -0.00057559
Pb      -1.11968819      16.61494177       3.14971667       27       0.00064750       0.00015880      -0.00018948
I       -5.28259978      17.96586038      -3.18553512       28       0.00007951       0.00020452      -0.00003953
I        0.26261824      11.99912747      -1.72669813       29       0.00012932       0.00008373      -0.00006875
I        4.00529370      12.27958623       1.53508958       30       0.00006826      -0.00032911      -0.00049606
I        2.63349921      16.92526403       9.90519604       31      -0.00017353       0.00011545       0.00030009
I       -3.94051913      20.15044413       7.42170712       32      -0.00004986       0.00015957       0.00010207
I       -0.42498367      16.25120259      -0.03361328       33       0.00003293       0.00028386      -0.00002122
I       -3.66700947      18.15038727       2.50076860       34      -0.00022399       0.00020244      -0.00005725
I       -1.94116802      13.27238434       3.10481582       35      -0.00037299      -0.00004522       0.00013718
I       -1.30452146       2.15774517       9.01121579       36      -0.00012947      -0.00033950      -0.00008348
I        2.04546101      14.84940244       4.65548447       37       0.00007386      -0.00012204      -0.00003291
I        0.86285480      19.04465954       2.87240588       38      -0.00016463      -0.00000906       0.00015674
I       -1.32825059      16.71211073       6.35419018       39       0.00000264       0.00001834       0.00000787
Cs       9.93512270      10.36318466       2.73050788       40      -0.00011893       0.00036197       0.00016370
Cs       6.84623888       6.41201970       3.63351163       41      -0.00000490      -0.00009861      -0.00024696
Cs      11.56014804       3.70455518      10.58351100       42      -0.00012398      -0.00041831      -0.00004285
Cs      -3.35432643       8.36571797       7.54359464       43       0.00017864      -0.00035316       0.00029387
Pb       6.82716656       3.91689848      13.28540439       44       0.00017127      -0.00035963      -0.00029586
Pb       8.89154205       8.25208978      12.52514111       45      -0.00051472      -0.00041236       0.00026954
Pb       7.56646559       2.76611757       7.03426825       46       0.00077663      -0.00028156      -0.00000144
Pb      11.14828731       7.43004558       6.91020535       47      -0.00018023      -0.00018646       0.00007496
I        6.98557456       8.78092347       0.57515116       48      -0.00006711      -0.00026041       0.00011066
I       12.53059528       2.81416679       2.03389001       49      -0.00019883       0.00005469       0.00000752
I       -1.45799126       1.84150697       2.47693593       50       0.00008324      -0.00011910      -0.00021100
I       14.90139179       7.74021500      13.66591597       51      -0.00047943       0.00024444       0.00008504
I        8.32731164      10.96553739      11.18239448       52       0.00005069       0.00012192       0.00003018
I       11.84291038       7.06647042       3.72692236       53       0.00012876       0.00021630       0.00031890
I        8.60071295       8.96537827       6.26141367       54       0.00022770       0.00003472       0.00002950
I       10.32673890       4.08739391       6.86550870       55      -0.00054738       0.00003472       0.00001229
I        4.15871960      12.59578035       8.06921566       56      -0.00011805      -0.00040481       0.00007329
I       14.31321112       5.66432085       8.41640961       57       0.00010294       0.00025147      -0.00026926
I       13.13065374       9.85966189       6.63317401       58       0.00019937       0.00014550       0.00012398
I       10.93951281       7.52700313      10.11487988       59       0.00021126       0.00024384      -0.00042475
Cs       6.53302977      20.17466780       0.37938638       60      -0.00034035       0.00029333      -0.00009829
Cs       3.44372750      16.22355662       1.28192448       61      -0.00001123      -0.00016086       0.00009796
Cs       8.15791634      13.51585347       8.23231851       62      -0.00019164      -0.00001926      -0.00026804
Cs      -6.75668697      18.17695855       5.19254979       63       0.00008720      -0.00007126      -0.00004176
Pb       3.42481996      13.72821304      10.93405354       64       0.00011358       0.00017498      -0.00026685
Pb       5.48917351      18.06355135      10.17401205       65       0.00014406      -0.00034864      -0.00035950
Pb       4.16432729      12.57748773       4.68296336       66      -0.00027421       0.00035785       0.00018028
Pb       7.74608217      17.24149647       4.55887285       67      -0.00031270       0.00012252       0.00017086
I        3.58305361      18.59234047      -1.77622165       68       0.00007771       0.00023437      -0.00000457
I        9.12817402      12.62557106      -0.31723620       69      -0.00025610       0.00010579      -0.00026798
I       -4.86036193      11.65310177       0.12567943       70       0.00020584      -0.00030873       0.00003915
I       11.49893225      17.55163743      11.31452188       71       0.00004663       0.00024902       0.00035770
I        4.92506139      20.77694317       8.83112274       72      -0.00005211       0.00028975       0.00009141
I        8.44050276      16.87780574       1.37557646       73       0.00025160       0.00037646       0.00042863
I        5.19844106      18.77680067       3.91007719       74       0.00035202      -0.00002298      -0.00001913
I        6.92432381      13.89882180       4.51420538       75       0.00017008       0.00020876       0.00007138
I        7.56111426       2.78419126      10.42061825       76      -0.00022944      -0.00027009      -0.00034136
I       10.91091486      15.47593819       6.06492788       77       0.00022982      -0.00020567       0.00004780
I        9.72844598      19.67121546       4.28208208       78       0.00001139      -0.00004696      -0.00004140
I        7.53710018      17.33860146       7.76327038       79       0.00008237       0.00003426       0.00010693
