5
Lattice="6.387069798484025 -1.9358157939901196e-09 1.050811648897416e-15 -1.9358157936847965e-09 6.387069798484112 2.197056033471691e-16 1.050213782620417e-15 2.196812540915171e-16 6.387069797689765" Properties=species:S:1:pos:R:3:spacegroup_kinds:I:1:forces:R:3 spacegroup="P 1" unit_cell=conventional occupancy="_JSON {\"0\": {\"Cs\": 1.0}, \"1\": {\"Pb\": 1.0}, \"2\": {\"I\": 1.0}, \"3\": {\"I\": 1.0}, \"4\": {\"I\": 1.0}}" energy=-13.980742429037813 free_energy=-13.980742429037813 stress="2.670677105345928e-07 -1.800550353254706e-11 1.506266441029408e-17 -1.800550353254706e-11 2.6706771083045294e-07 2.872958838635557e-18 1.506266441029408e-17 2.872958838635557e-18 2.6709866613258457e-07" pbc="T T T"
Cs       3.19371934       3.19335045       3.19353490        0       0.00000919      -0.00000919      -0.00000000
Pb       0.00000236      -0.00000236      -0.00000000        1       0.00001324      -0.00001324      -0.00000000
I       -0.00001144       0.00001144       3.19353490        2      -0.00000817       0.00000817       0.00000000
I        3.19354227       0.00001144       0.00000000        3      -0.00000609       0.00000817       0.00000000
I       -0.00001144       3.19352753       0.00000000        4      -0.00000817       0.00000609       0.00000000
