20
Lattice="10.843792329432544 0.0 0.0 -4.607016815453104 9.58951174923165 0.0 -2.7673777310786796 1.5811303830451857 4.9773952647638735" Properties=species:S:1:pos:R:3:oxi_states:R:1 pbc="T T T"
Cs       0.17570456       3.18774358       2.48869763       1.00000000
Pb      -0.00000000      -0.00000000       0.00000000       2.00000000
I       -1.38368887       0.79056519       2.48869763      -1.00000000
I        2.71094808       0.00000000      -0.00000000      -1.00000000
I       -1.15175420       2.39737794       0.00000000      -1.00000000
Cs      -2.12780385       7.98249945       2.48869763       1.00000000
Pb      -2.30350841       4.79475587       0.00000000       2.00000000
I       -3.68719727       5.58532107       2.48869763      -1.00000000
I        0.40743967       4.79475587      -0.00000000      -1.00000000
I       -3.45526261       7.19213381       0.00000000      -1.00000000
Cs       5.59760072       3.18774358       2.48869763       1.00000000
Pb       5.42189616      -0.00000000       0.00000000       2.00000000
I        4.03820730       0.79056519       2.48869763      -1.00000000
I        8.13284425       0.00000000      -0.00000000      -1.00000000
I        4.27014196       2.39737794       0.00000000      -1.00000000
Cs       3.29409232       7.98249945       2.48869763       1.00000000
Pb       3.11838776       4.79475587       0.00000000       2.00000000
I        1.73469889       5.58532107       2.48869763      -1.00000000
I        5.82933584       4.79475587      -0.00000000      -1.00000000
I        1.96663355       7.19213381       0.00000000      -1.00000000
