20
Lattice="12.17718047450944 2.958588290747121 2.5521233802337604 -2.5311319796153984 12.342952267998404 -2.2411327113635418 -1.5131970612736088 0.9054516006975686 6.164512759959318" Properties=species:S:1:pos:R:3:spacegroup_kinds:I:1:forces:R:3 spacegroup="P 1" unit_cell=conventional occupancy="_JSON {\"0\": {\"Cs\": 1.0}, \"1\": {\"Pb\": 1.0}, \"2\": {\"I\": 1.0}, \"3\": {\"I\": 1.0}, \"4\": {\"I\": 1.0}, \"5\": {\"Cs\": 1.0}, \"6\": {\"Pb\": 1.0}, \"7\": {\"I\": 1.0}, \"8\": {\"I\": 1.0}, \"9\": {\"I\": 1.0}, \"10\": {\"Cs\": 1.0}, \"11\": {\"Pb\": 1.0}, \"12\": {\"I\": 1.0}, \"13\": {\"I\": 1.0}, \"14\": {\"I\": 1.0}, \"15\": {\"Cs\": 1.0}, \"16\": {\"Pb\": 1.0}, \"17\": {\"I\": 1.0}, \"18\": {\"I\": 1.0}, \"19\": {\"I\": 1.0}}" energy=-55.937671247850666 free_energy=-55.937671247850666 stress="5.946815794808522e-06 -3.432142918819356e-07 5.063566847952579e-06 -3.432142918819356e-07 -1.7295374778146018e-06 1.6026825937964437e-06 5.063566847952579e-06 1.6026825937964437e-06 -6.726672550396163e-06" pbc="T T T"
Cs       1.76925392       4.06007099       2.87483808        0      -0.00012546      -0.00018727      -0.00003537
Pb      -0.00002677       0.00379924      -0.00136987        1      -0.00022461       0.00029271       0.00000085
I       -0.79402134       0.59028136       3.10556178        2      -0.00001110      -0.00017974       0.00003040
I        3.01072006       0.76901169       0.76498659        3      -0.00044373       0.00041700       0.00011342
I       -0.67587305       3.13286390      -0.42390966        4       0.00068677      -0.00046896      -0.00010354
Cs       0.50364544      10.23146426       1.75426187        5      -0.00005336      -0.00022867      -0.00000832
Pb      -1.26560358       6.17538701      -1.12201706        6      -0.00001174      -0.00011766       0.00014135
I       -2.05953462       6.76184173       1.98498370        7      -0.00008197      -0.00019643      -0.00001580
I        1.74502813       6.94042549      -0.35563926        8      -0.00022429       0.00047538       0.00014272
I       -1.94143316       9.30421185      -1.54437114        9       0.00055264       0.00021132      -0.00025431
Cs       7.85782400       5.53936196       4.15088089       10      -0.00005837      -0.00021821      -0.00001425
Pb       6.08851619       1.48315810       1.27459037       11       0.00004175       0.00000518       0.00022041
I        5.29457901       2.06956438       4.38167301       12      -0.00000632      -0.00016877      -0.00009670
I        9.09931960       2.24831307       2.04105299       13      -0.00049722       0.00040628       0.00009796
I        5.41271317       4.61213207       0.85216037       14       0.00067560      -0.00038520      -0.00010797
Cs       6.59224029      11.71074964       3.03032975       15      -0.00011398      -0.00019308      -0.00002362
Pb       4.82306751       7.65464531       0.15416429       16      -0.00045040       0.00010988      -0.00012357
I        4.02904445       8.24114679       3.26099645       17      -0.00007449      -0.00020450       0.00012350
I        7.83360571       8.41971404       0.92041083       18      -0.00015433       0.00048802       0.00016585
I        4.14716265      10.78353319      -0.26831411       19       0.00057460       0.00014272      -0.00025301
