10
Lattice="8.368598135972727 0.0 0.0 -4.184299067986362 7.2474185798154815 0.0 0.0 0.0 7.945912994650824" Properties=species:S:1:pos:R:3 pbc="T T T"
Cs       5.85162585       2.42362163       7.93838849
Cs       1.66732678       4.83942782       0.00741169
K        1.66733190       0.00780817       3.97295906
In       1.66734424       0.00781326       0.00003168
I        7.84147221       0.01282927       1.58944972
I       -0.32252970       7.25017329       6.35648719
I        2.76893239       1.90575759       1.58946104
I        4.75005898       5.35731862       6.35649851
I        6.94448706       5.35227540       1.58944516
I        0.57446517       1.91078893       6.35648264
