10
Lattice="9.298721392109913 -5.9230058440749624e-08 5.982402179315712e-08 -4.649360747349693 8.052929018522688 -1.1243289656298511e-07 5.6792613367733475e-08 -9.050536995089895e-08 8.828949564542361" Properties=species:S:1:pos:R:3:spacegroup_kinds:I:1:forces:R:3 spacegroup="P 1" unit_cell=conventional occupancy="_JSON {\"0\": {\"Cs\": 1.0}, \"1\": {\"Cs\": 1.0}, \"2\": {\"K\": 1.0}, \"3\": {\"In\": 1.0}, \"4\": {\"I\": 1.0}, \"5\": {\"I\": 1.0}, \"6\": {\"I\": 1.0}, \"7\": {\"I\": 1.0}, \"8\": {\"I\": 1.0}, \"9\": {\"I\": 1.0}}" energy=-25.793817538432357 free_energy=-25.793817538432357 stress="-7.093058834954339e-07 -4.75501560782124e-09 3.3041233177968366e-09 -4.75501560782124e-09 -7.040724177098694e-07 -5.515954369002054e-09 3.3041233177968366e-09 -5.515954369002054e-09 2.8586688376853273e-06" pbc="T T T"
Cs       6.50200742       2.69298838       8.81538167        0      -0.00000196       0.00001459      -0.00004693
Cs       1.85264660       5.37729813       0.01355324        1      -0.00000210       0.00001449       0.00005712
K        1.85264371       0.00868956       4.41447159        2       0.00001180      -0.00002742       0.00002106
In       1.85263523       0.00870506       0.00001053        3       0.00005633      -0.00014720      -0.00004603
I        8.71320628       0.01745830       1.76649725        4       0.00000371      -0.00005728      -0.00019119
I        4.29082563      -0.00007419       7.06245985        5      -0.00008356       0.00002967       0.00020843
I        3.07931123       2.11580399       1.76649152        6      -0.00002266       0.00003773      -0.00017044
I        5.27531803       5.95446421       7.06245411        7       0.00009622       0.00006981       0.00022922
I       -1.58520989       5.94570210       1.76649946        8      -0.00001379       0.00009351      -0.00023131
I        0.64116344       2.12457525       7.06246125        9      -0.00004399      -0.00002792       0.00017007
