20
Lattice="18.362005604062944 -0.04144792159120435 0.002314749890347241 4.588943346072053 7.9967880126226545 -0.022287841041591747 4.573069610058336 2.6222398999310284 6.93273556423619" Properties=species:S:1:pos:R:3:spacegroup_kinds:I:1:forces:R:3 spacegroup="P 1" unit_cell=conventional occupancy="_JSON {\"0\": {\"Cs\": 1.0}, \"1\": {\"Cs\": 1.0}, \"2\": {\"K\": 1.0}, \"3\": {\"In\": 1.0}, \"4\": {\"I\": 1.0}, \"5\": {\"I\": 1.0}, \"6\": {\"I\": 1.0}, \"7\": {\"I\": 1.0}, \"8\": {\"I\": 1.0}, \"9\": {\"I\": 1.0}, \"10\": {\"Cs\": 1.0}, \"11\": {\"Cs\": 1.0}, \"12\": {\"K\": 1.0}, \"13\": {\"In\": 1.0}, \"14\": {\"I\": 1.0}, \"15\": {\"I\": 1.0}, \"16\": {\"I\": 1.0}, \"17\": {\"I\": 1.0}, \"18\": {\"I\": 1.0}, \"19\": {\"I\": 1.0}}" energy=-51.29788885351553 free_energy=-51.29788885351553 stress="7.003714041258964e-07 1.1594721218837477e-06 -7.501795523761185e-06 1.1594721218837477e-06 -7.109178058708825e-06 -1.419932298526548e-07 -7.501795523761185e-06 -1.419932298526548e-07 -1.987738637936153e-06" pbc="T T T"
Cs       4.59936007       2.63639648       1.91717687        0      -0.00031109      -0.00037420      -0.00002095
Cs      13.74453421       7.96269346       4.99545541        1      -0.00026635      -0.00021580      -0.00037339
K        9.17073590       5.29923224       3.45601562        2       0.00058388      -0.00019908      -0.00014841
In      18.36176189      -0.04149747       0.00240461        3       0.00018252       0.00033885      -0.00044959
I        6.95792836       3.20266196       5.24846055        4       0.00047869      -0.00013616      -0.00005123
I       11.38462442       7.39543434       1.66284847        5       0.00003015       0.00022212      -0.00001483
I        9.87367903       2.28596116       1.74288752        6      -0.00025314       0.00002596      -0.00046225
I        8.46975960       8.31202690       5.16883750        7      -0.00030811      -0.00016297       0.00004062
I        6.24576579       6.19309940       1.67529095        8      -0.00000331       0.00007073       0.00055281
I       12.09728045       4.40491645       5.23532498        9       0.00030209       0.00012003       0.00035174
Cs      13.78040145       2.61565231       1.91831983       10      -0.00037609      -0.00031159      -0.00004401
Cs      22.92549497       7.94205210       4.99662222       11      -0.00017333      -0.00039481      -0.00035173
K       18.35170385       5.27855284       3.45717498       12       0.00079171      -0.00031891      -0.00020315
In       9.18073446      -0.02059289       0.00106895       13       0.00037431      -0.00005936       0.00017255
I       16.13914006       3.18181171       5.24951914       14      -0.00018505       0.00006168       0.00029721
I       20.56558596       7.37484464       1.66398962       15      -0.00006791      -0.00005256       0.00017692
I       19.05472308       2.26516697       1.74386120       16      -0.00025260       0.00047197       0.00012224
I       17.65077849       8.29121376       5.17008208       17      -0.00028768       0.00011383      -0.00004546
I       15.42669360       6.17231774       1.67646923       18      -0.00005965       0.00044403       0.00034305
I       21.27848907       4.38410166       5.23652365       19      -0.00019905       0.00035625       0.00010785
