80
Lattice="17.074661376802784 2.294472138919935 -0.5774670341509474 -10.527030931264353 13.647584520162976 0.24319337341167782 0.5738085536732549 0.13104945000461807 17.490528900654763" Properties=species:S:1:pos:R:3:spacegroup_kinds:I:1:forces:R:3 spacegroup="P 1" unit_cell=conventional occupancy="_JSON {\"0\": {\"Cs\": 1.0}, \"1\": {\"Cs\": 1.0}, \"2\": {\"K\": 1.0}, \"3\": {\"In\": 1.0}, \"4\": {\"I\": 1.0}, \"5\": {\"I\": 1.0}, \"6\": {\"I\": 1.0}, \"7\": {\"I\": 1.0}, \"8\": {\"I\": 1.0}, \"9\": {\"I\": 1.0}, \"10\": {\"Cs\": 1.0}, \"11\": {\"Cs\": 1.0}, \"12\": {\"K\": 1.0}, \"13\": {\"In\": 1.0}, \"14\": {\"I\": 1.0}, \"15\": {\"I\": 1.0}, \"16\": {\"I\": 1.0}, \"17\": {\"I\": 1.0}, \"18\": {\"I\": 1.0}, \"19\": {\"I\": 1.0}, \"20\": {\"Cs\": 1.0}, \"21\": {\"Cs\": 1.0}, \"22\": {\"K\": 1.0}, \"23\": {\"In\": 1.0}, \"24\": {\"I\": 1.0}, \"25\": {\"I\": 1.0}, \"26\": {\"I\": 1.0}, \"27\": {\"I\": 1.0}, \"28\": {\"I\": 1.0}, \"29\": {\"I\": 1.0}, \"30\": {\"Cs\": 1.0}, \"31\": {\"Cs\": 1.0}, \"32\": {\"K\": 1.0}, \"33\": {\"In\": 1.0}, \"34\": {\"I\": 1.0}, \"35\": {\"I\": 1.0}, \"36\": {\"I\": 1.0}, \"37\": {\"I\": 1.0}, \"38\": {\"I\": 1.0}, \"39\": {\"I\": 1.0}, \"40\": {\"Cs\": 1.0}, \"41\": {\"Cs\": 1.0}, \"42\": {\"K\": 1.0}, \"43\": {\"In\": 1.0}, \"44\": {\"I\": 1.0}, \"45\": {\"I\": 1.0}, \"46\": {\"I\": 1.0}, \"47\": {\"I\": 1.0}, \"48\": {\"I\": 1.0}, \"49\": {\"I\": 1.0}, \"50\": {\"Cs\": 1.0}, \"51\": {\"Cs\": 1.0}, \"52\": {\"K\": 1.0}, \"53\": {\"In\": 1.0}, \"54\": {\"I\": 1.0}, \"55\": {\"I\": 1.0}, \"56\": {\"I\": 1.0}, \"57\": {\"I\": 1.0}, \"58\": {\"I\": 1.0}, \"59\": {\"I\": 1.0}, \"60\": {\"Cs\": 1.0}, \"61\": {\"Cs\": 1.0}, \"62\": {\"K\": 1.0}, \"63\": {\"In\": 1.0}, \"64\": {\"I\": 1.0}, \"65\": {\"I\": 1.0}, \"66\": {\"I\": 1.0}, \"67\": {\"I\": 1.0}, \"68\": {\"I\": 1.0}, \"69\": {\"I\": 1.0}, \"70\": {\"Cs\": 1.0}, \"71\": {\"Cs\": 1.0}, \"72\": {\"K\": 1.0}, \"73\": {\"In\": 1.0}, \"74\": {\"I\": 1.0}, \"75\": {\"I\": 1.0}, \"76\": {\"I\": 1.0}, \"77\": {\"I\": 1.0}, \"78\": {\"I\": 1.0}, \"79\": {\"I\": 1.0}}" energy=-206.20625261592386 free_energy=-206.20625261592386 stress="4.358582129139768e-08 2.0543684083273662e-08 -4.7346721290818085e-07 2.0543684083273662e-08 -1.6790292352152796e-07 7.035360517490062e-08 -4.7346721290818085e-07 7.035360517490062e-08 -3.817959319806572e-08" pbc="T T T"
Cs       3.47889619       2.99023957       1.09830131        0       0.00005167       0.00008153      -0.00001660
Cs      -0.91535923       4.92964636       7.51345752        1      -0.00009274      -0.00009473       0.00002074
K       16.71957724       2.26890975       3.81197011        2      -0.00011559      -0.00003945       0.00011565
In      16.57605491       2.23620185      -0.56062014        3       0.00001170      -0.00023561      -0.00040870
I       16.01313106       4.59632884       1.18526302        4       0.00001330       0.00026382       0.00008448
I        3.62509042       5.61803686       6.84893319        5      -0.00004490      -0.00010688       0.00012436
I        1.45265155       1.70446985       6.94951892        6      -0.00009794       0.00008982       0.00019392
I        1.11095643       6.21537356       1.66209066        7      -0.00016094      -0.00003739       0.00000175
I       -3.36341274       6.14166110       1.80937800        8       0.00022388       0.00005182       0.00022542
I        5.92679813       1.77826410       6.80231571        9       0.00005004      -0.00007310      -0.00017106
Cs       3.76579550       3.05570407       9.84357224       10       0.00004088       0.00010291      -0.00000371
Cs      -0.62853089       4.99504138      16.25875680       11       0.00002286       0.00006393      -0.00005703
K       17.00644040       2.33446404      12.55729118       12       0.00001207      -0.00007671      -0.00006899
In      16.86295149       2.30176288       8.18463937       13      -0.00002876      -0.00020791      -0.00033287
I       16.30005981       4.66192992       9.93060944       14       0.00009094       0.00008460      -0.00014729
I        3.91199115       5.68349254      15.59423048       15      -0.00009861      -0.00004680      -0.00003119
I        1.73953410       1.77004769      15.69480927       16      -0.00000349       0.00002144       0.00015199
I        1.39785074       6.28093289      10.40728921       17      -0.00008708      -0.00001935       0.00011800
I       -3.07637483       6.20738422      10.55485426       18      -0.00011481      -0.00015100      -0.00020364
I        6.21378081       1.84373326      15.54750134       19      -0.00011993      -0.00001775      -0.00006986
Cs      -1.78459588       9.81413702       1.21990282       20       0.00005166      -0.00004508      -0.00001432
Cs      -6.17889535      11.75340792       7.63504998       21      -0.00004651      -0.00006243      -0.00003283
K       11.45600685       9.09270755       3.93348314       22      -0.00003417      -0.00004295       0.00012024
In      11.31250517       9.05994645      -0.43909741       23       0.00007815      -0.00001038      -0.00007896
I       10.74957707      11.42009120       1.30679124       24       0.00003340       0.00020738       0.00018828
I       -1.63847065      12.44173442       6.97052493       25      -0.00008250       0.00016323       0.00020201
I       -3.81091765       8.52829280       7.07119864       26       0.00005430       0.00002110      -0.00000388
I       -4.15262231      13.03906465       1.78370493       27      -0.00001617       0.00016475       0.00000525
I       -8.62689631      12.96551895       1.93109562       28       0.00021064      -0.00004750       0.00003074
I        0.66315697       8.60187106       6.92385460       29       0.00031705       0.00012606       0.00004063
Cs      -1.49767135       9.87956296       9.96519183       30       0.00003106       0.00009231      -0.00001077
Cs      -5.89200264      11.81888077      16.38028597       31      -0.00002265      -0.00002261      -0.00002439
K       11.74288170       9.15815376      12.67873550       32       0.00006377       0.00004199       0.00020550
In      11.59941842       9.12547031       8.30617443       33       0.00010290      -0.00014740       0.00011576
I       11.03654401      11.48562996      10.05212821       34      -0.00004573       0.00014730       0.00003152
I       -1.35151469      12.50731295      15.71589817       35      -0.00004547       0.00004630      -0.00009187
I       -3.52393467       8.59396034      15.81641389       36      -0.00015677      -0.00024859       0.00013232
I       -3.86576854      13.10463036      10.52895425       37       0.00018940       0.00013374      -0.00001833
I       -8.33992926      13.03096039      10.67632989       38      -0.00002752       0.00011208       0.00004273
I        0.95024981       8.66756050      15.66908510       39      -0.00009269      -0.00007132      -0.00005391
Cs      12.01630623       4.13752880       0.80956918       40      -0.00004774      -0.00000323       0.00001912
Cs       7.62194910       6.07675865       7.22463260       41      -0.00001040       0.00004458       0.00011032
K        8.18223543       1.12166819       4.10073724       42      -0.00009951       0.00001844      -0.00008269
In       8.03868213       1.08889713      -0.27195579       43       0.00013398       0.00013459      -0.00002782
I        7.47585079       3.44918281       1.47391041       44      -0.00011701      -0.00013508       0.00013966
I       12.16236514       6.76522557       6.56027401       45      -0.00004158       0.00010929       0.00009649
I        9.98995424       2.85172063       6.66086617       46      -0.00001214       0.00002965      -0.00001117
I        9.64820984       7.36248888       1.37342899       47       0.00002300       0.00019080      -0.00017035
I        5.17386481       7.28893403       1.52066537       48       0.00025368      -0.00000088       0.00013690
I       14.46404510       2.92539662       6.51349792       49       0.00034457       0.00000096       0.00006913
Cs      12.30323458       4.20306696       9.55487913       50      -0.00004658       0.00000523      -0.00005257
Cs       7.90880086       6.14219089      15.96992298       51       0.00003900       0.00016481       0.00004337
K        8.46913598       1.18722066      12.84603302       52      -0.00000672      -0.00003342      -0.00012809
In       8.32558765       1.15442376       8.47329952       53       0.00013206      -0.00005575       0.00015444
I        7.76277715       3.51466262      10.21927036       54      -0.00012857      -0.00001560      -0.00003178
I       12.44927389       6.83077718      15.30566199       55      -0.00003711      -0.00005314      -0.00027770
I       10.27690355       2.91739032      15.40614469       56      -0.00012150      -0.00018533       0.00001498
I        9.93509030       7.42807601      10.11865997       57       0.00011548       0.00009345      -0.00015210
I        5.46082439       7.35450379      10.26608722       58       0.00014387      -0.00005442      -0.00011348
I       14.75106691       2.99093556      15.25875745       59       0.00003875       0.00001966       0.00000273
Cs       6.75281705      10.96141557       0.93116383       60      -0.00009870      -0.00007664      -0.00001884
Cs       2.35841970      12.90048331       7.34626050       61      -0.00001162       0.00011592       0.00009600
K        2.91868455       7.94544618       4.22244062       62      -0.00007353       0.00003138      -0.00032144
In       2.77517672       7.91269162      -0.15043216       63       0.00005348       0.00013561       0.00025770
I        2.21230325      10.27296586       1.59557736       64      -0.00000844      -0.00013092      -0.00001188
I        6.89887917      13.58904510       6.68185616       65      -0.00009127       0.00008696       0.00009091
I        4.72645927       9.67544934       6.78249304       66       0.00003046       0.00021645      -0.00006886
I        4.38473066      14.18646130       1.49496471       67      -0.00011832      -0.00012157       0.00004906
I       -0.08963443      14.11279084       1.64228898       68       0.00029012      -0.00009074       0.00014907
I        9.20065921       9.74936444       6.63513168       69       0.00000335      -0.00016796      -0.00010964
Cs       7.03969855      11.02680315       9.67643114       70      -0.00005158       0.00008508       0.00002631
Cs       2.64537131      12.96610025      16.09155614       71      -0.00002552       0.00001352       0.00002439
K        3.20559012       8.01092238      12.96762599       72      -0.00002925       0.00006701      -0.00013484
In       3.06211699       7.97826414       8.59488220       73      -0.00011935       0.00009457       0.00030374
I        2.49929844      10.33861376      10.34094803       74      -0.00004949      -0.00038948      -0.00029419
I        7.18581817      13.65455404      15.42710910       75      -0.00007951       0.00011212       0.00011201
I        5.01334527       9.74106970      15.52774666       76       0.00007927       0.00006306      -0.00006884
I        4.67167482      14.25203953      10.24021090       77      -0.00016037      -0.00015636       0.00007377
I        0.19737291      14.17844378      10.38763624       78       0.00000616      -0.00021414      -0.00009441
I        9.48767601       9.81490857      15.38036650       79      -0.00021613      -0.00015964      -0.00011047
