40
Lattice="23.00133797823377 0.5743211044633049 6.733206628008857 2.348201121952785 21.02766009982532 2.9059687940505365 5.969313176641276 5.8769406593406295 6.62269490856775" Properties=species:S:1:pos:R:3:spacegroup_kinds:I:1:forces:R:3 spacegroup="P 1" unit_cell=conventional occupancy="_JSON {\"0\": {\"Cs\": 1.0}, \"1\": {\"Cs\": 1.0}, \"2\": {\"K\": 1.0}, \"3\": {\"In\": 1.0}, \"4\": {\"I\": 1.0}, \"5\": {\"I\": 1.0}, \"6\": {\"I\": 1.0}, \"7\": {\"I\": 1.0}, \"8\": {\"I\": 1.0}, \"9\": {\"I\": 1.0}, \"10\": {\"Cs\": 1.0}, \"11\": {\"Cs\": 1.0}, \"12\": {\"K\": 1.0}, \"13\": {\"In\": 1.0}, \"14\": {\"I\": 1.0}, \"15\": {\"I\": 1.0}, \"16\": {\"I\": 1.0}, \"17\": {\"I\": 1.0}, \"18\": {\"I\": 1.0}, \"19\": {\"I\": 1.0}, \"20\": {\"Cs\": 1.0}, \"21\": {\"Cs\": 1.0}, \"22\": {\"K\": 1.0}, \"23\": {\"In\": 1.0}, \"24\": {\"I\": 1.0}, \"25\": {\"I\": 1.0}, \"26\": {\"I\": 1.0}, \"27\": {\"I\": 1.0}, \"28\": {\"I\": 1.0}, \"29\": {\"I\": 1.0}, \"30\": {\"Cs\": 1.0}, \"31\": {\"Cs\": 1.0}, \"32\": {\"K\": 1.0}, \"33\": {\"In\": 1.0}, \"34\": {\"I\": 1.0}, \"35\": {\"I\": 1.0}, \"36\": {\"I\": 1.0}, \"37\": {\"I\": 1.0}, \"38\": {\"I\": 1.0}, \"39\": {\"I\": 1.0}}" energy=-102.88028576581951 free_energy=-102.88028576581951 stress="1.3533565555545965e-07 -9.691041727284369e-08 1.6710483342790458e-09 -9.691041727284369e-08 -9.71509462002364e-08 1.3009532883253833e-07 1.6710483342790458e-09 1.3009532883253833e-07 3.0379218068996023e-07" pbc="T T T"
Cs       3.19375923       5.92293915       2.35138084        0       0.00038680      -0.00020121       0.00005117
Cs      15.45101433      10.75410379       9.09252804        1      -0.00018133      -0.00003335       0.00013209
K        9.32333627       8.34012479       5.72031621        2      -0.00014933      -0.00051936       0.00017311
In      23.00265639       0.57579473       6.73344264        3      -0.00009992      -0.00032469      -0.00014531
I       18.28365876       8.70627342      11.51552265        4       0.00032542       0.00044244      -0.00027517
I        0.35784817       7.96905548      -0.07216901        5      -0.00005004      -0.00005255      -0.00002703
I       14.64622797       7.04128560       9.98435045        6      -0.00031245       0.00008181      -0.00025136
I        3.99560346       9.63460723       1.45857763        7       0.00004179       0.00057606      -0.00042478
I       12.38790233      13.17251232      10.69023690        8       0.00028551       0.00008135      -0.00031125
I        6.25864501       3.50695202       0.75087276        9      -0.00028198      -0.00005903      -0.00001349
Cs       4.36805920      16.43754742       3.80200295       10      -0.00022084       0.00011041       0.00012994
Cs      16.62397182      21.26910743      10.54312208       11      -0.00007249      -0.00007937       0.00035436
K       10.49458864      18.85178918       7.17448936       12       0.00033555      -0.00005567       0.00019082
In      24.17378892      11.08653217       8.18672040       13       0.00050948       0.00036676      -0.00024665
I       19.46019903      19.22288435      12.96729234       14      -0.00016816      -0.00023643       0.00005501
I        1.53500248      18.48479968       1.38083165       15      -0.00048060      -0.00005178      -0.00019914
I       15.82261276      17.55678277      11.43645695       16      -0.00047729       0.00056396       0.00022255
I        5.17222437      20.15048563       2.91126870       17      -0.00022634       0.00043640       0.00030185
I       13.55964593      23.68469931      12.14433948       18      -0.00008071       0.00012311      -0.00022344
I        7.43024663      14.01871097       2.20499731       19      -0.00015194      -0.00028528       0.00004505
Cs      14.69452137       6.21167958       5.71598383       20      -0.00031897      -0.00036809      -0.00002650
Cs      26.95017910      11.04265949      12.45711807       21       0.00026911      -0.00006472       0.00011656
K       20.82167364       8.62447643       9.08890527       22       0.00010528       0.00060812      -0.00037058
In      11.49950446       0.28566827       3.36658526       23      -0.00002136       0.00008385       0.00015711
I       29.78709446       8.99647325      14.88095705       24      -0.00020147      -0.00042889       0.00014215
I       11.86091728       8.25879211       3.29290066       25       0.00011793      -0.00034241       0.00031901
I       26.14898710       7.33078015      13.35051799       26       0.00010321      -0.00056312       0.00027643
I       15.49891175       9.92426664       4.82416554       27       0.00031080      -0.00021277       0.00005184
I       23.88677983      13.45809312      14.05724985       28       0.00011274       0.00014976       0.00030882
I       17.75689287       3.79179573       4.11904992       29      -0.00041494       0.00004925       0.00015248
Cs      15.86906496      16.72319305       7.17115545       30       0.00014142       0.00048009      -0.00011439
Cs      28.12503581      21.55440089      13.91392105       31      -0.00003860       0.00019390      -0.00055983
K       21.99805452      19.14149090      10.54010177       32      -0.00026937      -0.00007912      -0.00003761
In      12.67625157      10.80263014       4.81887641       33      -0.00036869      -0.00017168       0.00017804
I       30.95835087      19.50757411      16.33492940       34       0.00004926       0.00019499       0.00011228
I       13.03223879      18.76979492       4.74735176       35       0.00048695       0.00049856      -0.00016629
I       27.32015824      17.84174283      14.80460488       36       0.00064230      -0.00008911      -0.00018978
I       16.67067734      20.43571956       6.27745237       37      -0.00019982      -0.00072993       0.00008998
I       25.06309562      23.97448872      15.50924025       38      -0.00028969      -0.00035391       0.00020951
I       18.93216037      14.30848860       5.57158450       39       0.00085280       0.00026166      -0.00018757
