80
Lattice="14.578181152639889 0.046240990255004354 -4.815548409700146 2.7591322044176536 21.565583747122716 1.3049607311549294 -1.4281797494483213 9.807375678474815 16.541653021990705" Properties=species:S:1:pos:R:3:spacegroup_kinds:I:1:forces:R:3 spacegroup="P 1" unit_cell=conventional occupancy="_JSON {\"0\": {\"Cs\": 1.0}, \"1\": {\"Cs\": 1.0}, \"2\": {\"K\": 1.0}, \"3\": {\"In\": 1.0}, \"4\": {\"I\": 1.0}, \"5\": {\"I\": 1.0}, \"6\": {\"I\": 1.0}, \"7\": {\"I\": 1.0}, \"8\": {\"I\": 1.0}, \"9\": {\"I\": 1.0}, \"10\": {\"Cs\": 1.0}, \"11\": {\"Cs\": 1.0}, \"12\": {\"K\": 1.0}, \"13\": {\"In\": 1.0}, \"14\": {\"I\": 1.0}, \"15\": {\"I\": 1.0}, \"16\": {\"I\": 1.0}, \"17\": {\"I\": 1.0}, \"18\": {\"I\": 1.0}, \"19\": {\"I\": 1.0}, \"20\": {\"Cs\": 1.0}, \"21\": {\"Cs\": 1.0}, \"22\": {\"K\": 1.0}, \"23\": {\"In\": 1.0}, \"24\": {\"I\": 1.0}, \"25\": {\"I\": 1.0}, \"26\": {\"I\": 1.0}, \"27\": {\"I\": 1.0}, \"28\": {\"I\": 1.0}, \"29\": {\"I\": 1.0}, \"30\": {\"Cs\": 1.0}, \"31\": {\"Cs\": 1.0}, \"32\": {\"K\": 1.0}, \"33\": {\"In\": 1.0}, \"34\": {\"I\": 1.0}, \"35\": {\"I\": 1.0}, \"36\": {\"I\": 1.0}, \"37\": {\"I\": 1.0}, \"38\": {\"I\": 1.0}, \"39\": {\"I\": 1.0}, \"40\": {\"Cs\": 1.0}, \"41\": {\"Cs\": 1.0}, \"42\": {\"K\": 1.0}, \"43\": {\"In\": 1.0}, \"44\": {\"I\": 1.0}, \"45\": {\"I\": 1.0}, \"46\": {\"I\": 1.0}, \"47\": {\"I\": 1.0}, \"48\": {\"I\": 1.0}, \"49\": {\"I\": 1.0}, \"50\": {\"Cs\": 1.0}, \"51\": {\"Cs\": 1.0}, \"52\": {\"K\": 1.0}, \"53\": {\"In\": 1.0}, \"54\": {\"I\": 1.0}, \"55\": {\"I\": 1.0}, \"56\": {\"I\": 1.0}, \"57\": {\"I\": 1.0}, \"58\": {\"I\": 1.0}, \"59\": {\"I\": 1.0}, \"60\": {\"Cs\": 1.0}, \"61\": {\"Cs\": 1.0}, \"62\": {\"K\": 1.0}, \"63\": {\"In\": 1.0}, \"64\": {\"I\": 1.0}, \"65\": {\"I\": 1.0}, \"66\": {\"I\": 1.0}, \"67\": {\"I\": 1.0}, \"68\": {\"I\": 1.0}, \"69\": {\"I\": 1.0}, \"70\": {\"Cs\": 1.0}, \"71\": {\"Cs\": 1.0}, \"72\": {\"K\": 1.0}, \"73\": {\"In\": 1.0}, \"74\": {\"I\": 1.0}, \"75\": {\"I\": 1.0}, \"76\": {\"I\": 1.0}, \"77\": {\"I\": 1.0}, \"78\": {\"I\": 1.0}, \"79\": {\"I\": 1.0}}" energy=-194.081114924441 free_energy=-194.081114924441 stress="-2.6845901935176934e-06 1.5204059658054118e-07 1.3585066263985803e-06 1.5204059658054118e-07 2.846853527010058e-06 -2.303208194837781e-07 1.3585066263985803e-06 -2.303208194837781e-07 1.259758194743585e-07" pbc="T T T"
Cs       2.40777682       3.89890777      -0.55353060        0      -0.00000114      -0.00014909      -0.00003380
Cs       5.42171433      12.10702040       6.96947711        1       0.00022344      -0.00003021      -0.00004951
K        4.41710233       8.40887732       3.12663616        2       0.00004288      -0.00026436      -0.00021627
In      -0.09067809       0.05496173       0.64395598        3       0.00007254      -0.00016245      -0.00023730
I        4.63308404       3.44493983       2.65556080        4      -0.00049489      -0.00042816       0.00023806
I        3.92797868      11.98557827       3.16080934        5       0.00008568       0.00012722       0.00013365
I        6.55668110       5.60422511       2.60740683        6       0.00049121       0.00064992       0.00028471
I       15.16212811       9.21133693      -0.80808078        7       0.00022606      -0.00018792      -0.00007751
I        2.62070101       7.77243780       0.25072061        8       0.00030367      -0.00003503       0.00005660
I        5.31320230       8.25299486       6.45035353        9      -0.00011133      -0.00017698       0.00000739
Cs       1.69407878       8.80305135       7.71692937       10      -0.00002491      -0.00014477       0.00026331
Cs       4.70740034      17.01021843      15.24038640       11       0.00007133       0.00001362       0.00004875
K        3.70429779      13.31217602      11.39692253       12      -0.00045109       0.00030264      -0.00025343
In      -0.80548051       4.95885254       8.91396372       13       0.00019476      -0.00039566       0.00002974
I        3.91884570       8.34894658      10.92735139       14      -0.00000877      -0.00022572      -0.00011621
I        3.21326032      16.88936256      11.43211292       15      -0.00001517      -0.00011594      -0.00004622
I        5.84404128      10.50748087      10.88128769       16      -0.00025402       0.00000966      -0.00025151
I       14.44843792      14.11464937       7.46283920       17       0.00010040      -0.00030631       0.00015027
I        1.90699804      12.67634085       8.52157072       18       0.00013235      -0.00012041      -0.00001134
I        4.59877101      13.15584559      14.72092125       19      -0.00020322       0.00029785       0.00017278
Cs       3.78811288      14.68119819       0.09858994       20      -0.00020883       0.00004213      -0.00002012
Cs       6.80327461      22.88856725       7.62274415       21      -0.00040317       0.00017122      -0.00035302
K        5.79553901      19.19038876       3.77907418       22      -0.00010928       0.00039481       0.00004554
In       1.28794766      10.83783758       1.29659827       23       0.00005016      -0.00010798       0.00007094
I        6.01233085      14.22875158       3.30864882       24      -0.00000171      -0.00016837      -0.00030562
I        5.30794505      22.76762383       3.81395878       25       0.00011923       0.00010477      -0.00016722
I        7.93616852      16.38801803       3.26006602       26       0.00056077      -0.00017472       0.00034363
I       16.54422119      19.99269574      -0.15590540       27      -0.00001719       0.00001072       0.00006861
I        4.00175226      18.55520786       0.90156090       28      -0.00037142       0.00029238       0.00031558
I        6.69278324      19.03526163       7.10262542       29       0.00003626      -0.00010237       0.00010907
Cs       3.07390811      19.58510600       8.36946645       30      -0.00021770       0.00005319       0.00014405
Cs       6.08863019      27.79350219      15.89251731       31      -0.00028504      -0.00024231      -0.00034739
K        5.08183343      24.09451522      12.04963033       32       0.00012808       0.00017631       0.00005693
In       0.57338261      15.74142646       9.56750726       33       0.00030412      -0.00007399      -0.00004110
I        5.29770797      19.13182812      11.57985452       34       0.00038170       0.00014641       0.00003665
I        4.59348943      27.67244896      12.08338257       35       0.00027310      -0.00003030       0.00007689
I        7.22249582      21.29054027      11.53235164       36      -0.00019170       0.00001346       0.00019508
I       15.82971008      24.89653647       8.11484611       37       0.00010449      -0.00003502       0.00006836
I        3.28773422      23.45908591       9.17257613       38      -0.00020656       0.00003843       0.00011027
I        5.97877042      23.93957769      15.37305791       39       0.00010939      -0.00034630       0.00023309
Cs       9.69686801       3.92161510      -2.96097948       40       0.00029710       0.00013139      -0.00004156
Cs      12.71062892      12.13013165       4.56121828       41       0.00028287       0.00007566       0.00030146
K       11.70786423       8.43248695       0.71834191       42      -0.00032385      -0.00024926      -0.00019591
In       7.19845798       0.07756056      -1.76474048       43      -0.00021455      -0.00026061       0.00025722
I       11.92267984       3.46795962       0.24893124       44      -0.00008314       0.00037202      -0.00003723
I       11.21734808      12.00912750       0.75347309       45      -0.00003749      -0.00000526      -0.00000190
I       -0.73096078       5.58080850       5.01873482       46      -0.00041775      -0.00018854      -0.00054207
I        7.87451371       9.18691529       1.60010734       47      -0.00032297       0.00002395       0.00001620
I        9.91001187       7.79535052      -2.15662921       48       0.00007481      -0.00004074      -0.00013096
I       12.60204952       8.27586011       4.04254993       49       0.00023056       0.00016814      -0.00002017
Cs       8.98319032       8.82521590       5.30971839       50      -0.00002833       0.00005272       0.00031465
Cs      11.99601514      17.03414816      12.83182510       51       0.00051072      -0.00004608       0.00037119
K       10.99257263      13.33560974       8.98963633       52      -0.00010046      -0.00023134      -0.00022522
In       6.48405596       4.98083436       6.50715535       53       0.00020680       0.00015466       0.00010839
I       11.20854201       8.37222641       8.51954882       54      -0.00051917      -0.00039984      -0.00024702
I       10.50371771      16.91229885       9.02386967       55      -0.00029163      -0.00002647      -0.00025833
I       -1.44554740      10.48508569      13.28753913       56      -0.00002212       0.00025766      -0.00000093
I        7.15959396      14.09189107       9.87051357       57       0.00021538      -0.00012071       0.00006850
I        9.19609439      12.69943303       6.11364618       58       0.00005349      -0.00024917      -0.00004694
I       11.88795915      13.17970137      12.31365971       59      -0.00008363       0.00002726      -0.00005374
Cs      11.07722005      14.70396404      -2.30840139       60      -0.00008275       0.00034281       0.00003556
Cs      14.09170240      22.91302329       5.21374823       61      -0.00004981      -0.00019989      -0.00010663
K       13.08513647      19.21415830       1.37096721       62       0.00002635      -0.00013929       0.00009424
In       8.57722431      10.86001993      -1.11080255       63       0.00008975       0.00038290      -0.00005434
I       13.30206721      14.25174178       0.90172686       64      -0.00000627       0.00049447      -0.00038392
I       12.59735271      22.79132147       1.40488495       65       0.00011252       0.00016424       0.00002193
I        0.64814094      16.36470539       5.66952829       66      -0.00021928      -0.00047330       0.00003713
I        9.25512979      19.96912585       2.25188814       67       0.00007833       0.00018908      -0.00009759
I       11.29077671      18.57869170      -1.50596549       68       0.00006415      -0.00023313      -0.00015668
I       13.98184807      19.05905629       4.69445039       69       0.00009714      -0.00001273       0.00025641
Cs      10.36270354      19.60764561       5.96165785       70       0.00028582       0.00020492       0.00015479
Cs      13.37813226      27.81619928      13.48484984       71      -0.00044035      -0.00007276      -0.00009029
K       12.37166418      24.11782768       9.64188318       72      -0.00023476       0.00020221      -0.00002162
In       7.86321538      15.76400948       7.15948231       73       0.00019974       0.00005775       0.00026129
I       12.58811592      19.15502956       9.17158128       74      -0.00008487       0.00056338      -0.00005920
I       11.88325518      27.69494383       9.67675576       75       0.00010836       0.00032770      -0.00022797
I       -0.06632119      21.26829121      13.93961645       76       0.00028580      -0.00044353      -0.00007138
I        8.54163710      24.87279727      10.52312628       77      -0.00024479       0.00023636      -0.00018977
I       10.57671655      23.48206327       6.76493314       78      -0.00033443       0.00012954       0.00015486
I       13.26760982      23.96239287      12.96569386       79       0.00048822       0.00001339       0.00007510
