80
Lattice="16.032354015222236 0.0 0.0 2.039777633375513 18.81377487305811 0.0 2.423025372202429 7.497371833911528 13.726998217977957" Properties=species:S:1:pos:R:3 pbc="T T T"
Cs       2.56176398       3.28885405       1.71589157
Cs       7.68581428       9.86671827       5.14760687
K        5.12378901       6.57778608       3.43174913
In       0.00000020       0.00000077       0.00000032
I        4.32510281       3.23192454       3.13486256
I        5.92247524       9.92364699       3.72863572
I        9.51082104       4.40295559       2.13548665
I        0.73675527       8.75261601       4.72801127
I        3.17706148       7.60629235       1.05446300
I        7.07051740       5.54928281       5.80903709
Cs       3.77327667       7.03753997       8.57939068
Cs       8.89732696      13.61540419      12.01110597
K        6.33530169      10.32647200      10.29524824
In       1.21151288       3.74868668       6.86349943
I        5.53661550       6.98061046       9.99836167
I        7.13398792      13.67233291      10.59213482
I       10.72233373       8.15164150       8.99898575
I        1.94826796      12.50130192      11.59151038
I        4.38857417      11.35497827       7.91796211
I        8.28203009       9.29796873      12.67253620
Cs       3.58165280      12.69574149       1.71589157
Cs       8.70570309      19.27360571       5.14760687
K        6.14367782      15.98467352       3.43174913
In       1.01988901       9.40688820       0.00000032
I        5.34499163      12.63881198       3.13486256
I        6.94236405      19.33053443       3.72863572
I       10.53070986      13.80984302       2.13548665
I        1.75664409      18.15950344       4.72801127
I        4.19695030      17.01317979       1.05446300
I        8.09040622      14.95617025       5.80903709
Cs       4.79316549      16.44442741       8.57939068
Cs       9.91721578      23.02229163      12.01110597
K        7.35519051      19.73335943      10.29524824
In       2.23140170      13.15557412       6.86349943
I        6.55650431      16.38749789       9.99836167
I        8.15387674      23.07922035      10.59213482
I       11.74222254      17.55852894       8.99898575
I        2.96815678      21.90818936      11.59151038
I        5.40846299      20.76186571       7.91796211
I        9.30191890      18.70485617      12.67253620
Cs      10.57794099       3.28885405       1.71589157
Cs      15.70199128       9.86671827       5.14760687
K       13.13996601       6.57778608       3.43174913
In       8.01617720       0.00000077       0.00000032
I       12.34127982       3.23192454       3.13486256
I       13.93865225       9.92364699       3.72863572
I       17.52699805       4.40295559       2.13548665
I        8.75293228       8.75261601       4.72801127
I       11.19323849       7.60629235       1.05446300
I       15.08669441       5.54928281       5.80903709
Cs      11.78945368       7.03753997       8.57939068
Cs      16.91350397      13.61540419      12.01110597
K       14.35147870      10.32647200      10.29524824
In       9.22768989       3.74868668       6.86349943
I       13.55279250       6.98061046       9.99836167
I       15.15016493      13.67233291      10.59213482
I       18.73851073       8.15164150       8.99898575
I        9.96444497      12.50130192      11.59151038
I       12.40475118      11.35497827       7.91796211
I       16.29820709       9.29796873      12.67253620
Cs      11.59782981      12.69574149       1.71589157
Cs      16.72188010      19.27360571       5.14760687
K       14.15985483      15.98467352       3.43174913
In       9.03606602       9.40688820       0.00000032
I       13.36116863      12.63881198       3.13486256
I       14.95854106      19.33053443       3.72863572
I       18.54688686      13.80984302       2.13548665
I        9.77282110      18.15950344       4.72801127
I       12.21312731      17.01317979       1.05446300
I       16.10658322      14.95617025       5.80903709
Cs      12.80934249      16.44442741       8.57939068
Cs      17.93339279      23.02229163      12.01110597
K       15.37136752      19.73335943      10.29524824
In      10.24757871      13.15557412       6.86349943
I       14.57268132      16.38749789       9.99836167
I       16.17005375      23.07922035      10.59213482
I       19.75839955      17.55852894       8.99898575
I       10.98433378      21.90818936      11.59151038
I       13.42463999      20.76186571       7.91796211
I       17.31809591      18.70485617      12.67253620
