10
Lattice="12.774135556496594 -9.900513606215147e-10 -4.3848909132507083e-16 -4.950256806897717e-10 6.387067778248373 -3.968126214300521e-16 -2.1962169575729725e-16 -3.9661563867921977e-16 6.387067778017058" Properties=species:S:1:pos:R:3:spacegroup_kinds:I:1:forces:R:3 spacegroup="P 1" unit_cell=conventional occupancy="_JSON {\"0\": {\"Cs\": 1.0}, \"1\": {\"Pb\": 1.0}, \"2\": {\"I\": 1.0}, \"3\": {\"I\": 1.0}, \"4\": {\"I\": 1.0}, \"5\": {\"Cs\": 1.0}, \"6\": {\"Pb\": 1.0}, \"7\": {\"I\": 1.0}, \"8\": {\"I\": 1.0}, \"9\": {\"I\": 1.0}}" energy=-27.961484855908836 free_energy=-27.961484855908836 stress="1.7238594018280897e-07 -5.1407916267988715e-12 -1.001479366845017e-17 -5.1407916267988715e-12 1.7238594119042403e-07 1.39308680570989e-17 -1.001479366845017e-17 1.39308680570989e-17 1.724048989000032e-07" pbc="T T T"
Cs       3.19364519       3.19342259       3.19353389        0       0.00000648      -0.00000648      -0.00000000
Pb       0.00000216      -0.00000216      -0.00000000        1       0.00001117      -0.00001117      -0.00000000
I       -0.00001262       0.00001262       3.19353389        2      -0.00000311       0.00000311       0.00000000
I        3.19354201       0.00001262       0.00000000        3      -0.00001143       0.00000311       0.00000000
I       -0.00001262       3.19352577       0.00000000        4      -0.00000311       0.00001143       0.00000000
Cs       9.58071297       3.19342259       3.19353389        5       0.00000648      -0.00000648      -0.00000000
Pb       6.38706994      -0.00000216      -0.00000000        6       0.00001117      -0.00001117      -0.00000000
I        6.38705515       0.00001262       3.19353389        7      -0.00000311       0.00000311       0.00000000
I        9.58060978       0.00001262       0.00000000        8      -0.00001143       0.00000311       0.00000000
I        6.38705515       3.19352577       0.00000000        9      -0.00000311       0.00001143       0.00000000
