80
Lattice="23.12648394379949 1.1600202866372373 -6.208067940469958 14.418077525758633 15.450451870060947 -3.089819444534838 5.907113290155355 17.07037294427568 11.39499121214836" Properties=species:S:1:pos:R:3:spacegroup_kinds:I:1:forces:R:3 spacegroup="P 1" unit_cell=conventional occupancy="_JSON {\"0\": {\"Cs\": 1.0}, \"1\": {\"Cs\": 1.0}, \"2\": {\"K\": 1.0}, \"3\": {\"In\": 1.0}, \"4\": {\"I\": 1.0}, \"5\": {\"I\": 1.0}, \"6\": {\"I\": 1.0}, \"7\": {\"I\": 1.0}, \"8\": {\"I\": 1.0}, \"9\": {\"I\": 1.0}, \"10\": {\"Cs\": 1.0}, \"11\": {\"Cs\": 1.0}, \"12\": {\"K\": 1.0}, \"13\": {\"In\": 1.0}, \"14\": {\"I\": 1.0}, \"15\": {\"I\": 1.0}, \"16\": {\"I\": 1.0}, \"17\": {\"I\": 1.0}, \"18\": {\"I\": 1.0}, \"19\": {\"I\": 1.0}, \"20\": {\"Cs\": 1.0}, \"21\": {\"Cs\": 1.0}, \"22\": {\"K\": 1.0}, \"23\": {\"In\": 1.0}, \"24\": {\"I\": 1.0}, \"25\": {\"I\": 1.0}, \"26\": {\"I\": 1.0}, \"27\": {\"I\": 1.0}, \"28\": {\"I\": 1.0}, \"29\": {\"I\": 1.0}, \"30\": {\"Cs\": 1.0}, \"31\": {\"Cs\": 1.0}, \"32\": {\"K\": 1.0}, \"33\": {\"In\": 1.0}, \"34\": {\"I\": 1.0}, \"35\": {\"I\": 1.0}, \"36\": {\"I\": 1.0}, \"37\": {\"I\": 1.0}, \"38\": {\"I\": 1.0}, \"39\": {\"I\": 1.0}, \"40\": {\"Cs\": 1.0}, \"41\": {\"Cs\": 1.0}, \"42\": {\"K\": 1.0}, \"43\": {\"In\": 1.0}, \"44\": {\"I\": 1.0}, \"45\": {\"I\": 1.0}, \"46\": {\"I\": 1.0}, \"47\": {\"I\": 1.0}, \"48\": {\"I\": 1.0}, \"49\": {\"I\": 1.0}, \"50\": {\"Cs\": 1.0}, \"51\": {\"Cs\": 1.0}, \"52\": {\"K\": 1.0}, \"53\": {\"In\": 1.0}, \"54\": {\"I\": 1.0}, \"55\": {\"I\": 1.0}, \"56\": {\"I\": 1.0}, \"57\": {\"I\": 1.0}, \"58\": {\"I\": 1.0}, \"59\": {\"I\": 1.0}, \"60\": {\"Cs\": 1.0}, \"61\": {\"Cs\": 1.0}, \"62\": {\"K\": 1.0}, \"63\": {\"In\": 1.0}, \"64\": {\"I\": 1.0}, \"65\": {\"I\": 1.0}, \"66\": {\"I\": 1.0}, \"67\": {\"I\": 1.0}, \"68\": {\"I\": 1.0}, \"69\": {\"I\": 1.0}, \"70\": {\"Cs\": 1.0}, \"71\": {\"Cs\": 1.0}, \"72\": {\"K\": 1.0}, \"73\": {\"In\": 1.0}, \"74\": {\"I\": 1.0}, \"75\": {\"I\": 1.0}, \"76\": {\"I\": 1.0}, \"77\": {\"I\": 1.0}, \"78\": {\"I\": 1.0}, \"79\": {\"I\": 1.0}}" energy=-205.760586140506 free_energy=-205.760586140506 stress="-8.786592499827885e-08 5.328739707500018e-07 8.190282446397026e-07 5.328739707500018e-07 7.308038124661882e-07 -6.204337590278034e-07 8.190282446397026e-07 -6.204337590278034e-07 -9.124650703498534e-07" pbc="T T T"
Cs       4.24454477       5.40675873       1.88987808        0      -0.00020660      -0.00008623      -0.00031628
Cs      17.48110858      11.43346587      -0.84087424        1       0.00027629       0.00029988       0.00009101
K       10.86289633       8.41984352       0.52437288        2       0.00020269       0.00003056      -0.00002181
In      23.12658169       1.16067462      -6.20812314        3       0.00014690      -0.00029095       0.00021528
I        7.73937893       7.03002687       1.27924779        4       0.00007217      -0.00022339       0.00014325
I       13.98633645       9.81026257      -0.23067537        5      -0.00015167       0.00007413      -0.00004561
I       12.86621978       3.32865649      -2.64585557        6       0.00000201      -0.00037705       0.00016717
I        8.85920405      13.51187406       3.69460258        7       0.00014999      -0.00035105      -0.00025627
I        9.84633634       6.62869800      -2.30733514        8       0.00009810      -0.00007033      -0.00019457
I       11.87933636      10.21115700       3.35588350        9      -0.00002835       0.00003728       0.00012417
Cs       7.19800380      13.94200958       7.58723860       10      -0.00018889      -0.00010616      -0.00027172
Cs      20.43461104      19.96869199       4.85648655       11       0.00026129       0.00028141       0.00013812
K       13.81655427      16.95492543       6.22191458       12       0.00002909       0.00008520      -0.00014128
In      26.08013686       9.69581136      -0.51056990       13       0.00020474      -0.00017253       0.00014791
I       10.69291604      15.56517778       6.97671440       14       0.00008735      -0.00014186       0.00019366
I       16.93984988      18.34548612       5.46685403       15      -0.00008810       0.00011934       0.00002805
I       15.81986230      11.86392529       3.05138357       16       0.00000043      -0.00046191       0.00026423
I       11.81279363      22.04710934       9.39195931       17       0.00017700      -0.00042434      -0.00018635
I       12.79993411      15.16374780       3.39022004       18       0.00004486       0.00003847      -0.00013959
I       14.83288027      18.74615383       9.05344760       19      -0.00004538       0.00010958       0.00017968
Cs      11.45332364      13.13170513       0.34351106       20       0.00014447       0.00014901       0.00017702
Cs      24.69072731      19.15922742      -2.38536288       21      -0.00001283      -0.00023844       0.00001423
K       18.07205862      16.14569326      -1.02105017       22       0.00010098      -0.00006583       0.00026346
In      30.33538230       8.88486015      -7.75293759       23      -0.00011504       0.00022984      -0.00024137
I       14.94873553      14.75537733      -0.26594919       24      -0.00041942       0.00012646      -0.00017373
I       21.19563626      17.53580502      -1.77531743       25       0.00019868      -0.00020959      -0.00001839
I       20.07531780      11.05340773      -4.19017897       26      -0.00014521       0.00023192      -0.00023490
I       16.06916369      21.23744825       2.14912204       27      -0.00037591       0.00011516       0.00012523
I       17.05583560      14.35508756      -3.85251379       28       0.00014821      -0.00014281      -0.00003354
I       19.08791941      17.93662575       1.81073261       29       0.00027037      -0.00028789      -0.00007432
Cs      14.40676812      21.66693875       6.04083277       30       0.00018157       0.00014441       0.00025380
Cs      27.64422041      27.69436574       3.31219616       31       0.00000295      -0.00023563       0.00000229
K       21.02571708      24.68083651       4.67654715       32      -0.00010613      -0.00006794       0.00013079
In      33.28896046      17.42001170      -2.05546882       33      -0.00002791       0.00030019      -0.00018351
I       17.90228836      23.29058026       5.43159095       34      -0.00038464       0.00013528      -0.00009554
I       24.14914919      26.07089466       3.92216525       35       0.00028705      -0.00019208       0.00009733
I       23.02885389      19.58869242       1.50727722       36      -0.00014871       0.00013664      -0.00019450
I       19.02267865      29.77273245       7.84641739       37      -0.00031444       0.00000321       0.00023461
I       20.00941405      22.89019990       1.84503040       38       0.00008976      -0.00002814       0.00006365
I       22.04152209      26.47172954       7.50828147       39       0.00020951      -0.00015142      -0.00001143
Cs      15.80674085       5.98704892      -1.21536048       40       0.00003520      -0.00010717       0.00014286
Cs      29.04538244      12.01328281      -3.94436534       41      -0.00010962       0.00007038      -0.00008436
K       22.42610432       9.00027498      -2.57943471       42       0.00005497      -0.00015954      -0.00003570
In      11.56338534       0.58010500      -3.10401844       43      -0.00025722      -0.00027734      -0.00005104
I       19.30208013       7.61007887      -1.82484670       44       0.00045860      -0.00017938       0.00040178
I       25.54971221      10.39088838      -3.33447596       45      -0.00022833      -0.00003413      -0.00010947
I       24.42956365       3.90890637      -5.74975140       46      -0.00006287       0.00003138       0.00016228
I       20.42255255      14.09190898       0.59015735       47       0.00008043       0.00026471      -0.00008025
I       21.40988594       7.20898855      -5.41110540       48      -0.00021699       0.00004254       0.00009188
I       23.44246944      10.79152810       0.25209390       49       0.00009308      -0.00017724      -0.00005196
Cs      18.76031006      14.52218141       4.48227569       50       0.00001886      -0.00010681       0.00005417
Cs      31.99908718      20.54844616       1.75325157       51      -0.00016013       0.00005616      -0.00016287
K       25.37963780      17.53553769       3.11795009       52       0.00003558      -0.00012717       0.00001851
In      14.51693418       9.11536772       2.59345591       53      -0.00023873      -0.00039063       0.00001328
I       22.25557536      16.14528810       3.87260975       54       0.00047626      -0.00012394       0.00033348
I       28.50328151      18.92619405       2.36300302       55      -0.00022859       0.00000028      -0.00020285
I       27.38316237      12.44410014      -0.05225131       56      -0.00009244      -0.00016541       0.00017447
I       23.37614579      22.62708126       6.28783339       57       0.00004694       0.00010461      -0.00016210
I       24.36345197      15.74417296       0.28643282       58      -0.00033324       0.00004895      -0.00001618
I       26.39604717      19.32669468       5.94958576       59      -0.00002110      -0.00015591      -0.00008660
Cs      23.01649040      13.71207319      -2.75988456       60       0.00003659       0.00003502      -0.00000242
Cs      36.25393322      19.73877193      -5.48903291       61      -0.00000137       0.00002960       0.00000647
K       29.63521420      16.72536579      -4.12475821       62      -0.00013784       0.00010778      -0.00004489
In      18.77214828       8.30490426      -4.64880175       63       0.00000387       0.00043992      -0.00040451
I       26.51185293      15.33497801      -3.36988196       64      -0.00016477       0.00024778      -0.00032232
I       32.75867480      18.11546129      -4.87953105       65       0.00024143      -0.00010540       0.00027710
I       31.63878603      11.63321537      -7.29437649       66      -0.00007775       0.00055502      -0.00027744
I       27.63211343      21.81701772      -0.95519231       67      -0.00013838       0.00023150       0.00035590
I       28.61877276      14.93450931      -6.95657242       68       0.00045959      -0.00006647       0.00007614
I       30.65160862      18.51636233      -1.29307026       69      -0.00006180       0.00031159       0.00017342
Cs      25.97012871      22.24727995       2.93768220       70       0.00000691       0.00001111      -0.00007933
Cs      39.20747008      28.27398947       0.20858373       71      -0.00000268       0.00002349      -0.00007896
K       32.58880266      25.26059387       1.57259120       72      -0.00017023       0.00014582       0.00005080
In      21.72568860      16.84015881       1.04865288       73       0.00000872       0.00032880      -0.00033016
I       29.46538263      23.87040762       2.32764265       74      -0.00018056       0.00024511      -0.00034385
I       35.71215676      26.65079192       0.81799021       75       0.00028249      -0.00009267       0.00028119
I       34.59247761      20.16841899      -1.59691443       76      -0.00012849       0.00032329      -0.00027298
I       30.58577560      30.35216441       4.74220943       77      -0.00015590       0.00004662       0.00038912
I       31.57230863      23.46956544      -1.25894254       78       0.00035558      -0.00008052      -0.00008048
I       33.60511570      27.05139771       4.40453769       79      -0.00015331       0.00032580       0.00005768
