80
Lattice="20.19213884680079 0.742934085587974 -1.52852036939355 -9.388279320722328 15.834496485610812 -0.3644052588576879 8.623142622806172 4.489312724517308 14.204762393328096" Properties=species:S:1:pos:R:3:spacegroup_kinds:I:1:forces:R:3 spacegroup="P 1" unit_cell=conventional occupancy="_JSON {\"0\": {\"Cs\": 1.0}, \"1\": {\"Cs\": 1.0}, \"2\": {\"K\": 1.0}, \"3\": {\"In\": 1.0}, \"4\": {\"I\": 1.0}, \"5\": {\"I\": 1.0}, \"6\": {\"I\": 1.0}, \"7\": {\"I\": 1.0}, \"8\": {\"I\": 1.0}, \"9\": {\"I\": 1.0}, \"10\": {\"Cs\": 1.0}, \"11\": {\"Cs\": 1.0}, \"12\": {\"K\": 1.0}, \"13\": {\"In\": 1.0}, \"14\": {\"I\": 1.0}, \"15\": {\"I\": 1.0}, \"16\": {\"I\": 1.0}, \"17\": {\"I\": 1.0}, \"18\": {\"I\": 1.0}, \"19\": {\"I\": 1.0}, \"20\": {\"Cs\": 1.0}, \"21\": {\"Cs\": 1.0}, \"22\": {\"K\": 1.0}, \"23\": {\"In\": 1.0}, \"24\": {\"I\": 1.0}, \"25\": {\"I\": 1.0}, \"26\": {\"I\": 1.0}, \"27\": {\"I\": 1.0}, \"28\": {\"I\": 1.0}, \"29\": {\"I\": 1.0}, \"30\": {\"Cs\": 1.0}, \"31\": {\"Cs\": 1.0}, \"32\": {\"K\": 1.0}, \"33\": {\"In\": 1.0}, \"34\": {\"I\": 1.0}, \"35\": {\"I\": 1.0}, \"36\": {\"I\": 1.0}, \"37\": {\"I\": 1.0}, \"38\": {\"I\": 1.0}, \"39\": {\"I\": 1.0}, \"40\": {\"Cs\": 1.0}, \"41\": {\"Cs\": 1.0}, \"42\": {\"K\": 1.0}, \"43\": {\"In\": 1.0}, \"44\": {\"I\": 1.0}, \"45\": {\"I\": 1.0}, \"46\": {\"I\": 1.0}, \"47\": {\"I\": 1.0}, \"48\": {\"I\": 1.0}, \"49\": {\"I\": 1.0}, \"50\": {\"Cs\": 1.0}, \"51\": {\"Cs\": 1.0}, \"52\": {\"K\": 1.0}, \"53\": {\"In\": 1.0}, \"54\": {\"I\": 1.0}, \"55\": {\"I\": 1.0}, \"56\": {\"I\": 1.0}, \"57\": {\"I\": 1.0}, \"58\": {\"I\": 1.0}, \"59\": {\"I\": 1.0}, \"60\": {\"Cs\": 1.0}, \"61\": {\"Cs\": 1.0}, \"62\": {\"K\": 1.0}, \"63\": {\"In\": 1.0}, \"64\": {\"I\": 1.0}, \"65\": {\"I\": 1.0}, \"66\": {\"I\": 1.0}, \"67\": {\"I\": 1.0}, \"68\": {\"I\": 1.0}, \"69\": {\"I\": 1.0}, \"70\": {\"Cs\": 1.0}, \"71\": {\"Cs\": 1.0}, \"72\": {\"K\": 1.0}, \"73\": {\"In\": 1.0}, \"74\": {\"I\": 1.0}, \"75\": {\"I\": 1.0}, \"76\": {\"I\": 1.0}, \"77\": {\"I\": 1.0}, \"78\": {\"I\": 1.0}, \"79\": {\"I\": 1.0}}" energy=-205.22816221566455 free_energy=-205.22816221566455 stress="6.564008760338607e-06 -6.482806072330657e-07 -2.1974591628352503e-06 -6.482806072330657e-07 -4.188639889538044e-06 5.5207899471514815e-06 -2.1974591628352503e-06 5.5207899471514815e-06 -2.095398499561895e-06" pbc="T T T"
Cs       4.67219675       3.71154341       0.76085133        0       0.00000929       0.00004186      -0.00000670
Cs       2.87399770       7.87503716       5.48393348        1       0.00003333      -0.00014881      -0.00011023
K       21.26434519       2.39186801       2.06704841        2      -0.00000912       0.00001125       0.00001907
In      19.10837775       1.26950189      -1.48404224        3       0.00058372       0.00013493      -0.00042531
I       18.70345469       3.89441135      -0.08502336        4      -0.00002257       0.00007592       0.00007288
I        9.03485598       8.43507634       4.80112631        5       0.00005238       0.00000017       0.00013461
I        3.32303437       4.17946327       4.49060704        6      -0.00001765      -0.00018480       0.00046524
I        4.22312683       7.40709694       1.75405616        7       0.00005717       0.00025994      -0.00022722
I       -2.79976515       8.80086709       0.09547610        8       0.00021922       0.00007489      -0.00005847
I       10.34596629       2.78560960       6.14925053        9      -0.00034287      -0.00000757       0.00001491
Cs       8.98375284       5.95618353       7.86323710       10       0.00003700       0.00007407      -0.00001797
Cs       7.18558146      10.11967769      12.58630203       11       0.00000801      -0.00007008      -0.00005292
K       25.57589174       4.63651196       9.16948509       12       0.00002343       0.00002441      -0.00015546
In      23.42006713       3.51412138       5.61839517       13      -0.00013029       0.00037007      -0.00086065
I       23.01496075       6.13910593       7.01737584       14       0.00016039      -0.00011866       0.00003001
I       13.34646619      10.67969584      11.90354421       15      -0.00007242       0.00015823       0.00004575
I        7.63461191       6.42411680      11.59301856       16      -0.00002740      -0.00010438       0.00022481
I        8.53467678       9.65178688       8.85647837       17       0.00005104       0.00005618      -0.00016152
I        1.51183423      11.04552148       7.19782655       18       0.00013074       0.00010805       0.00003004
I       14.65745701       5.03026360      13.25171476       19       0.00003267      -0.00004450      -0.00020274
Cs      -0.02191971      11.62880003       0.57862680       20      -0.00002762       0.00004347       0.00001819
Cs      -1.82014836      15.79227747       5.30175290       21       0.00003608      -0.00007267      -0.00012557
K       16.57021869      10.30911976       1.88481141       22      -0.00014547      -0.00005213       0.00014345
In      14.41437223       9.18678662      -1.66636513       23      -0.00036997      -0.00006012       0.00020483
I       14.00931606      11.81169187      -0.26721513       24       0.00001798      -0.00006638      -0.00000096
I        4.34074233      16.35230384       4.61895107       25       0.00001315      -0.00012302      -0.00000651
I       -1.37111045      12.09673047       4.30844920       26       0.00002255      -0.00005841       0.00003244
I       -0.47094106      15.32448126       1.57174366       27      -0.00009222      -0.00024294       0.00023991
I        1.89449059       0.88363988       0.27763084       28      -0.00031761       0.00002184       0.00002436
I        5.65177803      10.70282360       5.96702694       29      -0.00012287       0.00011366       0.00010816
Cs       4.28963790      13.87342542       7.68102772       30       0.00000090       0.00009533      -0.00001671
Cs       2.49143847      18.03691581      12.40410888       31       0.00000067       0.00001705      -0.00003845
K       20.88181068      12.55377957       8.98722454       32      -0.00021566      -0.00008635       0.00004094
In      18.72597385      11.43145053       5.43602015       33      -0.00043966      -0.00019703       0.00022103
I       18.32085332      14.05639532       6.83515770       34       0.00010207      -0.00020211       0.00001722
I        8.65233681      18.59693739      11.72139542       35      -0.00004860      -0.00008068      -0.00016585
I        2.94048049      14.34137806      11.41082699       36       0.00000755      -0.00003188       0.00001117
I        3.84061446      17.56916106       8.67420720       37      -0.00011400      -0.00035403       0.00007091
I        6.20607196       3.12827058       7.37997080       38      -0.00018003       0.00013345       0.00016258
I        9.96330774      12.94748536      13.06944801       39      -0.00004194       0.00005873      -0.00003823
Cs      14.76829353       4.08305014      -0.00340583       40      -0.00004506      -0.00004687      -0.00002504
Cs      12.97009322       8.24648696       4.71963886       41      -0.00001297      -0.00001955       0.00001047
K       11.16826528       2.02037186       2.83132494       42      -0.00008980       0.00001864      -0.00005461
In       9.01237518       0.89803275      -0.71996752       43      -0.00009308       0.00020378       0.00035717
I        8.60738762       3.52295319       0.67926526       44       0.00000628      -0.00000351      -0.00002673
I       19.13096052       8.80649573       4.03689515       45      -0.00004082       0.00012695       0.00006224
I       13.41907344       4.55092226       3.72645744       46       0.00006810       0.00000095      -0.00013870
I       14.31918180       7.77856820       0.98980401       47       0.00005608       0.00013407      -0.00009754
I        7.29641089       9.17235559      -0.66885660       48      -0.00025527       0.00007194       0.00010779
I       20.44190548       3.15705269       5.38502209       49       0.00017964       0.00004007      -0.00004387
Cs      19.07985988       6.32768340       7.09897496       50      -0.00004411      -0.00001838      -0.00003391
Cs      17.28167696      10.49113069      11.82202018       51      -0.00004000       0.00001084       0.00003453
K       15.47982707       4.26501495       9.93359522       52      -0.00002686       0.00011482       0.00029761
In      13.32389110       3.14266615       6.38244788       53       0.00037595       0.00023243       0.00025872
I       12.91898570       5.76757965       7.78166540       54      -0.00011641       0.00012059      -0.00005666
I       23.44251035      11.05121132      11.13930286       55       0.00003760      -0.00010497      -0.00004065
I       17.73066949       6.79559818      10.82888088       56      -0.00000053      -0.00007462      -0.00023607
I       18.63072708      10.02319412       8.09224197       57       0.00012322       0.00028357      -0.00030296
I       11.60793718      11.41703016       6.43355528       58      -0.00005216       0.00001491       0.00000733
I       24.75355706       5.40168323      12.48736443       59      -0.00027686       0.00010123       0.00005677
Cs      10.07414382      12.00028560      -0.18560466       60      -0.00000888      -0.00007292      -0.00006021
Cs       8.27593732      16.16369513       4.53745911       61      -0.00000132       0.00008326      -0.00000680
K        6.47412663       9.93764793       2.64918063       62      -0.00010262      -0.00013314      -0.00024488
In       4.31821187       8.81537406      -0.90212568       63       0.00035328      -0.00051070       0.00047186
I        3.91323127      11.44023493       0.49701155       64       0.00003749       0.00001195       0.00011109
I       14.43681819      16.72378446       3.85468103       65      -0.00002221      -0.00001300       0.00010664
I        8.72494944      12.46817062       3.54419739       66       0.00003900      -0.00000178       0.00004512
I        9.62506532      15.69586525       0.80753520       67      -0.00000175      -0.00006947       0.00021145
I       11.99041195       1.25509096      -0.48655280       68       0.00032714       0.00006154      -0.00013110
I       15.74777907      11.07429669       5.20282335       69       0.00028124       0.00009008      -0.00006036
Cs      14.38571025      14.24491547       6.91677417       70       0.00000644      -0.00002430      -0.00006636
Cs      12.58751592      18.40836003      11.63983861       71      -0.00003306       0.00005977       0.00001099
K       10.78568812      12.18229359       9.75146270       72      -0.00005926      -0.00007829       0.00005224
In       8.62982436      11.05997111       6.20033508       73       0.00013187      -0.00015206      -0.00003889
I        8.22481532      13.68486314       7.59941062       74      -0.00001219       0.00005333       0.00008791
I       18.74836459      18.96847467      10.95709093       75       0.00001945      -0.00009915       0.00001227
I       13.03651964      14.71280753      10.64667701       76       0.00002219       0.00013110      -0.00034668
I       13.93661805      17.94055489       7.90989922       77       0.00003013      -0.00020458       0.00036329
I       16.30200034       3.49978706       6.61587817       78       0.00014576      -0.00007090      -0.00027729
I       20.05935638      13.31891989      12.30520088       79       0.00023299       0.00016541      -0.00003722
