80
Lattice="19.527163141200298 0.0 0.0 -9.763581570600145 16.911019344122597 0.0 9.164639708483053 5.291207202718621 15.223263679333083" Properties=species:S:1:pos:R:3 pbc="T T T"
Cs       3.82445279       3.41897937       0.02418853
Cs       3.49579970       8.86623787       7.58734627
K        1.21924926       1.91486765       3.80581762
In      -1.07193563       0.59206402       0.00004241
I       -1.41886455       3.34774785       1.52265859
I        8.73910585       8.93754804       6.08899599
I        3.89007271       4.91590573       6.08901670
I        3.43016489       7.36925507       1.52267930
I       -2.47712304       9.55788135       1.52265850
I        9.79738789       2.72733821       6.08899591
Cs       8.40677264       6.06458297       7.63582037
Cs       8.07811956      11.51184147      15.19897811
K        5.80156912       4.56047125      11.41744946
In       3.51038423       3.23766762       7.61167425
I        3.16345531       5.99335145       9.13429043
I       13.32142571      11.58315164      13.70062783
I        8.47239256       7.56150933      13.70064854
I        8.01248474      10.01485868       9.13431113
I        2.10519682      12.20348495       9.13429034
I       14.37970775       5.37294181      13.70062775
Cs      -1.05733800      11.87448904       0.02418853
Cs      -1.38599108      17.32174754       7.58734627
K       -3.66254152      10.37037732       3.80581762
In      -5.95372641       9.04757369       0.00004241
I       -6.30065533      11.80325752       1.52265859
I        3.85731507      17.39305771       6.08899599
I       -0.99171808      13.37141540       6.08901670
I       -1.45162590      15.82476475       1.52267930
I       -7.35891382      18.01339102       1.52265850
I        4.91559711      11.18284788       6.08899591
Cs       3.52498186      14.52009264       7.63582037
Cs       3.19632877      19.96735114      15.19897811
K        0.91977833      13.01598092      11.41744946
In      -1.37140656      11.69317730       7.61167425
I       -1.71833548      14.44886112       9.13429043
I        8.43963492      20.03866131      13.70062783
I        3.59060178      16.01701900      13.70064854
I        3.13069396      18.47036835       9.13431113
I       -2.77659397      20.65899463       9.13429034
I        9.49791696      13.82845148      13.70062775
Cs      13.58803436       3.41897937       0.02418853
Cs      13.25938128       8.86623787       7.58734627
K       10.98283083       1.91486765       3.80581762
In       8.69164595       0.59206402       0.00004241
I        8.34471702       3.34774785       1.52265859
I       18.50268743       8.93754804       6.08899599
I       13.65365428       4.91590573       6.08901670
I       13.19374646       7.36925507       1.52267930
I        7.28645853       9.55788135       1.52265850
I       19.56096946       2.72733821       6.08899591
Cs      18.17035421       6.06458297       7.63582037
Cs      17.84170113      11.51184147      15.19897811
K       15.56515069       4.56047125      11.41744946
In      13.27396580       3.23766762       7.61167425
I       12.92703688       5.99335145       9.13429043
I       23.08500728      11.58315164      13.70062783
I       18.23597413       7.56150933      13.70064854
I       17.77606631      10.01485868       9.13431113
I       11.86877839      12.20348495       9.13429034
I       24.14328932       5.37294181      13.70062775
Cs       8.70624357      11.87448904       0.02418853
Cs       8.37759049      17.32174754       7.58734627
K        6.10104005      10.37037732       3.80581762
In       3.80985516       9.04757369       0.00004241
I        3.46292624      11.80325752       1.52265859
I       13.62089664      17.39305771       6.08899599
I        8.77186349      13.37141540       6.08901670
I        8.31195567      15.82476475       1.52267930
I        2.40466775      18.01339102       1.52265850
I       14.67917868      11.18284788       6.08899591
Cs      13.28856343      14.52009264       7.63582037
Cs      12.95991034      19.96735114      15.19897811
K       10.68335990      13.01598092      11.41744946
In       8.39217501      11.69317730       7.61167425
I        8.04524609      14.44886112       9.13429043
I       18.20321649      20.03866131      13.70062783
I       13.35418335      16.01701900      13.70064854
I       12.89427553      18.47036835       9.13431113
I        6.98698760      20.65899463       9.13429034
I       19.26149853      13.82845148      13.70062775
