80
Lattice="18.590464665791554 0.008439714374109213 0.4029255393678539 -9.336194331853735 16.029540720418808 1.351011643673211 -0.3855285523347524 -1.7017019961229318 17.571210665344108" Properties=species:S:1:pos:R:3:spacegroup_kinds:I:1:forces:R:3 spacegroup="P 1" unit_cell=conventional occupancy="_JSON {\"0\": {\"Cs\": 1.0}, \"1\": {\"Cs\": 1.0}, \"2\": {\"K\": 1.0}, \"3\": {\"In\": 1.0}, \"4\": {\"I\": 1.0}, \"5\": {\"I\": 1.0}, \"6\": {\"I\": 1.0}, \"7\": {\"I\": 1.0}, \"8\": {\"I\": 1.0}, \"9\": {\"I\": 1.0}, \"10\": {\"Cs\": 1.0}, \"11\": {\"Cs\": 1.0}, \"12\": {\"K\": 1.0}, \"13\": {\"In\": 1.0}, \"14\": {\"I\": 1.0}, \"15\": {\"I\": 1.0}, \"16\": {\"I\": 1.0}, \"17\": {\"I\": 1.0}, \"18\": {\"I\": 1.0}, \"19\": {\"I\": 1.0}, \"20\": {\"Cs\": 1.0}, \"21\": {\"Cs\": 1.0}, \"22\": {\"K\": 1.0}, \"23\": {\"In\": 1.0}, \"24\": {\"I\": 1.0}, \"25\": {\"I\": 1.0}, \"26\": {\"I\": 1.0}, \"27\": {\"I\": 1.0}, \"28\": {\"I\": 1.0}, \"29\": {\"I\": 1.0}, \"30\": {\"Cs\": 1.0}, \"31\": {\"Cs\": 1.0}, \"32\": {\"K\": 1.0}, \"33\": {\"In\": 1.0}, \"34\": {\"I\": 1.0}, \"35\": {\"I\": 1.0}, \"36\": {\"I\": 1.0}, \"37\": {\"I\": 1.0}, \"38\": {\"I\": 1.0}, \"39\": {\"I\": 1.0}, \"40\": {\"Cs\": 1.0}, \"41\": {\"Cs\": 1.0}, \"42\": {\"K\": 1.0}, \"43\": {\"In\": 1.0}, \"44\": {\"I\": 1.0}, \"45\": {\"I\": 1.0}, \"46\": {\"I\": 1.0}, \"47\": {\"I\": 1.0}, \"48\": {\"I\": 1.0}, \"49\": {\"I\": 1.0}, \"50\": {\"Cs\": 1.0}, \"51\": {\"Cs\": 1.0}, \"52\": {\"K\": 1.0}, \"53\": {\"In\": 1.0}, \"54\": {\"I\": 1.0}, \"55\": {\"I\": 1.0}, \"56\": {\"I\": 1.0}, \"57\": {\"I\": 1.0}, \"58\": {\"I\": 1.0}, \"59\": {\"I\": 1.0}, \"60\": {\"Cs\": 1.0}, \"61\": {\"Cs\": 1.0}, \"62\": {\"K\": 1.0}, \"63\": {\"In\": 1.0}, \"64\": {\"I\": 1.0}, \"65\": {\"I\": 1.0}, \"66\": {\"I\": 1.0}, \"67\": {\"I\": 1.0}, \"68\": {\"I\": 1.0}, \"69\": {\"I\": 1.0}, \"70\": {\"Cs\": 1.0}, \"71\": {\"Cs\": 1.0}, \"72\": {\"K\": 1.0}, \"73\": {\"In\": 1.0}, \"74\": {\"I\": 1.0}, \"75\": {\"I\": 1.0}, \"76\": {\"I\": 1.0}, \"77\": {\"I\": 1.0}, \"78\": {\"I\": 1.0}, \"79\": {\"I\": 1.0}}" energy=-206.3505226540446 free_energy=-206.3505226540446 stress="-1.4580818425844142e-06 -4.416302267941967e-07 -2.356847889544213e-06 -4.416302267941967e-07 2.038258000975011e-06 1.8376598656224697e-06 -2.356847889544213e-06 1.8376598656224697e-06 1.1574508612065556e-06" pbc="T T T"
Cs       0.36603454       3.64043074      18.12596297        0      -0.00086282       0.00025219       0.00020588
Cs       5.02059848       0.97575115      17.92629886        1       0.00002806      -0.00002413      -0.00017291
K        0.66850235      -0.42528425       4.40928784        2       0.00017463       0.00007406       0.00015105
In       0.76491420       0.00044464       0.01677336        3      -0.00006702      -0.00022064      -0.00031703
I        1.95181575       1.92572919       2.00403296        4      -0.00006600      -0.00015496       0.00027606
I        4.01214149       5.24361764       7.69169327        5       0.00045169      -0.00063996      -0.00004278
I        3.04822007      -0.69284780       7.09662966        6      -0.00018613       0.00009947      -0.00019713
I        7.58405709      -0.15299270       1.92404021        7       0.00019326      -0.00018932      -0.00015776
I       -2.72914394       5.73685847       2.27188166        8       0.00011601       0.00006034       0.00016727
I       -0.60201264       1.42740234       7.22215301        9       0.00011821       0.00060654       0.00009678
Cs       0.55879942       4.49128102       9.34036118       10      -0.00086685       0.00026346       0.00018138
Cs       5.21336193       1.82660251       9.14069654       11       0.00003595      -0.00002343      -0.00019276
K        0.47573808      -1.27613524      13.19489317       12       0.00017463       0.00007406       0.00015104
In       0.57215656      -0.85038828       8.80242927       13      -0.00010744      -0.00031410      -0.00062961
I        1.75904642       1.07486864      10.78962116       14      -0.00002750      -0.00009257       0.00037611
I        3.81937859       4.39276950      16.47730475       15       0.00044183      -0.00065699      -0.00007908
I        2.85545301      -1.54369797      15.88224277       16      -0.00015935       0.00010249      -0.00024929
I        7.39129380      -1.00384390      10.70964358       17       0.00018494      -0.00019012      -0.00014520
I       -2.92190941       4.88600822      11.05748085       18       0.00012438       0.00004518       0.00020929
I       -0.79477554       0.57655036      16.00776470       19       0.00010840       0.00062368       0.00005324
Cs      -4.30206610      11.65520413      18.80147151       20      -0.00083328       0.00022956       0.00019090
Cs       0.35250491       8.99051855      18.60180192       21      -0.00000227      -0.00000223      -0.00015770
K       -3.99959573       7.58948212       5.08480715       22       0.00018652       0.00012615       0.00005777
In      -3.90319438       8.01516789       0.69219015       23       0.00000317       0.00007247       0.00019812
I       -2.71626956       9.94052269       2.67957051       24      -0.00015644      -0.00031452       0.00010301
I       -0.65596602      13.25836784       8.36717199       25       0.00053093      -0.00050014       0.00010478
I       -1.61988424       7.32192578       7.77214436       26      -0.00012374       0.00008321      -0.00025292
I        2.91595325       7.86178091       2.59955492       27       0.00025224      -0.00020561      -0.00021388
I       -7.39724157      13.75162878       2.94738442       28       0.00011895       0.00005680       0.00018700
I       -5.27010917       9.44217256       7.89766207       29       0.00011386       0.00061199       0.00007556
Cs      -4.10930097      12.50605422      10.01586922       30      -0.00083956       0.00024197       0.00016961
Cs       0.54526812       9.84137002       9.81619941       31       0.00000751      -0.00000262      -0.00017633
K       -4.19236000       6.73863113      13.87041248       32       0.00018651       0.00012614       0.00005777
In      -4.09595214       7.16433517       9.47784486       33      -0.00003712      -0.00002414      -0.00010734
I       -2.90903891       9.08966210      11.46515896       34      -0.00011774      -0.00025163       0.00020149
I       -0.84873019      12.40751725      17.15277935       35       0.00053059      -0.00050097       0.00009223
I       -1.81265116       6.47107564      16.55775726       36      -0.00009823       0.00008573      -0.00030380
I        2.72319060       7.01092941      11.38515671       37       0.00023711      -0.00020600      -0.00019030
I       -7.59000725      12.90077875      11.73298336       38       0.00012875       0.00003977       0.00023056
I       -5.46287226       8.59132080      16.68327353       39       0.00010549       0.00062724       0.00003355
Cs       9.66126769       3.64465012      18.32742592       40      -0.00086960       0.00025693       0.00020421
Cs      14.31583010       0.97997157      18.12776141       41       0.00003409      -0.00002958      -0.00017101
K        9.96373468      -0.42106454       4.61075157       42       0.00017502       0.00007655       0.00014481
In      10.06015002       0.00467052       0.21825202       43      -0.00009034      -0.00025394      -0.00041730
I       11.24704624       1.92994571       2.20549003       44      -0.00005161      -0.00013240       0.00030973
I       13.30737223       5.24783466       7.89315153       45       0.00046442      -0.00062019      -0.00001597
I       12.34345090      -0.68862750       7.29809597       46      -0.00017200       0.00010033      -0.00022082
I       16.87928914      -0.14877265       2.12550525       47       0.00019753      -0.00018797      -0.00017363
I        6.56608785       5.74107855       2.47334266       48       0.00012016       0.00005564       0.00017954
I        8.69322055       1.43162165       7.42361848       49       0.00011172       0.00061495       0.00007812
Cs       9.85403091       4.49550158       9.54182341       50      -0.00085983       0.00025655       0.00018560
Cs      14.50859522       1.83082166       9.34215913       51       0.00002781      -0.00001721      -0.00019230
K        9.77097040      -1.27191554      13.39635690       52       0.00017502       0.00007655       0.00014480
In       9.86738460      -0.84617937       9.00386474       53      -0.00007960      -0.00025364      -0.00046374
I       11.05428186       1.07909432      10.99109335       54      -0.00005129      -0.00013162       0.00032226
I       13.11461303       4.39699324      16.67877370       55       0.00042573      -0.00068308      -0.00011435
I       12.15068563      -1.53947829      16.08370327       56      -0.00016362       0.00010113      -0.00023343
I       16.68652762      -0.99962450      10.91110282       57       0.00017085      -0.00019096      -0.00012153
I        6.37332338       4.89022789      11.25894526       58       0.00012085       0.00004918       0.00019802
I        8.50045624       0.58077047      16.20922520       59       0.00011241       0.00061837       0.00006875
Cs       4.99316695      11.65942343      19.00293449       60      -0.00083930       0.00023502       0.00018900
Cs       9.64773642       8.99473888      18.80326450       61       0.00000451      -0.00000696      -0.00015603
K        5.29563666       7.59370207       5.28626966       62       0.00018621       0.00012521       0.00005970
In       5.39204145       8.01939505       0.89366998       63      -0.00002017       0.00003124       0.00009367
I        6.57896066       9.94473865       2.88102707       64      -0.00014032      -0.00028840       0.00013835
I        8.63926317      13.26258183       8.56862531       65       0.00055474      -0.00046105       0.00015865
I        7.67534766       7.32614579       7.97360909       66      -0.00011968       0.00008449      -0.00026595
I       12.21118501       7.86600099       2.80101975       67       0.00025852      -0.00020479      -0.00022812
I        1.89799020      13.75584889       3.14884491       68       0.00012297       0.00005151       0.00020252
I        4.02512362       9.44639223       8.09912648       69       0.00011033       0.00061602       0.00006428
Cs       5.18593041      12.51027479      10.21733217       70      -0.00083142       0.00023574       0.00016915
Cs       9.84050130       9.84558917      10.01766272       71       0.00000049       0.00000428      -0.00018055
K        5.10287238       6.74285107      14.07187499       72       0.00018621       0.00012520       0.00005970
In       5.19927781       7.16854989       9.67929441       73      -0.00001920       0.00000511      -0.00002485
I        6.38619501       9.09388479      11.66662624       74      -0.00013046      -0.00027139       0.00017467
I        8.44650400      12.41174046      17.35424781       75       0.00051621      -0.00052354       0.00005858
I        7.48258175       6.47529528      16.75921798       76      -0.00010451       0.00008489      -0.00028957
I       12.01842336       7.01514912      11.58661752       77       0.00023308      -0.00020727      -0.00017730
I        1.70522595      12.90499806      11.93444885       78       0.00012227       0.00004813       0.00021189
I        3.83235953       8.59554089      16.88473454       79       0.00010964       0.00062252       0.00004580
