80
Lattice="17.88961293316799 0.0 0.0 -8.985188547003101 15.562803078995357 0.0 -0.6887072339842152 -3.0073992243388523 15.028970545026311" Properties=species:S:1:pos:R:3 pbc="T T T"
Cs       0.90666762       5.18760190      -0.00002748
Cs       5.38580120       2.59380139      -0.00002748
K        0.74795644      -0.75184893       3.75724656
In       0.92013884       0.00000088       0.00001745
I        2.01861751       1.73944657       1.50341364
I        3.92952040       4.53825711       6.01109923
I        2.06987156      -1.20285908       6.01108543
I        6.53058129      -0.30084053       1.50339984
I       -2.46340142       5.44028751       1.50340685
I       -0.53329285       0.83743989       6.01109243
Cs       0.56231400       3.68390229       7.51445780
Cs       5.04144758       1.09010178       7.51445780
K        0.40360283      -2.25554854      11.27173183
In       0.57578522      -1.50369874       7.51450272
I        1.67426390       0.23574696       9.01789892
I        3.58516678       3.03455750      13.52558450
I        1.72551794      -2.70655869      13.52557070
I        6.18622767      -1.80454015       9.01788512
I       -2.80775504       3.93658790       9.01789212
I       -0.87764646      -0.66625973      13.52557770
Cs      -3.58592666      12.96900344      -0.00002748
Cs       0.89320692      10.37520293      -0.00002748
K       -3.74463783       7.02955261       3.75724656
In      -3.57245543       7.78140242       0.00001745
I       -2.47397676       9.52084811       1.50341364
I       -0.56307387      12.31965865       6.01109923
I       -2.42272272       6.57854246       6.01108543
I        2.03798702       7.48056101       1.50339984
I       -6.95599570      13.22168905       1.50340685
I       -5.02588712       8.61884143       6.01109243
Cs      -3.93028028      11.46530383       7.51445780
Cs       0.54885330       8.87150332       7.51445780
K       -4.08899145       5.52585300      11.27173183
In      -3.91680905       6.27770280       7.51450272
I       -2.81833038       8.01714850       9.01789892
I       -0.90742749      10.81595904      13.52558450
I       -2.76707633       5.07484285      13.52557070
I        1.69363340       5.97686139       9.01788512
I       -7.30034931      11.71798944       9.01789212
I       -5.37024074       7.11514181      13.52557770
Cs       9.85147408       5.18760190      -0.00002748
Cs      14.33060766       2.59380139      -0.00002748
K        9.69276291      -0.75184893       3.75724656
In       9.86494531       0.00000088       0.00001745
I       10.96342398       1.73944657       1.50341364
I       12.87432687       4.53825711       6.01109923
I       11.01467802      -1.20285908       6.01108543
I       15.47538776      -0.30084053       1.50339984
I        6.48140504       5.44028751       1.50340685
I        8.41151362       0.83743989       6.01109243
Cs       9.50712047       3.68390229       7.51445780
Cs      13.98625405       1.09010178       7.51445780
K        9.34840929      -2.25554854      11.27173183
In       9.52059169      -1.50369874       7.51450272
I       10.61907036       0.23574696       9.01789892
I       12.52997325       3.03455750      13.52558450
I       10.67032441      -2.70655869      13.52557070
I       15.13103414      -1.80454015       9.01788512
I        6.13705143       3.93658790       9.01789212
I        8.06716000      -0.66625973      13.52557770
Cs       5.35887981      12.96900344      -0.00002748
Cs       9.83801339      10.37520293      -0.00002748
K        5.20016864       7.02955261       3.75724656
In       5.37235103       7.78140242       0.00001745
I        6.47082971       9.52084811       1.50341364
I        8.38173259      12.31965865       6.01109923
I        6.52208375       6.57854246       6.01108543
I       10.98279348       7.48056101       1.50339984
I        1.98881077      13.22168905       1.50340685
I        3.91891935       8.61884143       6.01109243
Cs       5.01452619      11.46530383       7.51445780
Cs       9.49365977       8.87150332       7.51445780
K        4.85581502       5.52585300      11.27173183
In       5.02799742       6.27770280       7.51450272
I        6.12647609       8.01714850       9.01789892
I        8.03737898      10.81595904      13.52558450
I        6.17773013       5.07484285      13.52557070
I       10.63843987       5.97686139       9.01788512
I        1.64445715      11.71798944       9.01789212
I        3.57456573       7.11514181      13.52557770
