40
Lattice="21.236834312270776 0.0 0.0 -10.595730627728862 16.013845966538895 0.0 3.9698105519064644 0.14790422824195845 7.0522255055401715" Properties=species:S:1:pos:R:3 pbc="T T T"
Cs       9.79670908       2.77286948       7.04557948
Cs       0.52893322       5.29421760       0.00661028
K        1.98490528       0.07395211       3.52611275
In       0.51764540      -0.04387105       0.00000951
I        9.14574868      -0.00872665       1.41067458
I        1.17989040       8.07579904       5.64155695
I        2.71244345       2.08254467       1.41067849
I        7.61321089       5.98455040       5.64156087
I        8.01596990       5.89025043       1.41067386
I        2.30967239       2.17684111       5.64155624
Cs       4.49884377      10.77979246       7.04557948
Cs      -4.76893209      13.30114058       0.00661028
K       -3.31296004       8.08087510       3.52611275
In      -4.78021992       7.96305193       0.00000951
I        3.84788336       7.99819634       1.41067458
I       -4.11797492      16.08272202       5.64155695
I       -2.58542186      10.08946765       1.41067849
I        2.31534558      13.99147339       5.64156087
I        2.71810459      13.89717342       1.41067386
I       -2.98819292      10.18376410       5.64155624
Cs      20.41512624       2.77286948       7.04557948
Cs      11.14735038       5.29421760       0.00661028
K       12.60332243       0.07395211       3.52611275
In      11.13606255      -0.04387105       0.00000951
I       19.76416583      -0.00872665       1.41067458
I       11.79830755       8.07579904       5.64155695
I       13.33086061       2.08254467       1.41067849
I       18.23162805       5.98455040       5.64156087
I       18.63438706       5.89025043       1.41067386
I       12.92808955       2.17684111       5.64155624
Cs      15.11726092      10.77979246       7.04557948
Cs       5.84948506      13.30114058       0.00661028
K        7.30545712       8.08087510       3.52611275
In       5.83819724       7.96305193       0.00000951
I       14.46630052       7.99819634       1.41067458
I        6.50044224      16.08272202       5.64155695
I        8.03299529      10.08946765       1.41067849
I       12.93376273      13.99147339       5.64156087
I       13.33652175      13.89717342       1.41067386
I        7.63022423      10.18376410       5.64155624
