20
Lattice="16.18612454813394 0.0 0.0 4.193299488997684 8.674136097376003 0.0 1.7210374363653604 1.9678721063144702 7.870219314057707" Properties=species:S:1:pos:R:3 pbc="T T T"
Cs       3.50167804       2.66045056       1.96759991
Cs      10.50572093       7.98155623       5.90261847
K        7.00369934       5.32100312       3.93510903
In       0.00000030       0.00000085       0.00000038
I        5.86943612       1.13200309       3.49859421
I        8.13796247       9.51000254       4.37162391
I       11.86139696       3.13340304       3.75784929
I        2.14599872       7.50860304       4.11236785
I        6.38947839       5.38206491      -0.10004393
I        7.61792089       5.25994647       7.97026532
Cs      11.59474032       2.66045056       1.96759991
Cs      18.59878320       7.98155623       5.90261847
K       15.09676161       5.32100312       3.93510903
In       8.09306257       0.00000085       0.00000038
I       13.96249840       1.13200309       3.49859421
I       16.23102474       9.51000254       4.37162391
I       19.95445923       3.13340304       3.75784929
I       10.23906099       7.50860304       4.11236785
I       14.48254066       5.38206491      -0.10004393
I       15.71098316       5.25994647       7.97026532
