80
Lattice="17.253545019705996 -0.5599447608771753 2.3759828025818055 8.176122273073966 15.478696017469415 1.6195786678827937 5.799644252027291 4.068581517992997 15.958041610175414" Properties=species:S:1:pos:R:3:spacegroup_kinds:I:1:forces:R:3 spacegroup="P 1" unit_cell=conventional occupancy="_JSON {\"0\": {\"Cs\": 1.0}, \"1\": {\"Cs\": 1.0}, \"2\": {\"K\": 1.0}, \"3\": {\"In\": 1.0}, \"4\": {\"I\": 1.0}, \"5\": {\"I\": 1.0}, \"6\": {\"I\": 1.0}, \"7\": {\"I\": 1.0}, \"8\": {\"I\": 1.0}, \"9\": {\"I\": 1.0}, \"10\": {\"Cs\": 1.0}, \"11\": {\"Cs\": 1.0}, \"12\": {\"K\": 1.0}, \"13\": {\"In\": 1.0}, \"14\": {\"I\": 1.0}, \"15\": {\"I\": 1.0}, \"16\": {\"I\": 1.0}, \"17\": {\"I\": 1.0}, \"18\": {\"I\": 1.0}, \"19\": {\"I\": 1.0}, \"20\": {\"Cs\": 1.0}, \"21\": {\"Cs\": 1.0}, \"22\": {\"K\": 1.0}, \"23\": {\"In\": 1.0}, \"24\": {\"I\": 1.0}, \"25\": {\"I\": 1.0}, \"26\": {\"I\": 1.0}, \"27\": {\"I\": 1.0}, \"28\": {\"I\": 1.0}, \"29\": {\"I\": 1.0}, \"30\": {\"Cs\": 1.0}, \"31\": {\"Cs\": 1.0}, \"32\": {\"K\": 1.0}, \"33\": {\"In\": 1.0}, \"34\": {\"I\": 1.0}, \"35\": {\"I\": 1.0}, \"36\": {\"I\": 1.0}, \"37\": {\"I\": 1.0}, \"38\": {\"I\": 1.0}, \"39\": {\"I\": 1.0}, \"40\": {\"Cs\": 1.0}, \"41\": {\"Cs\": 1.0}, \"42\": {\"K\": 1.0}, \"43\": {\"In\": 1.0}, \"44\": {\"I\": 1.0}, \"45\": {\"I\": 1.0}, \"46\": {\"I\": 1.0}, \"47\": {\"I\": 1.0}, \"48\": {\"I\": 1.0}, \"49\": {\"I\": 1.0}, \"50\": {\"Cs\": 1.0}, \"51\": {\"Cs\": 1.0}, \"52\": {\"K\": 1.0}, \"53\": {\"In\": 1.0}, \"54\": {\"I\": 1.0}, \"55\": {\"I\": 1.0}, \"56\": {\"I\": 1.0}, \"57\": {\"I\": 1.0}, \"58\": {\"I\": 1.0}, \"59\": {\"I\": 1.0}, \"60\": {\"Cs\": 1.0}, \"61\": {\"Cs\": 1.0}, \"62\": {\"K\": 1.0}, \"63\": {\"In\": 1.0}, \"64\": {\"I\": 1.0}, \"65\": {\"I\": 1.0}, \"66\": {\"I\": 1.0}, \"67\": {\"I\": 1.0}, \"68\": {\"I\": 1.0}, \"69\": {\"I\": 1.0}, \"70\": {\"Cs\": 1.0}, \"71\": {\"Cs\": 1.0}, \"72\": {\"K\": 1.0}, \"73\": {\"In\": 1.0}, \"74\": {\"I\": 1.0}, \"75\": {\"I\": 1.0}, \"76\": {\"I\": 1.0}, \"77\": {\"I\": 1.0}, \"78\": {\"I\": 1.0}, \"79\": {\"I\": 1.0}}" energy=-205.19157272154666 free_energy=-205.19157272154666 stress="-5.841258740557111e-07 1.2665740599051658e-08 4.7717003221761485e-08 1.2665740599051658e-08 2.96072327449791e-07 -1.5289819502474693e-07 4.7717003221761485e-08 -1.5289819502474693e-07 1.6402249612274173e-07" pbc="T T T"
Cs       3.75506987       2.28145072       2.41934790        0       0.00008834      -0.00001411      -0.00020056
Cs      11.85941845       7.21283575       7.55724793        1       0.00009848       0.00000336       0.00006946
K        7.80774193       4.74700646       4.98878475        2      -0.00002493      -0.00008853      -0.00017921
In      17.25365746      -0.55973384       2.37558326        3      -0.00012315      -0.00020461       0.00006118
I        8.28534701       1.58201076       3.48462294        4      -0.00012969      -0.00003230       0.00004694
I        7.32997647       7.91187448       6.49204055        5      -0.00026782       0.00027352       0.00011261
I       13.45674953       3.64153520       7.90417142        6       0.00007377       0.00010207       0.00010205
I       19.41112397       5.29245070       4.44864064        7      -0.00010728      -0.00019470      -0.00006081
I       12.11796126      10.44220685      18.18172744        8       0.00012967       0.00012058       0.00009498
I        9.29617238       3.11923608       7.75343545        9       0.00022044      -0.00004064       0.00030347
Cs       6.65464473       4.31544400      10.39862473       10       0.00017309       0.00003468      -0.00031615
Cs      14.75896330       9.24699252      15.53652563       11       0.00026970       0.00000209       0.00005297
K       10.70736119       6.78048786      12.96775945       12      -0.00016042       0.00066529      -0.00018723
In      20.15332931       1.47459041      10.35461252       13      -0.00021453      -0.00027594      -0.00001492
I       11.18505017       3.61631872      11.46379182       14      -0.00006600      -0.00036286       0.00008323
I       10.23000334       9.94598735      14.47128053       15      -0.00019772      -0.00027726      -0.00014952
I       16.35669919       5.67587080      15.88305062       16      -0.00028046      -0.00020797       0.00034782
I       22.31103267       7.32664575      12.42766717       17      -0.00012429      -0.00016067      -0.00019989
I        9.21797951       8.40761839      10.20261080       18       0.00028151       0.00022408       0.00007166
I        6.39610195       1.08472533      -0.22554535       19       0.00028454       0.00029459       0.00009018
Cs       7.84290536      10.02067141       3.22901025       20       0.00014493      -0.00024775       0.00008470
Cs      15.94762181      14.95225570       8.36743164       21      -0.00004277       0.00009767      -0.00011746
K       11.89551618      12.48638739       5.79825256       22      -0.00016208      -0.00009639      -0.00004513
In      21.34189295       7.17928548       3.18609644       23      -0.00031186       0.00012332      -0.00045840
I       12.37360027       9.32152438       4.29453033       24      -0.00030200       0.00011655       0.00003139
I       11.41767755      15.65134113       7.30103643       25      -0.00025703       0.00024229       0.00049354
I       17.54498720      11.38120860       8.71462576       26       0.00005469      -0.00013443      -0.00015154
I       23.49921626      13.03166692       5.25738515       27      -0.00045854      -0.00007576       0.00050089
I       16.20594976      18.18221249      18.99123384       28      -0.00000953      -0.00005107      -0.00017802
I       13.38456767      10.85873218       8.56309963       29      -0.00020576       0.00013640       0.00026600
Cs      10.74241776      12.05446501      11.20806248       30       0.00030708      -0.00023444      -0.00001374
Cs      18.84707627      16.98619888      16.34649477       31       0.00011983       0.00007101      -0.00019151
K       14.79498563      14.52012519      13.77694302       32       0.00001923       0.00038806       0.00011898
In      24.24163122       9.21370056      11.16518430       33       0.00002489      -0.00023385      -0.00024113
I       15.27322070      11.35571666      12.27388506       34      -0.00014222      -0.00040015      -0.00026042
I       14.31771020      17.68534807      15.28056176       35      -0.00003639      -0.00034709      -0.00013613
I       20.44498944      13.41552074      16.69331957       36      -0.00018617      -0.00026943      -0.00007967
I       26.39894506      15.06555099      13.23612511       37      -0.00009686       0.00036129       0.00021232
I       13.30566763      16.14778388      11.01215617       38       0.00060397      -0.00035243      -0.00003587
I       10.48434594       8.82449217       0.58420108       39       0.00029017       0.00011915       0.00010515
Cs      12.38135568       2.00061704       3.60758448       40       0.00012032       0.00002557      -0.00030426
Cs      20.48587321       6.93277972       8.74545215       41       0.00042293      -0.00022376       0.00005028
K       16.43381698       4.46659763       6.17628479       42       0.00002875       0.00020134      -0.00004020
In       8.62680536      -0.28010154       1.18781073       43      -0.00037276      -0.00009635      -0.00020771
I       16.91240182       1.30215951       4.67246684       44      -0.00033781       0.00019884       0.00032063
I       15.95672813       7.63155612       7.68006284       45      -0.00019642      -0.00005377       0.00003825
I        4.83033799       3.92151392       6.71597081       46      -0.00014204       0.00024938       0.00017841
I       10.78461901       5.57218880       3.26044520       47      -0.00013172      -0.00007343      -0.00019887
I       20.74441003      10.16240704      19.36923945       48       0.00056576       0.00002022       0.00023010
I       17.92295583       2.84033346       8.94168210       49       0.00021208      -0.00025726      -0.00023037
Cs      15.28140550       4.03546180      11.58651781       50       0.00003356       0.00003282      -0.00012606
Cs      23.38617616       8.96734443      16.72464333       51       0.00008020      -0.00020207       0.00007926
K       19.33386804       6.50115788      14.15541770       52       0.00000751       0.00004686      -0.00007928
In      11.52672205       1.75412945       9.16712267       53      -0.00034240       0.00023208      -0.00035566
I       19.81210548       3.33644628      12.65174261       54      -0.00027913      -0.00013919      -0.00000062
I       18.85635664       9.66605803      15.65870017       55      -0.00026643       0.00026397       0.00017959
I        7.72991124       5.95596082      14.69480913       56       0.00011155       0.00017670       0.00016253
I       13.68411510       7.60652012      11.23957823       57       0.00019696       0.00001775      -0.00017086
I       17.84505389       8.12825461      11.39029671       58      -0.00033135       0.00014817       0.00021249
I       15.02317502       0.80561020       0.96215416       59       0.00019521      -0.00018506       0.00035357
Cs      16.46937086       9.74007695       4.41708413       60       0.00018530      -0.00000810      -0.00006687
Cs      24.57410244      14.67246038       9.55528747       61       0.00032366      -0.00003280      -0.00026278
K       20.52201801      12.20569051       6.98625294       62       0.00022073       0.00035430      -0.00002156
In      12.71492622       7.45949398       1.99754783       63      -0.00035444      -0.00021542      -0.00004500
I       21.00051155       9.04128226       5.48292549       64      -0.00019092       0.00020030       0.00023503
I       20.04461171      15.37074779       8.48985504       65       0.00002560      -0.00028581      -0.00017715
I        8.91848980      11.66126810       7.52708672       66      -0.00004493      -0.00012029      -0.00024031
I       14.87232737      13.31121946       4.06968737       67       0.00005560       0.00002288       0.00013412
I       24.83223788      17.90138201      20.17905398       68       0.00066091       0.00012444       0.00022273
I       22.01127823      10.57899193       9.75177065       69       0.00010855       0.00015045      -0.00030839
Cs      19.36936169      11.77458381      12.39584034       70       0.00009260      -0.00004181       0.00016949
Cs      27.47435295      16.70658545      17.53440498       71       0.00002481       0.00010461      -0.00017175
K       23.42224415      14.24045602      14.96550760       72       0.00004285       0.00005646      -0.00025852
In      15.61465613       9.49355887       9.97693901       73       0.00015267       0.00013758      -0.00006887
I       23.90039429      11.07557951      13.46225880       74      -0.00017795       0.00010793      -0.00008446
I       22.94433539      17.40530747      16.46835340       75      -0.00014721       0.00003912       0.00022119
I       11.81824697      13.69546524      15.50589249       76       0.00008924      -0.00006044      -0.00018180
I       17.77231161      15.34555112      12.04891906       77      -0.00005186       0.00003050       0.00031158
I       21.93319462      15.86777803      12.20016790       78      -0.00015338       0.00001229       0.00022334
I       19.11150712       8.54462818       1.77239067       79       0.00028656      -0.00003261       0.00024659
