10
Lattice="12.774122841863626 -9.207260774116555e-10 9.186542256649516e-17 -4.6036303752985717e-10 6.387061420931853 -7.110263412516522e-17 4.518733012659075e-17 -7.094463829248036e-17 6.387061420827558" Properties=species:S:1:pos:R:3:spacegroup_kinds:I:1:forces:R:3 spacegroup="P 1" unit_cell=conventional occupancy="_JSON {\"0\": {\"Cs\": 1.0}, \"1\": {\"Pb\": 1.0}, \"2\": {\"I\": 1.0}, \"3\": {\"I\": 1.0}, \"4\": {\"I\": 1.0}, \"5\": {\"Cs\": 1.0}, \"6\": {\"Pb\": 1.0}, \"7\": {\"I\": 1.0}, \"8\": {\"I\": 1.0}, \"9\": {\"I\": 1.0}}" energy=-27.961484854703194 free_energy=-27.961484854703194 stress="-1.2565796753317925e-07 -3.2375693874187848e-12 7.565509578087097e-20 -3.2375693874187848e-12 -1.2565796660081652e-07 -1.7671171311147123e-18 7.565509578087097e-20 -1.7671171311147123e-18 -1.25657403583395e-07" pbc="T T T"
Cs       3.19358502       3.19347640       3.19353071        0       0.00000213      -0.00000213      -0.00000000
Pb       0.00000363      -0.00000363      -0.00000000        1       0.00000030      -0.00000030      -0.00000000
I        0.00000176      -0.00000176       3.19353071        2      -0.00000359       0.00000359      -0.00000000
I        3.19353199      -0.00000176      -0.00000000        3       0.00000475       0.00000359       0.00000000
I        0.00000176       3.19352943      -0.00000000        4      -0.00000359      -0.00000475       0.00000000
Cs       9.58064644       3.19347640       3.19353071        5       0.00000213      -0.00000213      -0.00000000
Pb       6.38706505      -0.00000363      -0.00000000        6       0.00000030      -0.00000030      -0.00000000
I        6.38706318      -0.00000176       3.19353071        7      -0.00000359       0.00000359      -0.00000000
I        9.58059341      -0.00000176      -0.00000000        8       0.00000475       0.00000359       0.00000000
I        6.38706318       3.19352943      -0.00000000        9      -0.00000359      -0.00000475       0.00000000
