20
Lattice="20.716434853911828 0.0 0.0 0.6002347293059555 7.162909546598219 0.0 5.485900812835946 1.939269341633618 7.619029946653036" Properties=species:S:1:pos:R:3 pbc="T T T"
Cs       4.11101415       2.27552259       1.90478214
Cs      12.33333873       6.82665567       5.71424739
K        8.22217647       4.55108901       3.80951474
In       0.00000017       0.00000035       0.00000016
I        7.48295710       2.12756291       4.82065744
I        8.96139575       6.97461490       2.79837204
I       11.33708995       2.12406900       2.90185457
I        5.10726150       6.97810909       4.71717437
I        4.66472655       4.93224725       0.63936990
I       11.77962646       4.16993329       6.97966120
Cs      14.46923158       2.27552259       1.90478214
Cs      22.69155616       6.82665567       5.71424739
K       18.58039389       4.55108901       3.80951474
In      10.35821760       0.00000035       0.00000016
I       17.84117453       2.12756291       4.82065744
I       19.31961317       6.97461490       2.79837204
I       21.69530738       2.12406900       2.90185457
I       15.46547893       6.97810909       4.71717437
I       15.02294398       4.93224725       0.63936990
I       22.13784389       4.16993329       6.97966120
