10
Lattice="11.179465146389147 4.574029007271001 -2.2171813851905373 10.80042846063147 13.124086537430165 -3.2398948147946056 7.019662689547177 9.426837964271797 3.5654946563159173" Properties=species:S:1:pos:R:3:spacegroup_kinds:I:1:forces:R:3 spacegroup="P 1" unit_cell=conventional occupancy="_JSON {\"0\": {\"Cs\": 1.0}, \"1\": {\"Cs\": 1.0}, \"2\": {\"K\": 1.0}, \"3\": {\"In\": 1.0}, \"4\": {\"I\": 1.0}, \"5\": {\"I\": 1.0}, \"6\": {\"I\": 1.0}, \"7\": {\"I\": 1.0}, \"8\": {\"I\": 1.0}, \"9\": {\"I\": 1.0}}" energy=-25.775781103921826 free_energy=-25.775781103921826 stress="-1.3589182776421727e-06 -3.259644483318545e-07 1.811340789518141e-07 -3.259644483318545e-07 1.7921724574079017e-06 -7.985580265481076e-07 1.811340789518141e-07 -7.985580265481076e-07 1.3410219269563026e-06" pbc="T T T"
Cs       8.62293176       8.91741050      -1.27735798        0      -0.00000271       0.00021890       0.00004313
Cs      20.37679027      18.20714858      -0.61363395        1      -0.00011867       0.00006406      -0.00044167
K       14.49982913      13.56242828      -0.94567923        2      -0.00017236      -0.00003465      -0.00004098
In      11.17934803       4.57411292      -2.21737349        3       0.00017101      -0.00019930       0.00025927
I       11.58012624      11.49267615      -0.85966808        4       0.00001014       0.00016415      -0.00002264
I       17.41929891      15.63230760      -1.03230491        5       0.00000432      -0.00010117       0.00014952
I        6.14481414       6.95994564       2.12151089        6       0.00008137      -0.00007603      -0.00013810
I       22.85476600      20.16497595      -4.01329249        7      -0.00003767       0.00023090       0.00036487
I       20.58982370      22.24000317      -0.75497355        8      -0.00014049      -0.00026791      -0.00032089
I        8.40973533       4.88530376      -1.13652715        9       0.00020506       0.00000107       0.00014748
