10
Lattice="7.939824392206921 0.0 0.0 -0.4035924986687659 7.878414042537805 0.0 -0.1300962861343195 1.9465416552663939 7.12151803860032" Properties=species:S:1:pos:R:3 pbc="T T T"
Cs       4.02406978       6.27746927      -0.00004187
Cs       6.80520874       3.65133126      -0.00004187
K       -0.06504814       0.97327083       3.56075902
In       1.64654216       1.02520038       0.00003852
I        3.59651834       3.48035831       1.42481210
I        7.10270455       8.39499098       5.69676993
I        1.97775643       1.55710308       5.69673793
I        5.83197167       0.38943857       1.42478010
I        1.32272114       7.22734574       1.42479193
I        1.43662908       4.64804209       5.69674976
