10
Lattice="9.049134711643246 -2.085235710816077 0.47916210768302747 -2.6823725287342137 8.822129142622558 -1.20352020169211 -0.20896649515102256 1.1346204090592094 8.753246011042796" Properties=species:S:1:pos:R:3:spacegroup_kinds:I:1:forces:R:3 spacegroup="P 1" unit_cell=conventional occupancy="_JSON {\"0\": {\"Cs\": 1.0}, \"1\": {\"Cs\": 1.0}, \"2\": {\"K\": 1.0}, \"3\": {\"In\": 1.0}, \"4\": {\"I\": 1.0}, \"5\": {\"I\": 1.0}, \"6\": {\"I\": 1.0}, \"7\": {\"I\": 1.0}, \"8\": {\"I\": 1.0}, \"9\": {\"I\": 1.0}}" energy=-25.793812935046244 free_energy=-25.793812935046244 stress="-3.002181416033703e-07 -4.0672522036657445e-06 -6.698778671046378e-06 -4.0672522036657445e-06 -4.9628869442993715e-06 3.1504002724030666e-06 -6.698778671046378e-06 3.1504002724030666e-06 2.439949108831292e-07" pbc="T T T"
Cs       2.13036432       6.80970350       8.05920408        0      -0.00013491       0.00019776      -0.00061960
Cs       6.04087850       3.17902782       8.64900392        1      -0.00003512      -0.00038146      -0.00036995
K        1.00644325       1.05977639       4.33874659        2       0.00000799      -0.00074137      -0.00034380
In       1.11136500       0.49095318      -0.03835645        3      -0.00032719      -0.00020305       0.00027273
I        2.73319861       2.49069065       1.52260973        4      -0.00050604      -0.00004054       0.00015381
I        5.64716931       6.36268537       6.43013983        5       0.00024259       0.00042285      -0.00006855
I        3.31839927       0.86123464       7.08916584        6      -0.00000010       0.00031502       0.00017862
I        7.74426235      -0.83004647       2.06678502        7       0.00023629       0.00034690       0.00053328
I       -0.89982089       7.23031263       0.82603440        8      -0.00000761      -0.00000220      -0.00003698
I        0.23037385       3.70923825       6.64797252        9       0.00052410       0.00008611       0.00030043
