20
Lattice="23.055847283259816 5.615974064081483 3.4038572968479297 5.710718488518669 8.974281100315212 0.9435023671044258 10.919062371652501 8.930515514736173 7.583677956640662" Properties=species:S:1:pos:R:3:spacegroup_kinds:I:1:forces:R:3 spacegroup="P 1" unit_cell=conventional occupancy="_JSON {\"0\": {\"Cs\": 1.0}, \"1\": {\"Cs\": 1.0}, \"2\": {\"K\": 1.0}, \"3\": {\"In\": 1.0}, \"4\": {\"I\": 1.0}, \"5\": {\"I\": 1.0}, \"6\": {\"I\": 1.0}, \"7\": {\"I\": 1.0}, \"8\": {\"I\": 1.0}, \"9\": {\"I\": 1.0}, \"10\": {\"Cs\": 1.0}, \"11\": {\"Cs\": 1.0}, \"12\": {\"K\": 1.0}, \"13\": {\"In\": 1.0}, \"14\": {\"I\": 1.0}, \"15\": {\"I\": 1.0}, \"16\": {\"I\": 1.0}, \"17\": {\"I\": 1.0}, \"18\": {\"I\": 1.0}, \"19\": {\"I\": 1.0}}" energy=-51.440142608949515 free_energy=-51.440142608949515 stress="-3.8049672499982297e-06 -1.7172036166767959e-06 -3.546320228679112e-07 -1.7172036166767959e-06 2.001824392865005e-06 2.2323227242310545e-06 -3.546320228679112e-07 2.2323227242310545e-06 -1.7958714799864637e-06" pbc="T T T"
Cs       8.05163456       6.11567371       4.45181226        0      -0.00010406      -0.00010568      -0.00031963
Cs      20.10366597      14.59851115       5.77899573        1       0.00076278      -0.00009707      -0.00026846
K       14.07872180      10.35585963       5.11368870        2       0.00033092       0.00044796       0.00016051
In      23.05640665       5.61579591       3.40370818        3      -0.00075043       0.00004171       0.00007186
I       11.21431224       8.38711531       4.69249054        4       0.00016443       0.00047888       0.00015804
I       16.94329802      12.32487273       5.53619534        5      -0.00008046      -0.00057108       0.00031668
I       16.56186734       8.82520306       3.15689035        6      -0.00031126       0.00087937      -0.00000030
I       11.59699269      11.88681762       7.07173384        7      -0.00020448       0.00009866      -0.00005777
I        8.58564169       8.40989688       1.34051863        8       0.00004508      -0.00037160       0.00019138
I       19.57297244      12.30375071       8.88881118        9       0.00013792      -0.00079365      -0.00024554
Cs      19.57955880       8.92366119       6.15374122       10      -0.00010467      -0.00010781      -0.00032027
Cs      31.63158830      17.40649748       7.48092403       11       0.00076644      -0.00009495      -0.00026852
K       25.60664396      13.16384558       6.81561699       12       0.00033726       0.00045301       0.00015958
In      11.52848343       2.80781060       1.70177836       13      -0.00073952       0.00002932       0.00006763
I       22.74223379      11.19510115       6.39441838       14       0.00016910       0.00048098       0.00016103
I       28.47122851      15.13286360       7.23812946       15      -0.00009846      -0.00058282       0.00029504
I       28.08979178      11.63319071       4.85881872       16      -0.00031308       0.00087944       0.00000180
I       23.12491508      14.69480354       8.77366252       17      -0.00020129       0.00010268      -0.00005894
I       20.11356735      11.21788450       3.04244906       18       0.00003680      -0.00036939       0.00018716
I       31.10089169      15.11173650      10.59073542       19       0.00015696      -0.00079794      -0.00023127
