40
Lattice="14.585767362680036 0.04653427210477416 -4.802022261842989 2.7153229891912645 21.572073987626514 1.1917489580919243 -0.7330749456269344 4.945674873005792 8.244302832809804" Properties=species:S:1:pos:R:3:spacegroup_kinds:I:1:forces:R:3 spacegroup="P 1" unit_cell=conventional occupancy="_JSON {\"0\": {\"Cs\": 1.0}, \"1\": {\"Cs\": 1.0}, \"2\": {\"K\": 1.0}, \"3\": {\"In\": 1.0}, \"4\": {\"I\": 1.0}, \"5\": {\"I\": 1.0}, \"6\": {\"I\": 1.0}, \"7\": {\"I\": 1.0}, \"8\": {\"I\": 1.0}, \"9\": {\"I\": 1.0}, \"10\": {\"Cs\": 1.0}, \"11\": {\"Cs\": 1.0}, \"12\": {\"K\": 1.0}, \"13\": {\"In\": 1.0}, \"14\": {\"I\": 1.0}, \"15\": {\"I\": 1.0}, \"16\": {\"I\": 1.0}, \"17\": {\"I\": 1.0}, \"18\": {\"I\": 1.0}, \"19\": {\"I\": 1.0}, \"20\": {\"Cs\": 1.0}, \"21\": {\"Cs\": 1.0}, \"22\": {\"K\": 1.0}, \"23\": {\"In\": 1.0}, \"24\": {\"I\": 1.0}, \"25\": {\"I\": 1.0}, \"26\": {\"I\": 1.0}, \"27\": {\"I\": 1.0}, \"28\": {\"I\": 1.0}, \"29\": {\"I\": 1.0}, \"30\": {\"Cs\": 1.0}, \"31\": {\"Cs\": 1.0}, \"32\": {\"K\": 1.0}, \"33\": {\"In\": 1.0}, \"34\": {\"I\": 1.0}, \"35\": {\"I\": 1.0}, \"36\": {\"I\": 1.0}, \"37\": {\"I\": 1.0}, \"38\": {\"I\": 1.0}, \"39\": {\"I\": 1.0}}" energy=-97.0405488173217 free_energy=-97.0405488173217 stress="5.093324687473828e-06 -7.2669364738546845e-06 -1.4351487396037667e-06 -7.2669364738546845e-06 -6.463431224256568e-06 1.42205214462224e-06 -1.4351487396037667e-06 1.42205214462224e-06 1.4931633217957934e-06" pbc="T T T"
Cs       2.40135749       3.89959587      -0.57152820        0       0.00017682      -0.00018599       0.00015302
Cs       5.39050825      12.15281159       6.90906555        1       0.00039059      -0.00026615      -0.00015620
K        4.39628534       8.42905641       3.08622074        2       0.00018205       0.00036371       0.00015677
In      -0.09275532       0.05847755       0.64478834        3       0.00028707      -0.00025627      -0.00006488
I        4.62459650       3.46695891       2.64243150        4      -0.00033061      -0.00023947      -0.00031716
I        3.90134147      12.00548949       3.09909943        5       0.00069869       0.00013464       0.00019677
I        6.54492660       5.62891362       2.58538995        6       0.00032519       0.00066872      -0.00011051
I       15.15056024       9.22838648      -0.84235413        7      -0.00034573       0.00048591      -0.00015210
I        2.60600311       7.77805071       0.21015469        8       0.00016935      -0.00035289      -0.00000920
I        5.29032392       8.29631499       6.41126072        9       0.00000915      -0.00062713       0.00056046
Cs       3.75959380      14.68568375       0.02456893       10      -0.00061145      -0.00005799       0.00000265
Cs       6.74827861      22.93853776       7.50477017       11       0.00015296      -0.00007350      -0.00002070
K        5.75396180      19.21512459       3.68200432       12       0.00006072       0.00036217       0.00023703
In       1.26534363      10.84404055       1.24071715       13      -0.00027394       0.00026667      -0.00032908
I        5.98261860      14.25288271       3.23797807       14      -0.00007338       0.00013474      -0.00007550
I        5.25906537      22.79185325       3.69571058       15       0.00002788      -0.00039271      -0.00019664
I        7.90297556      16.41507408       3.18079504       16      -0.00066700      -0.00017963      -0.00002834
I       16.50847196      20.01557877      -0.24627433       17      -0.00061227      -0.00008795      -0.00050441
I        3.96358219      18.56432676       0.80604067       18       0.00026489      -0.00031937       0.00014434
I        6.64803118      19.08229739       7.00733438       19      -0.00000058      -0.00049069       0.00006973
Cs       9.69456144       3.92261879      -2.97201576       20      -0.00038217      -0.00000344      -0.00040971
Cs      12.68334103      12.17545899       4.50782794       21       0.00038146       0.00015109       0.00012999
K       11.68940585       8.45295857       0.68509546       22      -0.00017879      -0.00018467      -0.00017838
In       7.20029140       0.08112432      -1.75666198       23       0.00026150       0.00028827       0.00006532
I       11.91778653       3.49028270       0.24139253       24      -0.00013850      -0.00031587      -0.00035137
I       11.19447306      12.02872676       0.69917526       25      -0.00009427       0.00036374      -0.00061259
I       -0.74787177       5.60574872       4.98608983       26      -0.00001070       0.00076358       0.00008262
I        7.85817198       9.20587753       1.55836407       27      -0.00052523       0.00013464      -0.00023141
I        9.89888641       7.80130047      -2.19135494       28       0.00036026       0.00001562       0.00066854
I       12.58321692       8.31910633       4.01046181       29      -0.00001486      -0.00006066       0.00018524
Cs      11.05177311      14.70871177      -2.37654755       30       0.00047401      -0.00032003      -0.00000441
Cs      14.04085403      22.96202409       5.10396544       31       0.00077941      -0.00037072      -0.00009753
K       13.04718646      19.23885530       1.28076545       32      -0.00008955       0.00011320       0.00018572
In       8.55768214      10.86742804      -1.16114364       33       0.00064307      -0.00008684       0.00049375
I       13.27518060      14.27625164       0.83750778       34      -0.00020151       0.00007700      -0.00037967
I       12.55242558      22.81474445       1.29406719       35      -0.00045409      -0.00019836       0.00002209
I        0.60953126      16.39204830       5.58249132       36      -0.00008799      -0.00022859      -0.00020941
I        9.21562122      19.99093900       2.15409838       37      -0.00030619       0.00074571      -0.00000447
I       11.25678099      18.58687223      -1.59544578       38      -0.00008880       0.00031107       0.00046089
I       13.94099133      19.10515865       4.60594523       39      -0.00015745      -0.00008156       0.00062873
