40
Lattice="16.032354015222236 0.0 0.0 2.039777633375513 18.81377487305811 0.0 1.2115126861012144 3.748685916955764 6.863499108988979" Properties=species:S:1:pos:R:3 pbc="T T T"
Cs       2.56176398       3.28885405       1.71589157
Cs       7.68581428       9.86671827       5.14760687
K        5.12378901       6.57778608       3.43174913
In       0.00000020       0.00000077       0.00000032
I        4.32510281       3.23192454       3.13486256
I        5.92247524       9.92364699       3.72863572
I        9.51082104       4.40295559       2.13548665
I        0.73675527       8.75261601       4.72801127
I        3.17706148       7.60629235       1.05446300
I        7.07051740       5.54928281       5.80903709
Cs       3.58165280      12.69574149       1.71589157
Cs       8.70570309      19.27360571       5.14760687
K        6.14367782      15.98467352       3.43174913
In       1.01988901       9.40688820       0.00000032
I        5.34499163      12.63881198       3.13486256
I        6.94236405      19.33053443       3.72863572
I       10.53070986      13.80984302       2.13548665
I        1.75664409      18.15950344       4.72801127
I        4.19695030      17.01317979       1.05446300
I        8.09040622      14.95617025       5.80903709
Cs      10.57794099       3.28885405       1.71589157
Cs      15.70199128       9.86671827       5.14760687
K       13.13996601       6.57778608       3.43174913
In       8.01617720       0.00000077       0.00000032
I       12.34127982       3.23192454       3.13486256
I       13.93865225       9.92364699       3.72863572
I       17.52699805       4.40295559       2.13548665
I        8.75293228       8.75261601       4.72801127
I       11.19323849       7.60629235       1.05446300
I       15.08669441       5.54928281       5.80903709
Cs      11.59782981      12.69574149       1.71589157
Cs      16.72188010      19.27360571       5.14760687
K       14.15985483      15.98467352       3.43174913
In       9.03606602       9.40688820       0.00000032
I       13.36116863      12.63881198       3.13486256
I       14.95854106      19.33053443       3.72863572
I       18.54688686      13.80984302       2.13548665
I        9.77282110      18.15950344       4.72801127
I       12.21312731      17.01317979       1.05446300
I       16.10658322      14.95617025       5.80903709
