40
Lattice="12.773939554185246 -7.639338329581847e-10 2.539715437778543e-16 -7.639338328176535e-10 12.773939554186102 -4.155511872880461e-17 2.5426502535909934e-16 -4.132345703265438e-17 12.773939553444018" Properties=species:S:1:pos:R:3:spacegroup_kinds:I:1:forces:R:3 spacegroup="P 1" unit_cell=conventional occupancy="_JSON {\"0\": {\"Cs\": 1.0}, \"1\": {\"Pb\": 1.0}, \"2\": {\"I\": 1.0}, \"3\": {\"I\": 1.0}, \"4\": {\"I\": 1.0}, \"5\": {\"Cs\": 1.0}, \"6\": {\"Pb\": 1.0}, \"7\": {\"I\": 1.0}, \"8\": {\"I\": 1.0}, \"9\": {\"I\": 1.0}, \"10\": {\"Cs\": 1.0}, \"11\": {\"Pb\": 1.0}, \"12\": {\"I\": 1.0}, \"13\": {\"I\": 1.0}, \"14\": {\"I\": 1.0}, \"15\": {\"Cs\": 1.0}, \"16\": {\"Pb\": 1.0}, \"17\": {\"I\": 1.0}, \"18\": {\"I\": 1.0}, \"19\": {\"I\": 1.0}, \"20\": {\"Cs\": 1.0}, \"21\": {\"Pb\": 1.0}, \"22\": {\"I\": 1.0}, \"23\": {\"I\": 1.0}, \"24\": {\"I\": 1.0}, \"25\": {\"Cs\": 1.0}, \"26\": {\"Pb\": 1.0}, \"27\": {\"I\": 1.0}, \"28\": {\"I\": 1.0}, \"29\": {\"I\": 1.0}, \"30\": {\"Cs\": 1.0}, \"31\": {\"Pb\": 1.0}, \"32\": {\"I\": 1.0}, \"33\": {\"I\": 1.0}, \"34\": {\"I\": 1.0}, \"35\": {\"Cs\": 1.0}, \"36\": {\"Pb\": 1.0}, \"37\": {\"I\": 1.0}, \"38\": {\"I\": 1.0}, \"39\": {\"I\": 1.0}}" energy=-111.84593921422727 free_energy=-111.84593921422727 stress="-4.42324364546344e-06 -2.979453077581409e-11 -5.6618870557773926e-18 -2.979453077581409e-11 -4.423243639150816e-06 4.421525713700211e-18 -5.6618870557773926e-18 4.421525713700211e-18 -4.4231244837832065e-06" pbc="T T T"
Cs       3.19364383       3.19332594       3.19348489        0       0.00001413      -0.00001413      -0.00000000
Pb       0.00000429      -0.00000429      -0.00000000        1       0.00003472      -0.00003472      -0.00000000
I       -0.00004881       0.00004881       3.19348489        2       0.00000535      -0.00000535       0.00000000
I        3.19351561       0.00004881       0.00000000        3      -0.00005954      -0.00000535       0.00000000
I       -0.00004881       3.19345417       0.00000000        4       0.00000535       0.00005954       0.00000000
Cs       3.19364383       3.19332594       9.58045467        5       0.00001413      -0.00001413      -0.00000000
Pb       0.00000429      -0.00000429       6.38696978        6       0.00003472      -0.00003472       0.00000000
I       -0.00004881       0.00004881       9.58045467        7       0.00000535      -0.00000535      -0.00000000
I        3.19351561       0.00004881       6.38696978        8      -0.00005954      -0.00000535      -0.00000000
I       -0.00004881       3.19345417       6.38696978        9       0.00000535       0.00005954      -0.00000000
Cs       3.19364383       9.58029572       3.19348489       10       0.00001413      -0.00001413      -0.00000000
Pb       0.00000429       6.38696549      -0.00000000       11       0.00003472      -0.00003472      -0.00000000
I       -0.00004881       6.38701859       3.19348489       12       0.00000535      -0.00000535       0.00000000
I        3.19351561       6.38701859       0.00000000       13      -0.00005954      -0.00000535      -0.00000000
I       -0.00004881       9.58042395       0.00000000       14       0.00000535       0.00005954      -0.00000000
Cs       3.19364383       9.58029572       9.58045467       15       0.00001413      -0.00001413      -0.00000000
Pb       0.00000429       6.38696549       6.38696978       16       0.00003472      -0.00003472       0.00000000
I       -0.00004881       6.38701859       9.58045467       17       0.00000535      -0.00000535      -0.00000000
I        3.19351561       6.38701859       6.38696978       18      -0.00005954      -0.00000535       0.00000000
I       -0.00004881       9.58042395       6.38696978       19       0.00000535       0.00005954       0.00000000
Cs       9.58061361       3.19332594       3.19348489       20       0.00001413      -0.00001413      -0.00000000
Pb       6.38697406      -0.00000429      -0.00000000       21       0.00003472      -0.00003472      -0.00000000
I        6.38692097       0.00004881       3.19348489       22       0.00000535      -0.00000535       0.00000000
I        9.58048538       0.00004881       0.00000000       23      -0.00005954      -0.00000535      -0.00000000
I        6.38692097       3.19345417       0.00000000       24       0.00000535       0.00005954      -0.00000000
Cs       9.58061361       3.19332594       9.58045467       25       0.00001413      -0.00001413      -0.00000000
Pb       6.38697406      -0.00000429       6.38696978       26       0.00003472      -0.00003472       0.00000000
I        6.38692097       0.00004881       9.58045467       27       0.00000535      -0.00000535      -0.00000000
I        9.58048538       0.00004881       6.38696978       28      -0.00005954      -0.00000535       0.00000000
I        6.38692097       3.19345417       6.38696978       29       0.00000535       0.00005954      -0.00000000
Cs       9.58061361       9.58029572       3.19348489       30       0.00001413      -0.00001413      -0.00000000
Pb       6.38697406       6.38696549      -0.00000000       31       0.00003472      -0.00003472      -0.00000000
I        6.38692097       6.38701859       3.19348489       32       0.00000535      -0.00000535       0.00000000
I        9.58048538       6.38701859       0.00000000       33      -0.00005954      -0.00000535      -0.00000000
I        6.38692097       9.58042395       0.00000000       34       0.00000535       0.00005954      -0.00000000
Cs       9.58061361       9.58029572       9.58045467       35       0.00001413      -0.00001413      -0.00000000
Pb       6.38697406       6.38696549       6.38696978       36       0.00003472      -0.00003472       0.00000000
I        6.38692097       6.38701859       9.58045467       37       0.00000535      -0.00000535      -0.00000000
I        9.58048538       6.38701859       6.38696978       38      -0.00005954      -0.00000535       0.00000000
I        6.38692097       9.58042395       6.38696978       39       0.00000535       0.00005954       0.00000000
