160
Lattice="18.89150836131526 0.0 0.0 -7.29376246807151 12.859248306557271 0.0 -8.791640130978825 -1.1313194684031902 26.461279038080193" Properties=species:S:1:pos:R:3 pbc="T T T"
Cs       0.38492335       6.10143918       3.30765985
Cs      -1.99816171       2.88675036       3.30765985
Cs       1.78254298       0.38983086       9.92297961
Cs       4.16567515       3.60476618       9.92297961
Pb       0.38220061       0.31374019      -0.00000202
Pb       3.28165124       3.52848881      -0.00000547
Pb      -2.19791003      -0.28282987       6.61531976
Pb       1.08374121       3.24565894       6.61532517
I       -0.52127636       4.78362556       0.54982520
I        2.36927838       1.56880359       0.54994160
I        7.89455328       0.23299593       3.30765985
I        2.68875539       1.70776688      12.68065192
I       -0.20179570       4.92256906      12.68076831
I        2.94834438       3.44768182       3.30765985
I       -2.35377857       4.54781684       6.06549450
I        0.53677617       1.33299487       6.06537810
I       -5.72710727       6.25852398       9.92297961
I        4.52125760       1.94357560       7.16530730
I        1.63070651       5.15837779       7.16519091
I       -0.78088619       3.04358572       9.92297961
Cs      -4.01089671       5.53577945      16.53829937
Cs      -6.39398177       2.32109062      16.53829937
Cs      -2.61327708      -0.17582888      23.15361913
Cs      -0.23014492       3.03910645      23.15361913
Pb      -4.01361945      -0.25191954      13.23063750
Pb      -1.11416882       2.96282907      13.23063404
Pb      -6.59373010      -0.84848960      19.84595928
Pb      -3.31207885       2.67999921      19.84596469
I       -4.91709643       4.21796583      13.78046472
I       -2.02654169       1.00314386      13.78058112
I        3.49873321      -0.33266380      16.53829937
I       -1.70706467       1.14210714      25.91129143
I       -4.59761576       4.35690933      25.91140783
I       -1.44747568       2.88202209      16.53829937
I       -6.74959864       3.98215711      19.29613401
I       -3.85904389       0.76733514      19.29601762
I      -10.12292734       5.69286425      23.15361913
I        0.12543754       1.37791587      20.39594682
I       -2.76511356       4.59271805      20.39583043
I       -5.17670626       2.47792599      23.15361913
Cs      -3.26195788      12.53106334       3.30765985
Cs      -5.64504294       9.31637451       3.30765985
Cs      -1.86433825       6.81945501       9.92297961
Cs       0.51879391      10.03439034       9.92297961
Pb      -3.26468062       6.74336434      -0.00000202
Pb      -0.36522999       9.95811296      -0.00000547
Pb      -5.84479127       6.14679429       6.61531976
Pb      -2.56314002       9.67528309       6.61532517
I       -4.16815760      11.21324972       0.54982520
I       -1.27760285       7.99842775       0.54994160
I        4.24767204       6.66262008       3.30765985
I       -0.95812584       8.13739103      12.68065192
I       -3.84867693      11.35219322      12.68076831
I       -0.69853685       9.87730597       3.30765985
I       -6.00065981      10.97744099       6.06549450
I       -3.11010506       7.76261903       6.06537810
I       -9.37398851      12.68814814       9.92297961
I        0.87437637       8.37319975       7.16530730
I       -2.01617472      11.58800194       7.16519091
I       -4.42776742       9.47320987       9.92297961
Cs      -7.65777795      11.96540360      16.53829937
Cs     -10.04086301       8.75071477      16.53829937
Cs      -6.26015832       6.25379528      23.15361913
Cs      -3.87702615       9.46873060      23.15361913
Pb      -7.66050069       6.17770461      13.23063750
Pb      -4.76105006       9.39245323      13.23063404
Pb     -10.24061133       5.58113455      19.84595928
Pb      -6.95896009       9.10962336      19.84596469
I       -8.56397766      10.64758998      13.78046472
I       -5.67342292       7.43276801      13.78058112
I       -0.14814802       6.09696035      16.53829937
I       -5.35394591       7.57173130      25.91129143
I       -8.24449700      10.78653348      25.91140783
I       -5.09435692       9.31164624      16.53829937
I      -10.39647987      10.41178126      19.29613401
I       -7.50592513       7.19695929      19.29601762
I      -13.76980857      12.12248840      23.15361913
I       -3.52144370       7.80754002      20.39594682
I       -6.41199479      11.02234220      20.39583043
I       -8.82358749       8.90755014      23.15361913
Cs       9.83067753       6.10143918       3.30765985
Cs       7.44759247       2.88675036       3.30765985
Cs      11.22829716       0.38983086       9.92297961
Cs      13.61142933       3.60476618       9.92297961
Pb       9.82795479       0.31374019      -0.00000202
Pb      12.72740542       3.52848881      -0.00000547
Pb       7.24784415      -0.28282987       6.61531976
Pb      10.52949539       3.24565894       6.61532517
I        8.92447782       4.78362556       0.54982520
I       11.81503256       1.56880359       0.54994160
I       17.34030746       0.23299593       3.30765985
I       12.13450957       1.70776688      12.68065192
I        9.24395848       4.92256906      12.68076831
I       12.39409856       3.44768182       3.30765985
I        7.09197561       4.54781684       6.06549450
I        9.98253035       1.33299487       6.06537810
I        3.71864691       6.25852398       9.92297961
I       13.96701178       1.94357560       7.16530730
I       11.07646069       5.15837779       7.16519091
I        8.66486799       3.04358572       9.92297961
Cs       5.43485747       5.53577945      16.53829937
Cs       3.05177241       2.32109062      16.53829937
Cs       6.83247710      -0.17582888      23.15361913
Cs       9.21560926       3.03910645      23.15361913
Pb       5.43213473      -0.25191954      13.23063750
Pb       8.33158536       2.96282907      13.23063404
Pb       2.85202408      -0.84848960      19.84595928
Pb       6.13367533       2.67999921      19.84596469
I        4.52865775       4.21796583      13.78046472
I        7.41921249       1.00314386      13.78058112
I       12.94448739      -0.33266380      16.53829937
I        7.73868951       1.14210714      25.91129143
I        4.84813842       4.35690933      25.91140783
I        7.99827850       2.88202209      16.53829937
I        2.69615554       3.98215711      19.29613401
I        5.58671029       0.76733514      19.29601762
I       -0.67717316       5.69286425      23.15361913
I        9.57119172       1.37791587      20.39594682
I        6.68064062       4.59271805      20.39583043
I        4.26904792       2.47792599      23.15361913
Cs       6.18379630      12.53106334       3.30765985
Cs       3.80071124       9.31637451       3.30765985
Cs       7.58141593       6.81945501       9.92297961
Cs       9.96454810      10.03439034       9.92297961
Pb       6.18107356       6.74336434      -0.00000202
Pb       9.08052419       9.95811296      -0.00000547
Pb       3.60096291       6.14679429       6.61531976
Pb       6.88261416       9.67528309       6.61532517
I        5.27759658      11.21324972       0.54982520
I        8.16815133       7.99842775       0.54994160
I       13.69342622       6.66262008       3.30765985
I        8.48762834       8.13739103      12.68065192
I        5.59707725      11.35219322      12.68076831
I        8.74721733       9.87730597       3.30765985
I        3.44509437      10.97744099       6.06549450
I        6.33564912       7.76261903       6.06537810
I        0.07176567      12.68814814       9.92297961
I       10.32013055       8.37319975       7.16530730
I        7.42957946      11.58800194       7.16519091
I        5.01798676       9.47320987       9.92297961
Cs       1.78797623      11.96540360      16.53829937
Cs      -0.59510883       8.75071477      16.53829937
Cs       3.18559586       6.25379528      23.15361913
Cs       5.56872803       9.46873060      23.15361913
Pb       1.78525349       6.17770461      13.23063750
Pb       4.68470412       9.39245323      13.23063404
Pb      -0.79485715       5.58113455      19.84595928
Pb       2.48679409       9.10962336      19.84596469
I        0.88177652      10.64758998      13.78046472
I        3.77233126       7.43276801      13.78058112
I        9.29760616       6.09696035      16.53829937
I        4.09180827       7.57173130      25.91129143
I        1.20125718      10.78653348      25.91140783
I        4.35139727       9.31164624      16.53829937
I       -0.95072569      10.41178126      19.29613401
I        1.93982905       7.19695929      19.29601762
I       -4.32405439      12.12248840      23.15361913
I        5.92431048       7.80754002      20.39594682
I        3.03375939      11.02234220      20.39583043
I        0.62216669       8.90755014      23.15361913
