160
Lattice="21.45173747703044 -0.31101338210793933 3.9026969076735547 -8.454845881948724 14.582264431804763 -1.2179835945240487 -4.436026980944993 -0.5355114593284814 24.335172127651056" Properties=species:S:1:pos:R:3:spacegroup_kinds:I:1:forces:R:3 spacegroup="P 1" unit_cell=conventional occupancy="_JSON {\"0\": {\"Cs\": 1.0}, \"1\": {\"Cs\": 1.0}, \"2\": {\"Cs\": 1.0}, \"3\": {\"Cs\": 1.0}, \"4\": {\"Pb\": 1.0}, \"5\": {\"Pb\": 1.0}, \"6\": {\"Pb\": 1.0}, \"7\": {\"Pb\": 1.0}, \"8\": {\"I\": 1.0}, \"9\": {\"I\": 1.0}, \"10\": {\"I\": 1.0}, \"11\": {\"I\": 1.0}, \"12\": {\"I\": 1.0}, \"13\": {\"I\": 1.0}, \"14\": {\"I\": 1.0}, \"15\": {\"I\": 1.0}, \"16\": {\"I\": 1.0}, \"17\": {\"I\": 1.0}, \"18\": {\"I\": 1.0}, \"19\": {\"I\": 1.0}, \"20\": {\"Cs\": 1.0}, \"21\": {\"Cs\": 1.0}, \"22\": {\"Cs\": 1.0}, \"23\": {\"Cs\": 1.0}, \"24\": {\"Pb\": 1.0}, \"25\": {\"Pb\": 1.0}, \"26\": {\"Pb\": 1.0}, \"27\": {\"Pb\": 1.0}, \"28\": {\"I\": 1.0}, \"29\": {\"I\": 1.0}, \"30\": {\"I\": 1.0}, \"31\": {\"I\": 1.0}, \"32\": {\"I\": 1.0}, \"33\": {\"I\": 1.0}, \"34\": {\"I\": 1.0}, \"35\": {\"I\": 1.0}, \"36\": {\"I\": 1.0}, \"37\": {\"I\": 1.0}, \"38\": {\"I\": 1.0}, \"39\": {\"I\": 1.0}, \"40\": {\"Cs\": 1.0}, \"41\": {\"Cs\": 1.0}, \"42\": {\"Cs\": 1.0}, \"43\": {\"Cs\": 1.0}, \"44\": {\"Pb\": 1.0}, \"45\": {\"Pb\": 1.0}, \"46\": {\"Pb\": 1.0}, \"47\": {\"Pb\": 1.0}, \"48\": {\"I\": 1.0}, \"49\": {\"I\": 1.0}, \"50\": {\"I\": 1.0}, \"51\": {\"I\": 1.0}, \"52\": {\"I\": 1.0}, \"53\": {\"I\": 1.0}, \"54\": {\"I\": 1.0}, \"55\": {\"I\": 1.0}, \"56\": {\"I\": 1.0}, \"57\": {\"I\": 1.0}, \"58\": {\"I\": 1.0}, \"59\": {\"I\": 1.0}, \"60\": {\"Cs\": 1.0}, \"61\": {\"Cs\": 1.0}, \"62\": {\"Cs\": 1.0}, \"63\": {\"Cs\": 1.0}, \"64\": {\"Pb\": 1.0}, \"65\": {\"Pb\": 1.0}, \"66\": {\"Pb\": 1.0}, \"67\": {\"Pb\": 1.0}, \"68\": {\"I\": 1.0}, \"69\": {\"I\": 1.0}, \"70\": {\"I\": 1.0}, \"71\": {\"I\": 1.0}, \"72\": {\"I\": 1.0}, \"73\": {\"I\": 1.0}, \"74\": {\"I\": 1.0}, \"75\": {\"I\": 1.0}, \"76\": {\"I\": 1.0}, \"77\": {\"I\": 1.0}, \"78\": {\"I\": 1.0}, \"79\": {\"I\": 1.0}, \"80\": {\"Cs\": 1.0}, \"81\": {\"Cs\": 1.0}, \"82\": {\"Cs\": 1.0}, \"83\": {\"Cs\": 1.0}, \"84\": {\"Pb\": 1.0}, \"85\": {\"Pb\": 1.0}, \"86\": {\"Pb\": 1.0}, \"87\": {\"Pb\": 1.0}, \"88\": {\"I\": 1.0}, \"89\": {\"I\": 1.0}, \"90\": {\"I\": 1.0}, \"91\": {\"I\": 1.0}, \"92\": {\"I\": 1.0}, \"93\": {\"I\": 1.0}, \"94\": {\"I\": 1.0}, \"95\": {\"I\": 1.0}, \"96\": {\"I\": 1.0}, \"97\": {\"I\": 1.0}, \"98\": {\"I\": 1.0}, \"99\": {\"I\": 1.0}, \"100\": {\"Cs\": 1.0}, \"101\": {\"Cs\": 1.0}, \"102\": {\"Cs\": 1.0}, \"103\": {\"Cs\": 1.0}, \"104\": {\"Pb\": 1.0}, \"105\": {\"Pb\": 1.0}, \"106\": {\"Pb\": 1.0}, \"107\": {\"Pb\": 1.0}, \"108\": {\"I\": 1.0}, \"109\": {\"I\": 1.0}, \"110\": {\"I\": 1.0}, \"111\": {\"I\": 1.0}, \"112\": {\"I\": 1.0}, \"113\": {\"I\": 1.0}, \"114\": {\"I\": 1.0}, \"115\": {\"I\": 1.0}, \"116\": {\"I\": 1.0}, \"117\": {\"I\": 1.0}, \"118\": {\"I\": 1.0}, \"119\": {\"I\": 1.0}, \"120\": {\"Cs\": 1.0}, \"121\": {\"Cs\": 1.0}, \"122\": {\"Cs\": 1.0}, \"123\": {\"Cs\": 1.0}, \"124\": {\"Pb\": 1.0}, \"125\": {\"Pb\": 1.0}, \"126\": {\"Pb\": 1.0}, \"127\": {\"Pb\": 1.0}, \"128\": {\"I\": 1.0}, \"129\": {\"I\": 1.0}, \"130\": {\"I\": 1.0}, \"131\": {\"I\": 1.0}, \"132\": {\"I\": 1.0}, \"133\": {\"I\": 1.0}, \"134\": {\"I\": 1.0}, \"135\": {\"I\": 1.0}, \"136\": {\"I\": 1.0}, \"137\": {\"I\": 1.0}, \"138\": {\"I\": 1.0}, \"139\": {\"I\": 1.0}, \"140\": {\"Cs\": 1.0}, \"141\": {\"Cs\": 1.0}, \"142\": {\"Cs\": 1.0}, \"143\": {\"Cs\": 1.0}, \"144\": {\"Pb\": 1.0}, \"145\": {\"Pb\": 1.0}, \"146\": {\"Pb\": 1.0}, \"147\": {\"Pb\": 1.0}, \"148\": {\"I\": 1.0}, \"149\": {\"I\": 1.0}, \"150\": {\"I\": 1.0}, \"151\": {\"I\": 1.0}, \"152\": {\"I\": 1.0}, \"153\": {\"I\": 1.0}, \"154\": {\"I\": 1.0}, \"155\": {\"I\": 1.0}, \"156\": {\"I\": 1.0}, \"157\": {\"I\": 1.0}, \"158\": {\"I\": 1.0}, \"159\": {\"I\": 1.0}}" energy=-452.9597487490895 free_energy=-452.9597487490895 stress="4.516265120676778e-06 -1.758033496829781e-07 -2.5434225421576657e-07 -1.758033496829781e-07 5.014428897051592e-06 4.479700484725423e-06 -2.5434225421576657e-07 4.479700484725423e-06 -9.830124228516075e-07" pbc="T T T"
Cs       1.82071049       8.34990958       3.66161969        0      -0.00012210      -0.00009052      -0.00032359
Cs      -1.42924581       4.78191135       2.99010247        1       0.00028855       0.00002443      -0.00009919
Cs       3.27692616      -0.82394336      10.01222720        2      -0.00004956       0.00026526       0.00004369
Cs       6.52534931       2.74461026      10.68333568        3      -0.00002192      -0.00018326      -0.00002792
Pb      -4.02703286      -0.20639854      24.41667659        4      -0.00090706       0.00006269       0.00022466
Pb      -0.77846214       3.36153809      25.08811204        5      -0.00013146       0.00014729       0.00014135
Pb      -0.70059489       0.19529917       6.16537726        6      -0.00011541       0.00045119      -0.00021048
Pb       2.54828006       3.76336563       6.83652830        7      -0.00007887      -0.00043199       0.00019806
I        0.56680766       3.59597050      -0.37055180        8       0.00024584       0.00010794      -0.00012008
I        3.49901089       0.62998704       1.20537349        9       0.00025158      -0.00017770       0.00024874
I        9.87635917       0.76867726       4.96114921       10       0.00005871      -0.00004976       0.00012339
I        4.52996839       3.92957405      14.04394559       11      -0.00023535       0.00025647       0.00004398
I        1.59895493       6.89622236      12.46788769       12      -0.00048428       0.00025821      -0.00014106
I        2.39923606       4.49262920       3.68121824       13       0.00006010      -0.00021798      -0.00018955
I       -0.73738482       3.43870325       6.78420346       14      -0.00013696       0.00000973       0.00006468
I        2.58499335       0.51986307       6.21760437       15       0.00008341       0.00000384       0.00007006
I       -4.77844179       6.75770644       8.71192269       16      -0.00023500      -0.00001347       0.00035980
I        5.83386759       4.08740092       6.88915699       17       0.00024553       0.00021923      -0.00010857
I        2.51209986       7.00655968       7.45581361       18      -0.00004331       0.00022112      -0.00005769
I        2.69679599       3.03400690       9.99223337       19       0.00024146      -0.00014518      -0.00020727
Cs      -0.39728904       8.08210817      15.82922333       20      -0.00012731       0.00003941      -0.00037648
Cs      -3.64721737       4.51409327      15.15772052       21       0.00023941       0.00021555      -0.00019899
Cs       1.05889085      -1.09165040      22.17978943       22       0.00006774       0.00009904       0.00005823
Cs       4.30731232       2.47686318      22.85092238       23       0.00016500      -0.00022391      -0.00004644
Pb      -1.80936802       0.06132536      12.24895547       24       0.00048200       0.00020978       0.00055794
Pb       1.43956497       3.62940881      12.92056197       25      -0.00005449      -0.00062709       0.00001858
Pb      -2.91863157      -0.07232519      18.33295356       26       0.00005821      -0.00002668      -0.00016851
Pb       0.33029595       3.49554804      19.00420933       27       0.00010584      -0.00017125      -0.00020812
I       -1.65129764       3.32820914      11.79698347       28       0.00036859       0.00008070      -0.00006267
I        1.28114612       0.36213450      13.37306832       29      -0.00025879       0.00019111      -0.00006707
I        7.65843875       0.50091148      17.12893484       30       0.00007614      -0.00000860      -0.00061963
I        2.31190406       3.66184516      26.21149249       31      -0.00007571       0.00024919       0.00013189
I       -0.61917846       6.62848376      24.63538623       32      -0.00005849       0.00002783       0.00015528
I        0.18114170       4.22491507      15.84868447       33       0.00008530      -0.00031288       0.00033542
I       -2.95545130       3.17101113      18.95177290       34       0.00002509      -0.00012853       0.00005241
I        0.36699405       0.25203143      18.38516070       35      -0.00009117       0.00028529       0.00017229
I       -6.99638931       6.48991659      20.87958744       36      -0.00021463       0.00006002       0.00010472
I        3.61596984       3.81968262      19.05677939       37      -0.00013224       0.00007882      -0.00012359
I        0.29412783       6.73889872      19.62342013       38      -0.00014058      -0.00014826      -0.00010765
I        0.47879695       2.76625024      22.15980584       39       0.00018564      -0.00011753      -0.00023319
Cs      -2.40666783      15.64103113       3.05265395       40      -0.00019275      -0.00003100      -0.00035755
Cs      -5.65668563      12.07298157       2.38109257       41       0.00032349       0.00018844      -0.00009812
Cs      -0.95053908       6.46720293       9.40318801       42       0.00001854       0.00017950       0.00015323
Cs       2.29795378      10.03574051      10.07435655       43      -0.00000816      -0.00020806      -0.00003747
Pb      -8.25454068       7.08474753      23.80781232       44      -0.00035956       0.00005394      -0.00039092
Pb      -5.00578649      10.65269748      24.47925649       45      -0.00028104       0.00005237      -0.00036733
Pb      16.52373078       7.17547458       9.45905996       46      -0.00007784       0.00014167      -0.00007024
Pb      -1.67917211      11.05441533       6.22746729       47       0.00003124      -0.00007011       0.00041876
I       -3.66054726      10.88714558      -0.97951878       48       0.00011678      -0.00000890      -0.00011095
I       -0.72836794       7.92093883       0.59640621       49       0.00016284       0.00021227       0.00020990
I        5.64899374       8.05981905       4.35228057       50       0.00006439      -0.00004038      -0.00024937
I        0.30262819      11.22092350      13.43499968       51      -0.00040023      -0.00017857      -0.00001759
I       -2.62851408      14.18721465      11.85887364       52      -0.00033205       0.00049431      -0.00009248
I       -1.82814205      11.78376228       3.07225834       53      -0.00001074      -0.00021620      -0.00014881
I       -4.96483407      10.72980454       6.17520533       54      -0.00011414       0.00006600       0.00004556
I       -1.64249676       7.81097487       5.60858253       55       0.00019369       0.00006508       0.00009490
I       -0.55106830      -0.53339891       9.32087412       56      -0.00010890      -0.00013349       0.00047655
I        1.60646582      11.37865158       6.28018839       57       0.00014314      -0.00015132      -0.00015746
I       -1.71530628      14.29778536       6.84684097       58      -0.00006757      -0.00012240      -0.00010565
I       -1.53065288      10.32515330       9.38321934       59       0.00026458      -0.00013602      -0.00021210
Cs      -4.62474246      15.37324280      15.22019247       60      -0.00011171       0.00003170      -0.00028347
Cs      -7.87462355      11.80524298      14.54872031       61       0.00020579       0.00020106      -0.00013285
Cs      -3.16850443       6.19946191      21.57080522       62      -0.00003252       0.00017572       0.00008301
Cs       0.07991088       9.76795100      22.24192879       63       0.00005668      -0.00011535      -0.00002236
Pb      -6.03680405       7.35259845      11.63996303       64       0.00051296      -0.00032098       0.00050572
Pb      -2.78787349      10.92057236      12.31155427       65      -0.00005745      -0.00065040       0.00008291
Pb      14.30568422       6.90774793      21.62645951       66      -0.00031869       0.00014175       0.00069194
Pb      -3.89712527      10.78654184      18.39515328       67      -0.00009435       0.00026731       0.00012448
I       -5.87879631      10.61934728      11.18793121       68       0.00048282       0.00011352       0.00003372
I       -2.94636467       7.65337277      12.76400597       69      -0.00010427       0.00001591       0.00006919
I        3.43094692       7.79206217      16.51978511       70       0.00004086      -0.00004365      -0.00004220
I       -1.91566237      10.95279909      25.60240655       71       0.00023693       0.00050998       0.00031244
I       -4.84664918      13.91978041      24.02634315       72      -0.00001202      -0.00035797       0.00028675
I       -4.04627784      11.51605270      15.23969458       73       0.00012443      -0.00034021       0.00015729
I       -7.18280961      10.46212999      18.34281044       74      -0.00006621      -0.00017179       0.00000569
I       -3.86037486       7.54325503      17.77623473       75      -0.00006771      -0.00005120       0.00002148
I       -2.76903341      -0.80116876      21.48854179       76      -0.00012278      -0.00001726       0.00016297
I       -0.61152970      11.11087451      18.44779168       77       0.00011045      -0.00007998      -0.00020620
I       -3.93344842      14.03007295      19.01438726       78       0.00022527      -0.00024263      -0.00013547
I       -3.74859394      10.05736383      21.55083082       79       0.00016648      -0.00011714      -0.00015726
Cs      12.54654701       8.19440101       5.61294606       80      -0.00004005      -0.00005675      -0.00031957
Cs       9.29662251       4.62635371       4.94143983       81       0.00030234       0.00012877      -0.00007653
Cs      14.00280925      -0.97943806      11.96358204       82      -0.00002539       0.00019262       0.00000994
Cs      -4.20050883       2.90011317       8.73200567       83       0.00005290      -0.00018880      -0.00006079
Pb       6.69869461      -0.36182584      26.36812031       84      -0.00016197      -0.00001485      -0.00029841
Pb       9.94741007       3.20611361      27.03957324       85       0.00002975      -0.00013701      -0.00028486
Pb      10.02526394       0.03978075       8.11675704       86      -0.00002625       0.00042158      -0.00027269
Pb      13.27419161       3.60788443       8.78792694       87      -0.00015751      -0.00045464      -0.00004416
I       11.29267144       3.44055022       1.58076473       88       0.00017638      -0.00012676      -0.00001791
I       14.22504451       0.47433764       3.15680619       89      -0.00023771       0.00015107       0.00006132
I       20.60226685       0.61318989       6.91261549       90       0.00012805      -0.00005616      -0.00025781
I       15.25593923       3.77395907      15.99536237       91      -0.00058316       0.00055160      -0.00019332
I       12.32488918       6.74079187      14.41926993       92      -0.00064776       0.00007884      -0.00017821
I       13.12514496       4.33709199       5.63253974       93      -0.00006485      -0.00015748       0.00005254
I        9.98839590       3.28317407       8.73552118       94       0.00007814       0.00004469       0.00007933
I       13.31085975       0.36434026       8.16893853       95       0.00001766       0.00009309       0.00013913
I        5.94744363       6.60220139      10.66333752       96      -0.00014376      -0.00001644       0.00003294
I       16.55978504       3.93199911       8.84053796       97       0.00012542      -0.00002481      -0.00012178
I       13.23799218       6.85102594       9.40715719       98      -0.00014947       0.00024133      -0.00002072
I       13.42261733       2.87851504      11.94350294       99       0.00023081      -0.00015750       0.00004975
Cs      10.32855949       7.92660044      17.78052883      100      -0.00018733       0.00002206      -0.00024714
Cs       7.07866480       4.35860494      17.10904900      101       0.00018955       0.00018114      -0.00007177
Cs      11.78478374      -1.24716090      24.13114480      102      -0.00003657       0.00016217       0.00008425
Cs      -6.41854210       2.63236326      20.89955918      103       0.00002863      -0.00021207       0.00005371
Pb       8.91662641      -0.09418600      14.20032133      104       0.00002938       0.00003493       0.00055792
Pb      12.16537208       3.47388193      14.87185023      105       0.00019145      -0.00057847       0.00033930
Pb       7.80719747      -0.22787815      20.28410685      106      -0.00013857       0.00018935       0.00062601
Pb      11.05625041       3.33996458      20.95545350      107      -0.00045792      -0.00002380       0.00035853
I        9.07458585       3.17251072      13.74835573      108       0.00040054       0.00055902      -0.00014310
I       12.00699018       0.20661489      15.32441831      109      -0.00012181       0.00026721      -0.00009713
I       18.38424162       0.34543779      19.08013389      110       0.00006045      -0.00009673      -0.00002677
I       13.03772265       3.50627211      28.16278823      111       0.00002530       0.00034260       0.00025400
I       10.10669744       6.47305974      26.58672074      112      -0.00015303      -0.00014689       0.00018018
I       10.90701418       4.06942816      17.80009363      113       0.00020013      -0.00033082      -0.00017632
I        7.77047659       3.01544504      20.90313807      114      -0.00006760      -0.00006099       0.00004519
I       11.09290442       0.09666283      20.33658943      115      -0.00000302      -0.00011032      -0.00003129
I        3.72939119       6.33445747      22.83082615      116      -0.00018260      -0.00001556       0.00052551
I       14.34163907       3.66421717      21.00808316      117       0.00047508       0.00002285      -0.00016001
I       11.01978821       6.58335556      21.57469515      118       0.00042135       0.00001643      -0.00007907
I       11.20474054       2.61070197      24.11123407      119       0.00014372      -0.00005726      -0.00031233
Cs       8.31914430      15.48551348       5.00396944      120      -0.00006613      -0.00004410      -0.00032566
Cs       5.06922383      11.91748662       4.33247478      121       0.00026488       0.00019239      -0.00011168
Cs       9.77533541       6.31172937      11.35454061      122      -0.00002785       0.00012837       0.00011623
Cs      -8.42788376      10.19124301       8.12305001      123      -0.00006813      -0.00014065      -0.00012605
Pb       2.47132247       6.92928595      25.75904828      124      -0.00049934      -0.00014075      -0.00003983
Pb       5.71998794      10.49706562      26.43047480      125      -0.00006330       0.00053853       0.00019929
Pb       5.79781713       7.33099763       7.50763171      126      -0.00006172       0.00013008       0.00028048
Pb       9.04679866      10.89885618       8.17892547      127      -0.00026296       0.00014318      -0.00002201
I        7.06524237      10.73151578       0.97179690      128       0.00018719       0.00020607      -0.00012181
I        9.99754250       7.76567042       2.54777949      129       0.00002741      -0.00034161       0.00017942
I       16.37487287       7.90429592       6.30355823      130      -0.00003681      -0.00001750       0.00010289
I       11.02838173      11.06521711      15.38627652      131      -0.00018004       0.00018617       0.00006180
I        8.09743464      14.03185912      13.81026513      132      -0.00059731       0.00019717      -0.00017618
I        8.89766590      11.62829131       5.02356714      133       0.00010874      -0.00034192      -0.00011090
I        5.76100675      10.57439140       8.12654731      134      -0.00001859      -0.00019419       0.00003538
I        9.08341621       7.65554026       7.55996305      135       0.00011843      -0.00015599       0.00003007
I       10.17476790      -0.68889826      11.27222515      136      -0.00006335      -0.00010928       0.00044289
I       12.33233332      11.22315308       8.23152930      137       0.00025076      -0.00021367      -0.00013833
I        9.01052790      14.14221877       8.79815379      138      -0.00000967       0.00001087      -0.00001987
I        9.19520170      10.16963074      11.33453840      139       0.00031133      -0.00016384      -0.00005153
Cs       6.10112347      15.21776737      17.17153844      140      -0.00013711      -0.00003041      -0.00027135
Cs       2.85118113      11.64973073      16.50001633      141       0.00028727       0.00018068      -0.00000042
Cs       7.55736125       6.04397102      23.52218172      142       0.00003096       0.00009476      -0.00003472
Cs     -10.64604780       9.92352388      20.29053695      143       0.00023300      -0.00028117       0.00005649
Pb       4.68916714       7.19705524      13.59136849      144       0.00015271      -0.00020302       0.00046052
Pb       7.93800370      10.76508266      14.26288818      145      -0.00008266      -0.00073436       0.00023043
Pb       3.57978045       7.06323257      19.67530437      146       0.00019071       0.00023530      -0.00018117
Pb       6.82877184      10.63121307      20.34658427      147      -0.00009381      -0.00037791      -0.00022411
I        4.84720349      10.46378682      13.13937954      148       0.00026071       0.00032371      -0.00017033
I        7.77953645       7.49772214      14.71539327      149      -0.00001799       0.00030204       0.00000110
I       14.15688892       7.63652213      18.47127101      150       0.00002629       0.00003071      -0.00046405
I        8.81037863      10.79741821      27.55387701      151      -0.00013658       0.00027554       0.00008025
I        5.87925736      13.76414421      25.97774356      152       0.00000656      -0.00014169       0.00014307
I        6.67958669      11.36053985      17.19104166      153       0.00012994      -0.00031450       0.00018682
I        3.54293586      10.30658476      20.29409455      154       0.00018429      -0.00003767       0.00010296
I        6.86544808       7.38772912      19.72753837      155      -0.00005515       0.00016710       0.00012652
I        7.95690106      -0.95671500      23.43991396      156      -0.00025992       0.00002386       0.00028713
I       10.11443403      10.95522818      20.39913836      157      -0.00010076       0.00032782      -0.00008832
I        6.79253313      13.87441827      20.96574671      158       0.00002786       0.00013742      -0.00005314
I        6.97728211       9.90186391      23.50220341      159       0.00015927      -0.00011984      -0.00029824
