80
Lattice="18.444739407243485 0.05759720130754416 0.09033422335179843 9.287885419312357 15.972001822095446 0.07795832132028245 9.282248683975633 5.352346878941632 13.936477824425967" Properties=species:S:1:pos:R:3:spacegroup_kinds:I:1:forces:R:3 spacegroup="P 1" unit_cell=conventional occupancy="_JSON {\"0\": {\"Cs\": 1.0}, \"1\": {\"Cs\": 1.0}, \"2\": {\"K\": 1.0}, \"3\": {\"In\": 1.0}, \"4\": {\"I\": 1.0}, \"5\": {\"I\": 1.0}, \"6\": {\"I\": 1.0}, \"7\": {\"I\": 1.0}, \"8\": {\"I\": 1.0}, \"9\": {\"I\": 1.0}, \"10\": {\"Cs\": 1.0}, \"11\": {\"Cs\": 1.0}, \"12\": {\"K\": 1.0}, \"13\": {\"In\": 1.0}, \"14\": {\"I\": 1.0}, \"15\": {\"I\": 1.0}, \"16\": {\"I\": 1.0}, \"17\": {\"I\": 1.0}, \"18\": {\"I\": 1.0}, \"19\": {\"I\": 1.0}, \"20\": {\"Cs\": 1.0}, \"21\": {\"Cs\": 1.0}, \"22\": {\"K\": 1.0}, \"23\": {\"In\": 1.0}, \"24\": {\"I\": 1.0}, \"25\": {\"I\": 1.0}, \"26\": {\"I\": 1.0}, \"27\": {\"I\": 1.0}, \"28\": {\"I\": 1.0}, \"29\": {\"I\": 1.0}, \"30\": {\"Cs\": 1.0}, \"31\": {\"Cs\": 1.0}, \"32\": {\"K\": 1.0}, \"33\": {\"In\": 1.0}, \"34\": {\"I\": 1.0}, \"35\": {\"I\": 1.0}, \"36\": {\"I\": 1.0}, \"37\": {\"I\": 1.0}, \"38\": {\"I\": 1.0}, \"39\": {\"I\": 1.0}, \"40\": {\"Cs\": 1.0}, \"41\": {\"Cs\": 1.0}, \"42\": {\"K\": 1.0}, \"43\": {\"In\": 1.0}, \"44\": {\"I\": 1.0}, \"45\": {\"I\": 1.0}, \"46\": {\"I\": 1.0}, \"47\": {\"I\": 1.0}, \"48\": {\"I\": 1.0}, \"49\": {\"I\": 1.0}, \"50\": {\"Cs\": 1.0}, \"51\": {\"Cs\": 1.0}, \"52\": {\"K\": 1.0}, \"53\": {\"In\": 1.0}, \"54\": {\"I\": 1.0}, \"55\": {\"I\": 1.0}, \"56\": {\"I\": 1.0}, \"57\": {\"I\": 1.0}, \"58\": {\"I\": 1.0}, \"59\": {\"I\": 1.0}, \"60\": {\"Cs\": 1.0}, \"61\": {\"Cs\": 1.0}, \"62\": {\"K\": 1.0}, \"63\": {\"In\": 1.0}, \"64\": {\"I\": 1.0}, \"65\": {\"I\": 1.0}, \"66\": {\"I\": 1.0}, \"67\": {\"I\": 1.0}, \"68\": {\"I\": 1.0}, \"69\": {\"I\": 1.0}, \"70\": {\"Cs\": 1.0}, \"71\": {\"Cs\": 1.0}, \"72\": {\"K\": 1.0}, \"73\": {\"In\": 1.0}, \"74\": {\"I\": 1.0}, \"75\": {\"I\": 1.0}, \"76\": {\"I\": 1.0}, \"77\": {\"I\": 1.0}, \"78\": {\"I\": 1.0}, \"79\": {\"I\": 1.0}}" energy=-205.1915725650359 free_energy=-205.1915725650359 stress="-7.46020208830521e-07 -2.8177302773933407e-07 -3.463311474451025e-08 -2.8177302773933407e-07 4.2040120502031525e-07 2.4729302634138605e-07 -3.463311474451025e-08 2.4729302634138605e-07 1.1781400956608475e-07" pbc="T T T"
Cs       4.63048789       2.69130558       1.95309651        0      -0.00022795       0.00021562      -0.00006595
Cs      13.87746242       8.00001349       5.09940578        1       0.00011319      -0.00000577       0.00004272
K        9.25341567       5.34522340       3.52626820        2       0.00026497       0.00000923       0.00011727
In      18.44475807       0.05771847       0.09022865        3      -0.00002449      -0.00006781       0.00034058
I        6.99083576       3.23056922       5.23431089        4       0.00038245      -0.00033714       0.00013005
I       11.51638557       7.45983932       1.81798141        5      -0.00025485      -0.00002123       0.00022662
I        9.94861576       2.36623053       1.74564733        6      -0.00013164       0.00000961      -0.00031618
I        8.55898346       8.32383775       5.30796196        7       0.00026765       0.00048711      -0.00000758
I        6.33487194       6.21274458       1.72882014        8      -0.00044111       0.00046487      -0.00007722
I       12.17309365       4.47872976       5.32339083        9       0.00005855      -0.00006184      -0.00001399
Cs       9.27118359       5.36738356       8.92100694       10      -0.00001594      -0.00012828      -0.00003759
Cs      18.51893067      10.67726446      12.06802627       11      -0.00003559       0.00012522       0.00002766
K       13.89489487       8.02149035      10.49423130       12       0.00021305      -0.00012396       0.00022068
In      23.08562170       2.73379605       7.05866355       13      -0.00006035      -0.00014582      -0.00002417
I       11.63224953       5.90618639      12.20191429       14      -0.00021983      -0.00033831       0.00042067
I       16.15787990      10.13718102       8.78714034       15       0.00009289      -0.00028868      -0.00001136
I       14.59069777       5.04278859       8.71290655       16      -0.00001619       0.00009388       0.00004689
I       13.20007304      11.00030974      12.27595769       17      -0.00025734       0.00018221      -0.00007837
I       10.97528135       8.88898057       8.69786880       18       0.00002895       0.00007392       0.00018443
I       16.81530402       7.15511925      12.29092063       19      -0.00013365       0.00025077      -0.00001841
Cs       9.27392425      10.67548561       1.99101866       20      -0.00008235       0.00037845       0.00030389
Cs      18.52167239      15.98607636       5.13834183       21      -0.00062429       0.00010324       0.00006647
K       13.89759655      13.33177653       3.56499422       22      -0.00011580      -0.00003466      -0.00004321
In      23.08845271       8.04377778       0.12922480       23       0.00079141      -0.00013046       0.00006395
I       11.63539828      11.21658250       5.27381978       24       0.00002269       0.00008828      -0.00064277
I       16.15933041      15.44691442       1.85634077       25       0.00020121      -0.00030831       0.00018979
I       14.59248927      10.35245176       1.78394308       26       0.00014291       0.00033169       0.00013598
I       13.20227223      16.31057324       5.34657276       27      -0.00036432      -0.00021525      -0.00014776
I       10.97744284      14.19797604       1.76810618       28       0.00020927      -0.00029723       0.00001933
I       16.81699580      12.46464301       5.36230674       29       0.00011392      -0.00032363       0.00002809
Cs      13.91477001      13.35225359       8.95948481       30      -0.00025080       0.00027255       0.00005717
Cs      23.16298296      18.66140692      12.10667747       31      -0.00001989       0.00051946       0.00009492
K       18.53847596      16.00805136      10.53312530       32       0.00022945       0.00008403      -0.00011862
In      27.72998163      10.71994610       7.09757116       33      -0.00046677      -0.00046379      -0.00003188
I       16.27569780      13.89342371      12.24118457       34       0.00015081      -0.00015159      -0.00006114
I       20.80170504      18.12330827       8.82621725       35       0.00010264       0.00002619      -0.00036583
I       19.23450863      13.02909141       8.75200517       36      -0.00018681      -0.00014621      -0.00008860
I       17.84274525      18.98665673      12.31489706       37       0.00031750       0.00016744       0.00003069
I       15.61850291      16.87426321       8.73669082       38      -0.00003877      -0.00016533      -0.00020340
I       21.45824051      15.14024426      12.32996666       39      -0.00002115      -0.00001882       0.00010868
Cs      13.85173065       2.72010752       1.99717855       40       0.00003056      -0.00024438       0.00026483
Cs      23.10069410       8.02929130       5.14498055       41      -0.00021368       0.00005157      -0.00009726
K       18.47610258       5.37416851       3.57109063       42       0.00000753      -0.00010207       0.00035329
In       9.22211219       0.02879805       0.04519874       43       0.00020820       0.00030387       0.00020440
I       16.21318162       3.25911763       5.27871011       44      -0.00028254      -0.00024478       0.00011332
I       20.73905452       7.48905581       1.86356493       45       0.00003270      -0.00026258       0.00026070
I       19.17213210       2.39527538       1.79014917       46      -0.00007094      -0.00025657      -0.00042279
I       17.78076190       8.35277998       5.35337480       47      -0.00016215       0.00039172      -0.00006593
I       15.55656484       6.24129360       1.77450936       48      -0.00002908       0.00016718      -0.00002294
I       21.39590264       4.50774140       5.36833282       49       0.00005829       0.00017235       0.00012738
Cs      18.49367008       5.39609014       8.96653942       50       0.00006899       0.00011629      -0.00016404
Cs      27.74127445      10.70556306      12.11315808       51       0.00000352       0.00006375      -0.00001097
K       23.11700366       8.05007766      10.53932240       52       0.00032192       0.00007927       0.00025296
In      13.86354811       2.70516266       7.01334433       53      -0.00035224      -0.00017760      -0.00005077
I       20.85498471       5.93558863      12.24849835       54       0.00029734      -0.00021711      -0.00001771
I       25.37986611      10.16519640       8.83146171       55       0.00012847      -0.00009255      -0.00000930
I       23.81271282       5.07094732       8.75876604       56      -0.00001701       0.00065067       0.00008769
I       22.42248867      11.02929230      12.32112703       57      -0.00004805      -0.00062161      -0.00058251
I       20.19789958       8.91760421       8.74254232       58       0.00016550       0.00000701       0.00044444
I       26.03716722       7.18393129      12.33659058       59      -0.00019950       0.00012993       0.00000543
Cs      18.49671566      10.70469502       2.03689857       60      -0.00069586       0.00008997       0.00001496
Cs      27.74345667      16.01439417       5.18312217       61       0.00018587       0.00043087       0.00020174
K       23.11975020      13.36060846       3.61022022       62       0.00001777       0.00014977      -0.00007637
In      13.86624294       8.01482966       0.08408351       63       0.00070569      -0.00000141       0.00009994
I       20.85692132      11.24524746       5.31811521       64       0.00074530      -0.00000392      -0.00038503
I       25.38263012      15.47601501       1.90292799       65       0.00011406       0.00017172      -0.00058556
I       23.81506725      10.38160740       1.82905531       66      -0.00010768      -0.00018848      -0.00012180
I       22.42410057      16.33919753       5.39211988       67       0.00032633       0.00010649      -0.00025369
I       20.19930485      14.22699120       1.81399712       68       0.00016534      -0.00017301       0.00000438
I       26.03969906      12.49284665       5.40665428       69       0.00011808      -0.00037957       0.00022307
Cs      23.13765527      13.38077626       9.00466150       70       0.00005844       0.00056856       0.00023622
Cs      32.38511087      18.69070410      12.15176261       71      -0.00048649       0.00005645       0.00006242
K       27.76098899      16.03677740      10.57818758       72      -0.00005503      -0.00000409       0.00003991
In      18.50746853      10.69112712       7.05255394       73      -0.00053771       0.00006374      -0.00019834
I       25.49889899      13.92194043      12.28713538       74      -0.00037305      -0.00011945      -0.00032073
I       30.02336826      18.15196910       8.87061443       75       0.00019257      -0.00017119      -0.00009125
I       28.45586037      13.05789111       8.79729544       76       0.00002580      -0.00014067      -0.00016473
I       27.06630421      19.01546305      12.35970622       77      -0.00027930      -0.00004371      -0.00007362
I       24.84138212      16.90323255       8.78125670       78       0.00017625      -0.00038918       0.00020825
I       30.68016139      15.16931826      12.37556495       79       0.00004219      -0.00004689       0.00000751
