40
Lattice="17.019789900400223 0.0 0.0 7.765795476227967 16.179071362074357 0.0 6.0860047373325825 2.0806108688937073 3.2538921873808504" Properties=species:S:1:pos:R:3 pbc="T T T"
Cs       4.61952984       2.54248590       0.81353099
Cs      13.85926742       7.62765921       2.44036025
K        9.23939854       5.08507223       1.62694538
In       0.00000032       0.00000075       0.00000035
I        9.21310626       1.12737838       0.14474166
I        9.26569064       9.04276557       3.10914923
I       13.36903501       2.37738715       3.35439036
I        5.10975865       7.79275747      -0.10050072
I        7.57109375       4.35786083      -1.84226631
I       10.90770357       5.81228936       5.09616093
Cs       8.50242757      10.63202159       0.81353099
Cs      17.74216516      15.71719489       2.44036025
K       13.12229628      13.17460791       1.62694538
In       3.88289806       8.08953643       0.00000035
I       13.09600400       9.21691406       0.14474166
I       13.14858838      17.13230125       3.10914923
I       17.25193275      10.46692283       3.35439036
I        8.99265639      15.88229315      -0.10050072
I       11.45399149      12.44739651      -1.84226631
I       14.79060131      13.90182504       5.09616093
Cs      13.12942479       2.54248590       0.81353099
Cs      22.36916237       7.62765921       2.44036025
K       17.74929349       5.08507223       1.62694538
In       8.50989527       0.00000075       0.00000035
I       17.72300121       1.12737838       0.14474166
I       17.77558559       9.04276557       3.10914923
I       21.87892997       2.37738715       3.35439036
I       13.61965360       7.79275747      -0.10050072
I       16.08098870       4.35786083      -1.84226631
I       19.41759852       5.81228936       5.09616093
Cs      17.01232252      10.63202159       0.81353099
Cs      26.25206011      15.71719489       2.44036025
K       21.63219123      13.17460791       1.62694538
In      12.39279301       8.08953643       0.00000035
I       21.60589895       9.21691406       0.14474166
I       21.65848333      17.13230125       3.10914923
I       25.76182770      10.46692283       3.35439036
I       17.50255134      15.88229315      -0.10050072
I       19.96388644      12.44739651      -1.84226631
I       23.30049626      13.90182504       5.09616093
