40
Lattice="22.423185254370342 1.0648598028433596 -0.33488114334594266 11.370639994061007 19.719692212844283 3.172689900543194 8.087540428883596 3.3810398532071986 5.648299905964096" Properties=species:S:1:pos:R:3:spacegroup_kinds:I:1:forces:R:3 spacegroup="P 1" unit_cell=conventional occupancy="_JSON {\"0\": {\"Cs\": 1.0}, \"1\": {\"Cs\": 1.0}, \"2\": {\"K\": 1.0}, \"3\": {\"In\": 1.0}, \"4\": {\"I\": 1.0}, \"5\": {\"I\": 1.0}, \"6\": {\"I\": 1.0}, \"7\": {\"I\": 1.0}, \"8\": {\"I\": 1.0}, \"9\": {\"I\": 1.0}, \"10\": {\"Cs\": 1.0}, \"11\": {\"Cs\": 1.0}, \"12\": {\"K\": 1.0}, \"13\": {\"In\": 1.0}, \"14\": {\"I\": 1.0}, \"15\": {\"I\": 1.0}, \"16\": {\"I\": 1.0}, \"17\": {\"I\": 1.0}, \"18\": {\"I\": 1.0}, \"19\": {\"I\": 1.0}, \"20\": {\"Cs\": 1.0}, \"21\": {\"Cs\": 1.0}, \"22\": {\"K\": 1.0}, \"23\": {\"In\": 1.0}, \"24\": {\"I\": 1.0}, \"25\": {\"I\": 1.0}, \"26\": {\"I\": 1.0}, \"27\": {\"I\": 1.0}, \"28\": {\"I\": 1.0}, \"29\": {\"I\": 1.0}, \"30\": {\"Cs\": 1.0}, \"31\": {\"Cs\": 1.0}, \"32\": {\"K\": 1.0}, \"33\": {\"In\": 1.0}, \"34\": {\"I\": 1.0}, \"35\": {\"I\": 1.0}, \"36\": {\"I\": 1.0}, \"37\": {\"I\": 1.0}, \"38\": {\"I\": 1.0}, \"39\": {\"I\": 1.0}}" energy=-102.50418980000647 free_energy=-102.50418980000647 stress="-8.002471475691074e-07 -6.896615234547093e-07 7.558182333605303e-08 -6.896615234547093e-07 4.851829370802088e-08 -6.084476786620396e-07 7.558182333605303e-08 -6.084476786620396e-07 7.567639289527375e-07" pbc="T T T"
Cs       5.88618437       2.50353221      -0.32326789        0      -0.00003353       0.00009024       0.00029036
Cs      16.62939771      10.52802237       7.87836287        1      -0.00009496      -0.00017922       0.00013763
K       14.19649554       7.46416157       0.57339772        2      -0.00001130      -0.00002893      -0.00019931
In      22.92091132       2.89770422       0.79076031        3      -0.00001704      -0.00004227      -0.00018202
I       13.31296580       2.31603627       3.23320508        4      -0.00015630      -0.00012394       0.00014972
I       11.95632683       8.80870524       3.22457467        5       0.00035616      -0.00020948      -0.00025524
I        9.43829161       0.89313411       1.34247482        6       0.00014700      -0.00003520      -0.00021843
I       15.83692753      14.10990143       6.29431882        7      -0.00012310       0.00048418      -0.00011107
I       19.34392235       8.41022621       5.94790482        8      -0.00029687       0.00004488       0.00032664
I        5.33383578       5.10899954       2.50093069        9       0.00001954      -0.00005081      -0.00023167
Cs      11.57054860      12.36496452       1.26498551       10       0.00005588      -0.00010687      -0.00008026
Cs      22.31525161      20.38943904       9.46808599       11       0.00001697       0.00006241      -0.00026685
K       19.88087145      17.32394240       2.15957112       12       0.00017528      -0.00011039       0.00007603
In      28.60607834      12.75935993       2.37919813       13      -0.00014788       0.00002144       0.00010613
I       18.99630057      12.17632324       4.82221662       14       0.00047001      -0.00023135      -0.00009195
I       17.64288804      18.66954401       4.81074368       15      -0.00032774       0.00030085       0.00012590
I       15.12230401      10.75309290       2.92986353       16       0.00008640      -0.00013608       0.00006341
I       21.52225573      23.96933787       7.87788892       17       0.00004251      -0.00043017       0.00015329
I       25.02764754      18.27044189       7.53688497       18       0.00007578       0.00007843      -0.00035251
I       11.01901294      14.97231250       4.08625390       19       0.00015217       0.00007298       0.00020917
Cs      17.09736944       3.03507604      -0.48895924       20      -0.00025230       0.00061888       0.00006615
Cs      27.84221487      11.06082833       7.71149717       21       0.00000856       0.00003938       0.00013241
K       25.40622993       7.99280585       0.40624439       22      -0.00001520       0.00044216       0.00038389
In      11.70948896       2.36577921       0.95818754       23      -0.00001503       0.00012384      -0.00004603
I       24.52410120       2.84814790       3.06582999       24      -0.00021955       0.00007333      -0.00003960
I       23.16945019       9.34173287       3.05722247       25      -0.00024509      -0.00033884      -0.00013692
I       20.65022519       1.42409696       1.17498379       26      -0.00010560       0.00015476      -0.00009930
I       27.04801302      14.64213876       6.12696439       27      -0.00007577       0.00016554      -0.00015245
I       30.55375086       8.94185766       5.78025289       28       0.00000693       0.00001273       0.00008103
I       16.54604371       5.64329532       2.33250949       29      -0.00023107       0.00006760      -0.00006558
Cs      22.78275597      12.89784165       1.09651809       30       0.00026511      -0.00057233      -0.00020987
Cs      33.52598788      20.92100642       9.30008236       31       0.00005972       0.00000231      -0.00005213
K       31.09529873      17.85996838       1.99179841       32      -0.00023457      -0.00033600      -0.00025241
In      17.39360311      12.22596690       2.54671835       33       0.00012339       0.00005548       0.00006132
I       30.20904201      12.70920387       4.65460296       34       0.00007166      -0.00016144       0.00007056
I       28.85353591      19.20104167       4.64318270       35       0.00017591       0.00060032       0.00022819
I       26.33474644      11.28658861       2.76195554       36       0.00003166      -0.00027285       0.00026672
I       32.73377485      24.50084892       7.71082219       37      -0.00001035       0.00011625       0.00007583
I       36.24082138      18.80398055       7.36968573       38       0.00018822      -0.00010087      -0.00003171
I       22.22988292      15.50352261       3.91952918       39       0.00008438      -0.00016094       0.00007090
