10
Lattice="9.028762563417509 1.072759120477423 1.2025644916430207 3.587324155138619 7.890346802571158 0.5100531195854694 3.139818591232783 3.290237595883254 8.001322337330995" Properties=species:S:1:pos:R:3:spacegroup_kinds:I:1:forces:R:3 spacegroup="P 1" unit_cell=conventional occupancy="_JSON {\"0\": {\"Cs\": 1.0}, \"1\": {\"Cs\": 1.0}, \"2\": {\"K\": 1.0}, \"3\": {\"In\": 1.0}, \"4\": {\"I\": 1.0}, \"5\": {\"I\": 1.0}, \"6\": {\"I\": 1.0}, \"7\": {\"I\": 1.0}, \"8\": {\"I\": 1.0}, \"9\": {\"I\": 1.0}}" energy=-25.648901127089427 free_energy=-25.648901127089427 stress="-3.6916590397401377e-06 -5.958843848234762e-06 -2.20903515753862e-06 -5.958843848234762e-06 -5.791043998399534e-06 -4.148070280910048e-06 -2.20903515753862e-06 -4.148070280910048e-06 7.699285920943343e-06" pbc="T T T"
Cs       3.94324353       3.23160121       2.33847842        0      -0.00004407       0.00003312      -0.00024423
Cs      11.81265910       9.02203838       7.37610029        1       0.00012097      -0.00022638      -0.00025186
K        7.87788139       6.12625819       4.85657334        2      -0.00012796       0.00036724       0.00032640
In       9.02852035       1.07267051       1.20256305        3       0.00040777      -0.00003729      -0.00022859
I        4.95054762       4.45168737       5.93818652        4       0.00016207      -0.00008488      -0.00023873
I       10.80559430       7.80149175       3.77616628        5      -0.00025828       0.00030310      -0.00021885
I        9.19159745       3.57963709       2.78671839        6       0.00031639      -0.00029307       0.00022822
I        6.56406798       8.67361071       6.92710465        7      -0.00006543       0.00023715      -0.00008393
I        5.95650933       6.83372977       1.97387067        8      -0.00048293      -0.00065050       0.00030686
I        9.79971464       5.42007899       7.73953202        9      -0.00002853       0.00035151       0.00040472
