10
Lattice="9.816855762161136 0.0 0.0 2.977974331822005 7.197952945733909 0.0 1.9896208602489676 2.801093509167439 7.195650916629846" Properties=species:S:1:pos:R:3 pbc="T T T"
Cs       3.69605857       2.49974527       1.79892046
Cs      11.08839227       7.49930075       5.39673017
K        7.39222543       4.99952300       3.59782533
In       0.00000013       0.00000033       0.00000014
I        5.03864484       3.06221518       4.64973824
I        9.74580605       6.93683057       2.54591240
I        9.89735070       2.82718839       1.95837018
I        4.88709944       7.17185739       5.23728028
I        5.16184685       5.91901471       1.38609996
I        9.62260435       4.08003260       5.80955147
