10
Lattice="9.246701489831374 -0.9661978255529095 0.12729063454458797 -3.7893121419835447 8.495096573876214 -0.02898139275468658 -0.1266694677954501 -0.022555156677524148 8.82651172840172" Properties=species:S:1:pos:R:3:spacegroup_kinds:I:1:forces:R:3 spacegroup="P 1" unit_cell=conventional occupancy="_JSON {\"0\": {\"Cs\": 1.0}, \"1\": {\"Cs\": 1.0}, \"2\": {\"K\": 1.0}, \"3\": {\"In\": 1.0}, \"4\": {\"I\": 1.0}, \"5\": {\"I\": 1.0}, \"6\": {\"I\": 1.0}, \"7\": {\"I\": 1.0}, \"8\": {\"I\": 1.0}, \"9\": {\"I\": 1.0}}" energy=-25.79381212341454 free_energy=-25.79381212341454 stress="-2.4067441760480394e-06 -4.462555610639379e-06 -5.185876277424816e-06 -4.462555610639379e-06 9.755096611107183e-06 1.6225007554893305e-06 -5.185876277424816e-06 1.6225007554893305e-06 -9.785992504326277e-06" pbc="T T T"
Cs       1.19331721       5.75091174       8.86663536        0      -0.00034569      -0.00024865      -0.00069065
Cs       5.53965116       2.59737298       8.91001863        1      -0.00001782       0.00057861      -0.00009452
K        0.69961271       0.41915942       4.42485258        2       0.00055200       0.00067393       0.00047397
In       0.76473673       0.43314339       0.01163493        3      -0.00056858      -0.00074206       0.00007544
I        2.17195246       2.40002177       1.80418452        4       0.00071570       0.00027865      -0.00039134
I        4.68647620       5.97118996       7.14591538        5       0.00022459      -0.00034863      -0.00058329
I       -0.70179656       8.65426534       7.07674450        6      -0.00000494      -0.00019368       0.00047107
I        7.56105187      -0.28300289       1.87137853        7       0.00039411       0.00027026      -0.00023796
I       -2.05842191       6.69517596       1.75640955        8      -0.00061709      -0.00024803       0.00039921
I       -0.32786955       2.64268805       7.06388998        9      -0.00033228      -0.00002040       0.00057808
