10
Lattice="10.841937112351136 -0.32693167106863563 0.7236690408110658 -6.865676010470851 7.143437405303975 -1.2110244715200504 0.30997113272030674 2.6024790076041366 9.201532096143142" Properties=species:S:1:pos:R:3:spacegroup_kinds:I:1:forces:R:3 spacegroup="P 1" unit_cell=conventional occupancy="_JSON {\"0\": {\"Cs\": 1.0}, \"1\": {\"Cs\": 1.0}, \"2\": {\"K\": 1.0}, \"3\": {\"In\": 1.0}, \"4\": {\"I\": 1.0}, \"5\": {\"I\": 1.0}, \"6\": {\"I\": 1.0}, \"7\": {\"I\": 1.0}, \"8\": {\"I\": 1.0}, \"9\": {\"I\": 1.0}}" energy=-25.13261857421618 free_energy=-25.13261857421618 stress="6.5816960723925635e-06 3.646481275596344e-06 2.2425509765169903e-06 3.646481275596344e-06 1.1038645201853954e-06 1.8238653380333535e-06 2.2425509765169903e-06 1.8238653380333535e-06 7.90196698019893e-06" pbc="T T T"
Cs       0.02573198       6.96568845       8.95604406        0      -0.00052140       0.00014968      -0.00029758
Cs       6.69295014       5.07914930      11.19361750        1       0.00067902       0.00028510      -0.00028801
K        1.16417867       0.47948417       3.95417653        2       0.00006354       0.00029550      -0.00001743
In      -0.37937389      -1.18086203      -1.20852465        3      -0.00038953      -0.00029253       0.00026166
I        3.43414565       4.93703291       1.00491548        4      -0.00067921       0.00015895       0.00006778
I        2.80319551       6.10798439       6.11912753        5      -0.00006825      -0.00041543      -0.00001204
I        2.49741488       1.77146818       7.13031437        6       0.00024750      -0.00033853       0.00034443
I        9.69729665       2.29395186       3.61861403        7      -0.00001402       0.00031777       0.00013574
I       -2.92843335       6.68325966       1.01913262        8       0.00063146       0.00030092       0.00036925
I        9.03465091       3.24332445       8.35188984        9       0.00005087      -0.00046143      -0.00056381
