40
Lattice="16.292476747382892 0.0 0.0 -13.81719082593662 11.011722219205675 0.0 -4.139303185655344 -7.4736998975884825 5.279341705912026" Properties=species:S:1:pos:R:3 pbc="T T T"
Cs      -1.37288898       3.67057457      -0.00001545
Cs       3.64538895       1.83528753      -0.00001545
K       -1.55222030      -3.73684946       2.63967306
In       0.51743443       0.00000049       0.00000981
I        0.01380772      -0.05160082       1.05622934
I       -1.88059815      -1.91623698       4.22312789
I       -1.17521902      -5.97845986       4.22312013
I        5.69958187      -1.49524622       1.05622552
I       -5.40786919       2.56698951       1.05622552
I       -5.12260175      -4.53482113       4.22312013
Cs      -8.28148439       9.17643568      -0.00001545
Cs      -3.26320646       7.34114864      -0.00001545
K       -8.46081572       1.76901165       2.63967306
In      -6.39116098       5.50586160       0.00000981
I       -6.89478769       5.45426029       1.05622934
I       -8.78919357       3.58962413       4.22312789
I       -8.08381443      -0.47259875       4.22312013
I       -1.20901354       4.01061489       1.05622552
I      -12.31646460       8.07285062       1.05622552
I      -12.03119716       0.97103998       4.22312013
Cs       6.77334940       3.67057457      -0.00001545
Cs      11.79162733       1.83528753      -0.00001545
K        6.59401807      -3.73684946       2.63967306
In       8.66367280       0.00000049       0.00000981
I        8.16004610      -0.05160082       1.05622934
I        6.26564022      -1.91623698       4.22312789
I        6.97101936      -5.97845986       4.22312013
I       13.84582024      -1.49524622       1.05622552
I        2.73836919       2.56698951       1.05622552
I        3.02363663      -4.53482113       4.22312013
Cs      -0.13524602       9.17643568      -0.00001545
Cs       4.88303191       7.34114864      -0.00001545
K       -0.31457734       1.76901165       2.63967306
In       1.75507739       5.50586160       0.00000981
I        1.25145068       5.45426029       1.05622934
I       -0.64295519       3.58962413       4.22312789
I        0.06242395      -0.47259875       4.22312013
I        6.93722483       4.01061489       1.05622552
I       -4.17022623       8.07285062       1.05622552
I       -3.88495878       0.97103998       4.22312013
