10
Lattice="12.774120739070614 0.0 0.0 0.0 6.387060369535306 0.0 0.0 0.0 6.387060369535306" Properties=species:S:1:pos:R:3:spacegroup_kinds:I:1:forces:R:3 spacegroup="P 1" unit_cell=conventional occupancy="_JSON {\"0\": {\"Cs\": 1.0}, \"1\": {\"Pb\": 1.0}, \"2\": {\"I\": 1.0}, \"3\": {\"I\": 1.0}, \"4\": {\"I\": 1.0}, \"5\": {\"Cs\": 1.0}, \"6\": {\"Pb\": 1.0}, \"7\": {\"I\": 1.0}, \"8\": {\"I\": 1.0}, \"9\": {\"I\": 1.0}}" energy=-27.961484855331452 free_energy=-27.961484855331452 stress="-1.7496545849944287e-07 -3.2984114261936752e-12 -4.882132292793536e-18 -3.2984114261936752e-12 -1.7496545899549866e-07 5.544055775978537e-18 -4.882132292793536e-18 5.544055775978537e-18 -1.749533815263258e-07" pbc="T T T"
Cs       3.19363615       3.19342422       3.19353018        0       0.00000419      -0.00000419      -0.00000000
Pb       0.00000000       0.00000000       0.00000000        1       0.00000432      -0.00000432      -0.00000000
I        0.00000000       0.00000000       3.19353018        2      -0.00000676       0.00000676      -0.00000000
I        3.19353018       0.00000000       0.00000000        3       0.00000501       0.00000676       0.00000000
I        0.00000000       3.19353018       0.00000000        4      -0.00000676      -0.00000501       0.00000000
Cs       9.58069652       3.19342422       3.19353018        5       0.00000419      -0.00000419      -0.00000000
Pb       6.38706037       0.00000000       0.00000000        6       0.00000432      -0.00000432      -0.00000000
I        6.38706037       0.00000000       3.19353018        7      -0.00000676       0.00000676      -0.00000000
I        9.58059055       0.00000000       0.00000000        8       0.00000501       0.00000676       0.00000000
I        6.38706037       3.19353018       0.00000000        9      -0.00000676      -0.00000501       0.00000000
