20
Lattice="11.899749879490267 0.0 0.0 3.7267017002959424 10.341177331935402 0.0 -1.9083440613430376 1.7218774248096569 4.7346305316579045" Properties=species:S:1:pos:R:3:oxi_states:R:1 pbc="T T T"
Cs       2.95255828       3.44611562       2.36731527       1.00000000
Pb      -0.00000000      -0.00000000       0.00000000       2.00000000
I       -0.95417203       0.86093871       2.36731527      -1.00000000
I        2.97493747       0.00000000      -0.00000000      -1.00000000
I        0.93167543       2.58529433       0.00000000      -1.00000000
Cs       4.81590913       8.61670429       2.36731527       1.00000000
Pb       1.86335085       5.17058867       0.00000000       2.00000000
I        0.90917882       6.03152738       2.36731527      -1.00000000
I        4.83828832       5.17058867      -0.00000000      -1.00000000
I        2.79502628       7.75588300       0.00000000      -1.00000000
Cs       8.90243322       3.44611562       2.36731527       1.00000000
Pb       5.94987494      -0.00000000       0.00000000       2.00000000
I        4.99570291       0.86093871       2.36731527      -1.00000000
I        8.92481241       0.00000000      -0.00000000      -1.00000000
I        6.88155036       2.58529433       0.00000000      -1.00000000
Cs      10.76578407       8.61670429       2.36731527       1.00000000
Pb       7.81322579       5.17058867       0.00000000       2.00000000
I        6.85905376       6.03152738       2.36731527      -1.00000000
I       10.78816326       5.17058867      -0.00000000      -1.00000000
I        8.74490121       7.75588300       0.00000000      -1.00000000
