20
Lattice="12.369698208354704 -1.8692311792400547 2.6996435239614547 2.142083469421636 12.480831924077613 -2.0365938889399806 -1.1628887736852085 1.2046594482131578 6.169852809499427" Properties=species:S:1:pos:R:3:spacegroup_kinds:I:1:forces:R:3 spacegroup="P 1" unit_cell=conventional occupancy="_JSON {\"0\": {\"Cs\": 1.0}, \"1\": {\"Pb\": 1.0}, \"2\": {\"I\": 1.0}, \"3\": {\"I\": 1.0}, \"4\": {\"I\": 1.0}, \"5\": {\"Cs\": 1.0}, \"6\": {\"Pb\": 1.0}, \"7\": {\"I\": 1.0}, \"8\": {\"I\": 1.0}, \"9\": {\"I\": 1.0}, \"10\": {\"Cs\": 1.0}, \"11\": {\"Pb\": 1.0}, \"12\": {\"I\": 1.0}, \"13\": {\"I\": 1.0}, \"14\": {\"I\": 1.0}, \"15\": {\"Cs\": 1.0}, \"16\": {\"Pb\": 1.0}, \"17\": {\"I\": 1.0}, \"18\": {\"I\": 1.0}, \"19\": {\"I\": 1.0}}" energy=-55.93765762992324 free_energy=-55.93765762992324 stress="-1.8876093526667602e-06 7.172431288323105e-06 3.468620997247224e-06 7.172431288323105e-06 6.771675904238339e-06 -1.4969450407997612e-06 3.468620997247224e-06 -1.4969450407997612e-06 -4.1672297692732846e-06" pbc="T T T"
Cs       2.93524592       3.60368529       3.15929924        0      -0.00022009       0.00003820       0.00016763
Pb       0.00452445       0.00062934       0.00077042        1       0.00003221       0.00001041      -0.00026746
I       11.77091301      -1.40669183       5.80880978        2       0.00040089       0.00052451       0.00025501
I        3.09431031      -0.60932731       0.70535413        3       0.00015598      -0.00044851      -0.00024596
I       13.02747108       1.18356201       2.22651121        4      -0.00016180       0.00005264       0.00012278
Cs       4.00627569       9.84408295       2.14100226        5      -0.00015742       0.00017544       0.00012977
Pb      13.44535851       4.37173982       1.68188262        6      -0.00038796       0.00027109       0.00008071
I       12.84196968       4.83366163       4.79085056        7       0.00058330       0.00042858      -0.00032058
I        4.16549174       5.63102833      -0.31281959        8      -0.00010515      -0.00040829      -0.00023992
I       14.09842998       7.42410161       1.20805212        9      -0.00028726      -0.00063654       0.00020946
Cs       9.11999789       2.66909869       4.50903404       10      -0.00005866       0.00008194       0.00020715
Pb       6.18952400      -0.93367639       1.35049822       11      -0.00045245      -0.00079380      -0.00016368
I        5.58605920      -0.47209158       4.45898015       12       0.00038370       0.00048491       0.00026431
I        9.27915437      -1.54389014       2.05514468       13       0.00009046      -0.00046705      -0.00024801
I        6.84262860       2.11792438       0.87685395       14      -0.00008633       0.00056197      -0.00000209
Cs      10.19107788       8.90955444       3.49073660       15      -0.00013578       0.00005916       0.00017770
Pb       7.26036875       5.30649506       0.33185902       16       0.00045125       0.00011515       0.00030989
I        6.65710502       5.76833323       3.44087885       17       0.00046783       0.00033729      -0.00020665
I       10.35038403       4.69642393       1.03701772       18      -0.00030608      -0.00044886      -0.00027072
I        7.91368447       8.35837641      -0.14150221       19      -0.00020665       0.00006176       0.00004065
