40
Lattice="21.784954751467783 0.0 0.0 -11.949059361764 10.150262185647007 0.0 1.164456918974144 6.760189180484999 5.4990680944798465" Properties=species:S:1:pos:R:3 pbc="T T T"
Cs       2.68787530       1.87775264       0.01738518
Cs      -1.77741923      10.28660044       5.48143288
K       -2.00370433       3.54465581       2.74952565
In      -2.58598764       0.16453614       0.00008876
I       -3.90183653       2.85326639       1.10005187
I        4.81227003       9.31127067       4.39902913
I       -0.34616372       6.89729300       4.39908466
I        1.25658542       5.26691472       1.10010741
I       -5.47044653       6.58061949       1.10007247
I        6.38093105       5.58373659       4.39904972
Cs      -3.28665439       6.95288373       0.01738518
Cs      -7.75194891      15.36173153       5.48143288
K       -7.97823401       8.61978690       2.74952565
In      -8.56051733       5.23966724       0.00008876
I       -9.87636621       7.92839748       1.10005187
I       -1.16225965      14.38640176       4.39902913
I       -6.32069340      11.97242410       4.39908466
I       -4.71794426      10.34204581       1.10010741
I      -11.44497621      11.65575058       1.10007247
I        0.40640137      10.65886769       4.39904972
Cs      13.58035267       1.87775264       0.01738518
Cs       9.11505815      10.28660044       5.48143288
K        8.88877304       3.54465581       2.74952565
In       8.30648973       0.16453614       0.00008876
I        6.99064084       2.85326639       1.10005187
I       15.70474740       9.31127067       4.39902913
I       10.54631366       6.89729300       4.39908466
I       12.14906280       5.26691472       1.10010741
I        5.42203084       6.58061949       1.10007247
I       17.27340842       5.58373659       4.39904972
Cs       7.60582299       6.95288373       0.01738518
Cs       3.14052847      15.36173153       5.48143288
K        2.91424336       8.61978690       2.74952565
In       2.33196005       5.23966724       0.00008876
I        1.01611116       7.92839748       1.10005187
I        9.73021772      14.38640176       4.39902913
I        4.57178398      11.97242410       4.39908466
I        6.17453311      10.34204581       1.10010741
I       -0.55249884      11.65575058       1.10007247
I       11.29887874      10.65886769       4.39904972
