40
Lattice="18.58260820929323 -0.7098390317311221 0.0014008232535286608 -8.673940162325245 16.44955056323458 -0.0011124227443846952 -0.001173561361895943 -4.011350290362939e-05 8.828505360617871" Properties=species:S:1:pos:R:3:spacegroup_kinds:I:1:forces:R:3 spacegroup="P 1" unit_cell=conventional occupancy="_JSON {\"0\": {\"Cs\": 1.0}, \"1\": {\"Cs\": 1.0}, \"2\": {\"K\": 1.0}, \"3\": {\"In\": 1.0}, \"4\": {\"I\": 1.0}, \"5\": {\"I\": 1.0}, \"6\": {\"I\": 1.0}, \"7\": {\"I\": 1.0}, \"8\": {\"I\": 1.0}, \"9\": {\"I\": 1.0}, \"10\": {\"Cs\": 1.0}, \"11\": {\"Cs\": 1.0}, \"12\": {\"K\": 1.0}, \"13\": {\"In\": 1.0}, \"14\": {\"I\": 1.0}, \"15\": {\"I\": 1.0}, \"16\": {\"I\": 1.0}, \"17\": {\"I\": 1.0}, \"18\": {\"I\": 1.0}, \"19\": {\"I\": 1.0}, \"20\": {\"Cs\": 1.0}, \"21\": {\"Cs\": 1.0}, \"22\": {\"K\": 1.0}, \"23\": {\"In\": 1.0}, \"24\": {\"I\": 1.0}, \"25\": {\"I\": 1.0}, \"26\": {\"I\": 1.0}, \"27\": {\"I\": 1.0}, \"28\": {\"I\": 1.0}, \"29\": {\"I\": 1.0}, \"30\": {\"Cs\": 1.0}, \"31\": {\"Cs\": 1.0}, \"32\": {\"K\": 1.0}, \"33\": {\"In\": 1.0}, \"34\": {\"I\": 1.0}, \"35\": {\"I\": 1.0}, \"36\": {\"I\": 1.0}, \"37\": {\"I\": 1.0}, \"38\": {\"I\": 1.0}, \"39\": {\"I\": 1.0}}" energy=-103.17525739797989 free_energy=-103.17525739797989 stress="-1.5764216053005118e-06 2.964885333364089e-06 1.715794855899446e-06 2.964885333364089e-06 -2.09703127820253e-07 1.191331311627624e-06 1.715794855899446e-06 1.191331311627624e-06 -1.8517620875749317e-06" pbc="T T T"
Cs       5.85199821       2.46465754       8.86090382        0       0.00007263      -0.00044857      -0.00008911
Cs       1.31073158       5.32374893      -0.03160803        1       0.00010418      -0.00003977      -0.00016706
K        1.10416055      -0.04167561       4.41430946        2      -0.00002305       0.00051922      -0.00004465
In       1.10484542      -0.04063249      -0.00008326        3      -0.00009481      -0.00027069       0.00022019
I        7.95876807      -0.32296740       1.76669393        4       0.00012324       0.00013639       0.00007146
I       -0.79608540       8.11055648       7.06193111        5       0.00036078       0.00064558      -0.00004139
I        2.38654642       2.03340446       1.76641275        6      -0.00037455      -0.00013384       0.00021650
I        4.77665187       5.75451166       7.06238076        7      -0.00040563       0.00014094      -0.00001480
I        7.21459941       5.68232776       1.76693409        8      -0.00019734      -0.00055967      -0.00033574
I       -0.05185960       2.10608636       7.06181354        9       0.00043455       0.00001042       0.00018460
Cs       1.51502813      10.68943282       8.86034761       10       0.00007263      -0.00044857      -0.00008911
Cs      -3.02623850      13.54852421      -0.03216424       11       0.00010418      -0.00003977      -0.00016706
K       -3.23280953       8.18309967       4.41375325       12      -0.00002304       0.00051922      -0.00004465
In      -3.23212466       8.18414280      -0.00063948       13      -0.00009480      -0.00027071       0.00022021
I        3.62179799       7.90180788       1.76613772       14       0.00012324       0.00013639       0.00007146
I       -5.13305548      16.33533176       7.06137490       15       0.00036078       0.00064558      -0.00004139
I       -1.95042367      10.25817974       1.76585654       16      -0.00037455      -0.00013384       0.00021651
I        0.43968179      13.97928694       7.06182454       17      -0.00040563       0.00014094      -0.00001480
I        2.87762933      13.90710304       1.76637788       18      -0.00019735      -0.00055966      -0.00033574
I       -4.38882968      10.33086164       7.06125733       19       0.00043454       0.00001043       0.00018459
Cs      15.14330232       2.10973802       8.86160424       20       0.00007263      -0.00044857      -0.00008911
Cs      10.60203569       4.96882942      -0.03090762       21       0.00010418      -0.00003977      -0.00016706
K       10.39546466      -0.39659512       4.41500987       22      -0.00002305       0.00051922      -0.00004465
In      10.39614953      -0.39555200       0.00061715       23      -0.00009481      -0.00027071       0.00022020
I       17.25007218      -0.67788691       1.76739434       24       0.00012324       0.00013639       0.00007146
I        8.49521871       7.75563697       7.06263152       25       0.00036079       0.00064558      -0.00004139
I       11.67785052       1.67848494       1.76711316       26      -0.00037455      -0.00013384       0.00021651
I       14.06795598       5.39959214       7.06308117       27      -0.00040563       0.00014093      -0.00001481
I       -2.07670470       6.03724727       1.76623368       28      -0.00019735      -0.00055965      -0.00033575
I        9.23944450       1.75116684       7.06251395       29       0.00043455       0.00001042       0.00018460
Cs      10.80633224      10.33451331       8.86104803       30       0.00007263      -0.00044857      -0.00008911
Cs       6.26506561      13.19360470      -0.03146383       31       0.00010418      -0.00003977      -0.00016706
K        6.05849457       7.82818016       4.41445366       32      -0.00002305       0.00051922      -0.00004464
In       6.05917945       7.82922328       0.00006094       33      -0.00009482      -0.00027069       0.00022018
I       12.91310210       7.54688837       1.76683813       34       0.00012324       0.00013639       0.00007146
I        4.15824863      15.98041225       7.06207531       35       0.00036079       0.00064558      -0.00004139
I        7.34088044       9.90326022       1.76655695       36      -0.00037455      -0.00013384       0.00021651
I        9.73098590      13.62436742       7.06252496       37      -0.00040563       0.00014093      -0.00001481
I       -6.41367478      14.26202255       1.76567746       38      -0.00019734      -0.00055966      -0.00033574
I        4.90247442       9.97594213       7.06195774       39       0.00043455       0.00001041       0.00018460
