40
Lattice="9.667175580705772 -0.16004001701293968 1.3821922101695463 4.576259396949007 15.700753079508605 4.31673201092884 7.67037647561941 -6.24697501047398 14.649283097282337" Properties=species:S:1:pos:R:3:spacegroup_kinds:I:1:forces:R:3 spacegroup="P 1" unit_cell=conventional occupancy="_JSON {\"0\": {\"Cs\": 1.0}, \"1\": {\"Pb\": 1.0}, \"2\": {\"I\": 1.0}, \"3\": {\"I\": 1.0}, \"4\": {\"I\": 1.0}, \"5\": {\"Cs\": 1.0}, \"6\": {\"Pb\": 1.0}, \"7\": {\"I\": 1.0}, \"8\": {\"I\": 1.0}, \"9\": {\"I\": 1.0}, \"10\": {\"Cs\": 1.0}, \"11\": {\"Pb\": 1.0}, \"12\": {\"I\": 1.0}, \"13\": {\"I\": 1.0}, \"14\": {\"I\": 1.0}, \"15\": {\"Cs\": 1.0}, \"16\": {\"Pb\": 1.0}, \"17\": {\"I\": 1.0}, \"18\": {\"I\": 1.0}, \"19\": {\"I\": 1.0}, \"20\": {\"Cs\": 1.0}, \"21\": {\"Pb\": 1.0}, \"22\": {\"I\": 1.0}, \"23\": {\"I\": 1.0}, \"24\": {\"I\": 1.0}, \"25\": {\"Cs\": 1.0}, \"26\": {\"Pb\": 1.0}, \"27\": {\"I\": 1.0}, \"28\": {\"I\": 1.0}, \"29\": {\"I\": 1.0}, \"30\": {\"Cs\": 1.0}, \"31\": {\"Pb\": 1.0}, \"32\": {\"I\": 1.0}, \"33\": {\"I\": 1.0}, \"34\": {\"I\": 1.0}, \"35\": {\"Cs\": 1.0}, \"36\": {\"Pb\": 1.0}, \"37\": {\"I\": 1.0}, \"38\": {\"I\": 1.0}, \"39\": {\"I\": 1.0}}" energy=-111.48967318435595 free_energy=-111.48967318435595 stress="-5.36178247464349e-07 -3.7055223409522826e-07 4.540833851370247e-07 -3.7055223409522826e-07 -7.974460470220889e-07 2.4934508218166596e-07 4.540833851370247e-07 2.4934508218166596e-07 -1.1271279938556348e-06" pbc="T T T"
Cs       4.82681972       2.32006401       4.05540965        0      -0.00031328       0.00003393       0.00018058
Pb       0.42511963      -1.15248160      -0.06878755        1       0.00002209       0.00034150       0.00001254
I        0.02758271      -2.61912043       2.54136170        2      -0.00000368      -0.00003036       0.00024262
I        2.75729359       0.85889970       1.10495848        3       0.00028089      -0.00009295       0.00007163
I       17.78234802      -1.46447413      16.52983795        4       0.00002241       0.00004457      -0.00005219
Cs       8.66129335      -0.80346958      11.38040073        5       0.00044577       0.00001682      -0.00013862
Pb       4.26020421      -4.27602379       7.25590022        6       0.00018164       0.00006529      -0.00015173
I       13.52992973      -5.90243931      11.24845531        7      -0.00001152      -0.00018886       0.00002549
I        6.59259443      -2.26478452       8.42990468        8      -0.00018026       0.00015819      -0.00000585
I       13.94711737       1.65920164       9.20485405        9       0.00019337       0.00008643       0.00019751
Cs       7.11526395      10.17078121       6.21388082       10      -0.00057183      -0.00025539      -0.00007428
Pb      12.38057200       6.53772426       3.47220308       11      -0.00020365       0.00010885       0.00012515
I       11.98310487       5.07119549       6.08256496       12       0.00000987       0.00003056      -0.00020946
I        5.04537566       8.70930014       3.26351004       13       0.00019643      -0.00018607       0.00004861
I       20.07045366       6.38610893      18.68814697       14      -0.00011537      -0.00026003      -0.00036127
Cs      10.94984444       7.04700717      13.53841000       15       0.00012786       0.00008922       0.00006768
Pb      16.21549779       3.41441792      10.79653571       16      -0.00000940      -0.00020157      -0.00002165
I       15.81792755       1.94779524      13.40683646       17       0.00006383       0.00015801      -0.00009593
I        8.88083187       5.58582494      10.58792970       18      -0.00026065      -0.00006567       0.00005922
I       16.23531051       9.50955432      11.36318111       19       0.00003051       0.00005324       0.00025470
Cs       9.66044878       2.23995036       4.74665467       20      -0.00024864       0.00007064       0.00013709
Pb       5.25882495      -1.23249541       0.62261892       21      -0.00057365       0.00003483      -0.00004454
I        4.86116273      -2.69896998       3.23296983       22       0.00011943       0.00012969      -0.00009112
I        7.59044737       0.77875556       1.79636490       23       0.00042750       0.00002750      -0.00008072
I       12.94880163      -1.38423651      15.83853069       24      -0.00011432      -0.00026983      -0.00014539
Cs      13.49508705      -0.88324351      12.07125123       25       0.00014222      -0.00014946      -0.00015283
Pb       9.09392619      -4.35578397       7.94718971       26      -0.00002244      -0.00030203      -0.00025974
I        8.69639062      -5.82247779      10.55739431       27       0.00003747      -0.00004435       0.00002971
I       11.42637869      -2.34458239       9.12062173       28      -0.00026599       0.00014737       0.00023648
I        9.11387581       1.73907301       8.51408425       29      -0.00017221       0.00000066      -0.00004929
Cs      11.94808624      10.09034033       6.90506961       30       0.00023813       0.00001513      -0.00009921
Pb       7.54683717       6.61783987       2.78067901       31      -0.00003019       0.00031066       0.00005398
I        7.14926913       5.15140492       5.39093377       32       0.00008144      -0.00024575       0.00017407
I        9.87899740       8.62890465       3.95466236       33       0.00029944       0.00022575       0.00002177
I       15.23638206       6.46612418      17.99688308       34       0.00050228       0.00002539      -0.00010506
Cs      15.78353021       6.96697481      14.22959139       35       0.00002064       0.00009446       0.00005720
Pb      11.38184742       3.49435540      10.10546272       36       0.00036209       0.00007317      -0.00000462
I       10.98464632       2.02779522      12.71582191       37      -0.00023836       0.00006579      -0.00007938
I       13.71466845       5.50571834      11.27927556       38      -0.00034367      -0.00009746      -0.00007481
I       11.40196375       9.58966486      10.67214889       39      -0.00012620      -0.00001790       0.00030168
