40
Lattice="12.77393956860484 -2.415724574449537e-09 -1.1190615762666944e-17 -2.4157245749372644e-09 12.77393956860503 7.728043112753081e-16 -1.1247645364514474e-17 7.722722139152425e-16 12.773939566258903" Properties=species:S:1:pos:R:3:spacegroup_kinds:I:1:forces:R:3 spacegroup="P 1" unit_cell=conventional occupancy="_JSON {\"0\": {\"Cs\": 1.0}, \"1\": {\"Pb\": 1.0}, \"2\": {\"I\": 1.0}, \"3\": {\"I\": 1.0}, \"4\": {\"I\": 1.0}, \"5\": {\"Cs\": 1.0}, \"6\": {\"Pb\": 1.0}, \"7\": {\"I\": 1.0}, \"8\": {\"I\": 1.0}, \"9\": {\"I\": 1.0}, \"10\": {\"Cs\": 1.0}, \"11\": {\"Pb\": 1.0}, \"12\": {\"I\": 1.0}, \"13\": {\"I\": 1.0}, \"14\": {\"I\": 1.0}, \"15\": {\"Cs\": 1.0}, \"16\": {\"Pb\": 1.0}, \"17\": {\"I\": 1.0}, \"18\": {\"I\": 1.0}, \"19\": {\"I\": 1.0}, \"20\": {\"Cs\": 1.0}, \"21\": {\"Pb\": 1.0}, \"22\": {\"I\": 1.0}, \"23\": {\"I\": 1.0}, \"24\": {\"I\": 1.0}, \"25\": {\"Cs\": 1.0}, \"26\": {\"Pb\": 1.0}, \"27\": {\"I\": 1.0}, \"28\": {\"I\": 1.0}, \"29\": {\"I\": 1.0}, \"30\": {\"Cs\": 1.0}, \"31\": {\"Pb\": 1.0}, \"32\": {\"I\": 1.0}, \"33\": {\"I\": 1.0}, \"34\": {\"I\": 1.0}, \"35\": {\"Cs\": 1.0}, \"36\": {\"Pb\": 1.0}, \"37\": {\"I\": 1.0}, \"38\": {\"I\": 1.0}, \"39\": {\"I\": 1.0}}" energy=-111.84593921502368 free_energy=-111.84593921502368 stress="-4.4233615832167955e-06 -9.421550225611624e-11 -1.5814625600623132e-18 -9.421550225611624e-11 -4.423361596465378e-06 4.4897919283433026e-18 -1.5814625600623132e-18 4.4897919283433026e-18 -4.422984794576e-06" pbc="T T T"
Cs       3.19376753       3.19320225       3.19348489        0       0.00002513      -0.00002513      -0.00000000
Pb       0.00000762      -0.00000762      -0.00000000        1       0.00006173      -0.00006173      -0.00000000
I       -0.00008680       0.00008680       3.19348489        2       0.00000951      -0.00000951       0.00000000
I        3.19353952       0.00008680       0.00000000        3      -0.00010588      -0.00000951      -0.00000000
I       -0.00008680       3.19343027       0.00000000        4       0.00000951       0.00010588      -0.00000000
Cs       3.19376753       3.19320225       9.58045467        5       0.00002513      -0.00002513      -0.00000000
Pb       0.00000762      -0.00000762       6.38696978        6       0.00006173      -0.00006173      -0.00000000
I       -0.00008680       0.00008680       9.58045467        7       0.00000951      -0.00000951      -0.00000000
I        3.19353952       0.00008680       6.38696978        8      -0.00010588      -0.00000951      -0.00000000
I       -0.00008680       3.19343027       6.38696978        9       0.00000951       0.00010588       0.00000000
Cs       3.19376753       9.58017203       3.19348489       10       0.00002513      -0.00002513      -0.00000000
Pb       0.00000762       6.38696216      -0.00000000       11       0.00006173      -0.00006173      -0.00000000
I       -0.00008680       6.38705658       3.19348489       12       0.00000951      -0.00000951       0.00000000
I        3.19353952       6.38705658       0.00000000       13      -0.00010588      -0.00000951      -0.00000000
I       -0.00008680       9.58040005       0.00000000       14       0.00000951       0.00010588      -0.00000000
Cs       3.19376753       9.58017203       9.58045467       15       0.00002513      -0.00002513      -0.00000000
Pb       0.00000762       6.38696216       6.38696978       16       0.00006173      -0.00006173      -0.00000000
I       -0.00008680       6.38705658       9.58045467       17       0.00000951      -0.00000951      -0.00000000
I        3.19353952       6.38705658       6.38696978       18      -0.00010588      -0.00000951       0.00000000
I       -0.00008680       9.58040005       6.38696978       19       0.00000951       0.00010588      -0.00000000
Cs       9.58073731       3.19320225       3.19348489       20       0.00002513      -0.00002513      -0.00000000
Pb       6.38697741      -0.00000762      -0.00000000       21       0.00006173      -0.00006173      -0.00000000
I        6.38688299       0.00008680       3.19348489       22       0.00000951      -0.00000951       0.00000000
I        9.58050930       0.00008680       0.00000000       23      -0.00010588      -0.00000951      -0.00000000
I        6.38688299       3.19343027       0.00000000       24       0.00000951       0.00010588      -0.00000000
Cs       9.58073731       3.19320225       9.58045467       25       0.00002513      -0.00002513      -0.00000000
Pb       6.38697741      -0.00000762       6.38696978       26       0.00006173      -0.00006173      -0.00000000
I        6.38688299       0.00008680       9.58045467       27       0.00000951      -0.00000951      -0.00000000
I        9.58050930       0.00008680       6.38696978       28      -0.00010588      -0.00000951      -0.00000000
I        6.38688299       3.19343027       6.38696978       29       0.00000951       0.00010588       0.00000000
Cs       9.58073731       9.58017203       3.19348489       30       0.00002513      -0.00002513      -0.00000000
Pb       6.38697741       6.38696216      -0.00000000       31       0.00006173      -0.00006173      -0.00000000
I        6.38688299       6.38705658       3.19348489       32       0.00000951      -0.00000951       0.00000000
I        9.58050930       6.38705658       0.00000000       33      -0.00010588      -0.00000951      -0.00000000
I        6.38688299       9.58040005       0.00000000       34       0.00000951       0.00010588      -0.00000000
Cs       9.58073731       9.58017203       9.58045467       35       0.00002513      -0.00002513      -0.00000000
Pb       6.38697741       6.38696216       6.38696978       36       0.00006173      -0.00006173      -0.00000000
I        6.38688299       6.38705658       9.58045467       37       0.00000951      -0.00000951      -0.00000000
I        9.58050930       6.38705658       6.38696978       38      -0.00010588      -0.00000951       0.00000000
I        6.38688299       9.58040005       6.38696978       39       0.00000951       0.00010588       0.00000000
