20
Lattice="17.56523652974077 -0.5975097739990091 -0.4216128858922425 4.135282441190669 7.685596193453396 -0.19526922335798375 4.134756135502247 2.375623776923433 7.292788004097882" Properties=species:S:1:pos:R:3:spacegroup_kinds:I:1:forces:R:3 spacegroup="P 1" unit_cell=conventional occupancy="_JSON {\"0\": {\"Cs\": 1.0}, \"1\": {\"Cs\": 1.0}, \"2\": {\"K\": 1.0}, \"3\": {\"In\": 1.0}, \"4\": {\"I\": 1.0}, \"5\": {\"I\": 1.0}, \"6\": {\"I\": 1.0}, \"7\": {\"I\": 1.0}, \"8\": {\"I\": 1.0}, \"9\": {\"I\": 1.0}, \"10\": {\"Cs\": 1.0}, \"11\": {\"Cs\": 1.0}, \"12\": {\"K\": 1.0}, \"13\": {\"In\": 1.0}, \"14\": {\"I\": 1.0}, \"15\": {\"I\": 1.0}, \"16\": {\"I\": 1.0}, \"17\": {\"I\": 1.0}, \"18\": {\"I\": 1.0}, \"19\": {\"I\": 1.0}}" energy=-51.29789070591798 free_energy=-51.29789070591798 stress="4.4383402847539615e-07 -1.7754809387889802e-07 -4.2948768413899766e-07 -1.7754809387889802e-07 1.5679167060087118e-06 1.2684481235265502e-06 -4.2948768413899766e-07 1.2684481235265502e-06 -2.777991428667352e-07" pbc="T T T"
Cs       4.10217174       2.36834030       1.65268783        0      -0.00026275      -0.00053227      -0.00013301
Cs      12.95228119       7.39622131       5.23469667        1      -0.00041468      -0.00047852      -0.00010267
K        8.52561097       4.88051473       3.44314891        2       0.00065548       0.00028049       0.00017723
In      17.56492045      -0.59784562      -0.42171791        3       0.00053190       0.00037743       0.00003305
I        8.86829958       1.65915447       2.02382131        4       0.00009385       0.00049320       0.00039098
I        8.18485389       8.10286881       4.86235362        5      -0.00033883       0.00016794       0.00036020
I       11.20270489       5.60322903       1.24796933        6      -0.00024290      -0.00049008       0.00030944
I       23.41462225       3.56182688       5.21680731        7      -0.00038777      -0.00019571       0.00047490
I        6.55953906       6.32488592       0.87888548        8      -0.00032108       0.00042896      -0.00030240
I       10.49259615       3.43686998       6.00824108        9      -0.00033873       0.00030566      -0.00054303
Cs      12.88487733       2.06950871       1.44186134       10      -0.00048599      -0.00031365      -0.00005817
Cs      21.73487788       7.09751039       5.02387703       11      -0.00041091      -0.00057926      -0.00002784
K       17.30833878       4.58170675       3.23233836       12       0.00017603       0.00057941       0.00024398
In       8.78251368      -0.29901611      -0.21104081       13      -0.00014409      -0.00004218       0.00027971
I       17.65102897       1.36060232       1.81311850       14      -0.00018380      -0.00046767      -0.00041178
I       16.96737219       7.80401900       4.65155780       15      -0.00006023       0.00001724       0.00001438
I        2.41994588       5.90159815       1.45903406       16       0.00037059       0.00063523      -0.00046480
I       14.63181769       3.86055114       5.42780320       17       0.00048961       0.00027197      -0.00034129
I       15.34196690       6.02624158       0.66813052       18       0.00059018      -0.00008208      -0.00020812
I       19.27498574       3.13833004       5.79715467       19       0.00068413      -0.00037611       0.00030926
