80
Lattice="16.006114048494567 0.0 0.0 17.50424571024568 10.824073737304216 0.0 8.707058660853718 -9.866976868787159 7.583241824749536" Properties=species:S:1:pos:R:3 pbc="T T T"
Cs       5.27711855       0.11962009       0.94792480
Cs      15.83159058       0.35892785       2.84369578
K       10.55435462       0.23927380       1.89581024
In       0.00000017       0.00000027       0.00000012
I        7.81327262      -3.34603809       2.08902948
I       13.29543659       3.82458556       1.70259103
I       10.75246347       0.13128353       1.76744679
I       10.35624461       0.34726416       2.02417329
I        9.99862391       2.21115988      -0.00519027
I       11.11008544      -1.73261025       3.79681206
Cs       9.63064788      -4.81386835       4.73954571
Cs      20.18511991      -4.57456058       6.63531669
K       14.90788395      -4.69421464       5.68743115
In       4.35352950      -4.93348817       3.79162104
I       12.16680195      -8.27952653       5.88065039
I       17.64896592      -1.10890287       5.49421194
I       15.10599280      -4.80220490       5.55906770
I       14.70977394      -4.58622427       5.81579420
I       14.35215324      -2.72232856       3.78643064
I       15.46361477      -6.66609868       7.58843297
Cs      14.02924141       5.53165696       0.94792480
Cs      24.58371343       5.77096472       2.84369578
K       19.30647748       5.65131067       1.89581024
In       8.75212303       5.41203714       0.00000012
I       16.56539547       2.06599877       2.08902948
I       22.04755945       9.23662243       1.70259103
I       19.50458632       5.54332040       1.76744679
I       19.10836746       5.75930103       2.02417329
I       18.75074677       7.62319675      -0.00519027
I       19.86220830       3.67942662       3.79681206
Cs      18.38277074       0.59816852       4.73954571
Cs      28.93724276       0.83747628       6.63531669
K       23.66000681       0.71782223       5.68743115
In      13.10565236       0.47854870       3.79162104
I       20.91892480      -2.86748966       5.88065039
I       26.40108878       4.30313400       5.49421194
I       23.85811565       0.60983197       5.55906770
I       23.46189679       0.82581259       5.81579420
I       23.10427610       2.68970831       3.78643064
I       24.21573763      -1.25406181       7.58843297
Cs      13.28017558       0.11962009       0.94792480
Cs      23.83464760       0.35892785       2.84369578
K       18.55741164       0.23927380       1.89581024
In       8.00305720       0.00000027       0.00000012
I       15.81632964      -3.34603809       2.08902948
I       21.29849362       3.82458556       1.70259103
I       18.75552049       0.13128353       1.76744679
I       18.35930163       0.34726416       2.02417329
I       18.00168093       2.21115988      -0.00519027
I       19.11314246      -1.73261025       3.79681206
Cs      17.63370491      -4.81386835       4.73954571
Cs      28.18817693      -4.57456058       6.63531669
K       22.91094097      -4.69421464       5.68743115
In      12.35658653      -4.93348817       3.79162104
I       20.16985897      -8.27952653       5.88065039
I       25.65202295      -1.10890287       5.49421194
I       23.10904982      -4.80220490       5.55906770
I       22.71283096      -4.58622427       5.81579420
I       22.35521027      -2.72232856       3.78643064
I       23.46667179      -6.66609868       7.58843297
Cs      22.03229843       5.53165696       0.94792480
Cs      32.58677046       5.77096472       2.84369578
K       27.30953450       5.65131067       1.89581024
In      16.75518005       5.41203714       0.00000012
I       24.56845250       2.06599877       2.08902948
I       30.05061647       9.23662243       1.70259103
I       27.50764334       5.54332040       1.76744679
I       27.11142449       5.75930103       2.02417329
I       26.75380379       7.62319675      -0.00519027
I       27.86526532       3.67942662       3.79681206
Cs      26.38582776       0.59816852       4.73954571
Cs      36.94029979       0.83747628       6.63531669
K       31.66306383       0.71782223       5.68743115
In      21.10870938       0.47854870       3.79162104
I       28.92198183      -2.86748966       5.88065039
I       34.40414580       4.30313400       5.49421194
I       31.86117267       0.60983197       5.55906770
I       31.46495382       0.82581259       5.81579420
I       31.10733312       2.68970831       3.78643064
I       32.21879465      -1.25406181       7.58843297
