10
Lattice="12.77381789569587 -4.211027176514369e-08 -2.411505602853984e-16 -2.1055135880287403e-08 6.386908947848024 8.680711272182397e-17 -1.2330731607551648e-16 8.573847891799653e-17 6.386908945056369" Properties=species:S:1:pos:R:3:spacegroup_kinds:I:1:forces:R:3 spacegroup="P 1" unit_cell=conventional occupancy="_JSON {\"0\": {\"Cs\": 1.0}, \"1\": {\"Pb\": 1.0}, \"2\": {\"I\": 1.0}, \"3\": {\"I\": 1.0}, \"4\": {\"I\": 1.0}, \"5\": {\"Cs\": 1.0}, \"6\": {\"Pb\": 1.0}, \"7\": {\"I\": 1.0}, \"8\": {\"I\": 1.0}, \"9\": {\"I\": 1.0}}" energy=-27.961484714821708 free_energy=-27.961484714821708 stress="-7.275859900513491e-06 -1.9039069121976668e-10 1.1505784979318184e-17 -1.9039069121976668e-10 -7.275859899114347e-06 -3.666447578597932e-19 1.1505784979318184e-17 -3.666447578597932e-19 -7.275907965879143e-06" pbc="T T T"
Cs       3.19369442       3.19321450       3.19345447        0       0.00000396      -0.00000396      -0.00000000
Pb       0.00001520      -0.00001520      -0.00000000        1       0.00000221      -0.00000221      -0.00000000
I        0.00005256      -0.00005256       3.19345447        2      -0.00002084       0.00002084      -0.00000000
I        3.19346650      -0.00005257      -0.00000000        3       0.00003550       0.00002084       0.00000000
I        0.00005255       3.19344244      -0.00000000        4      -0.00002084      -0.00003550       0.00000000
Cs       9.58060337       3.19321448       3.19345447        5       0.00000396      -0.00000396      -0.00000000
Pb       6.38692415      -0.00001522      -0.00000000        6       0.00000221      -0.00000221      -0.00000000
I        6.38696150      -0.00005258       3.19345447        7      -0.00002084       0.00002084      -0.00000000
I        9.58037545      -0.00005259      -0.00000000        8       0.00003550       0.00002084       0.00000000
I        6.38696149       3.19344242      -0.00000000        9      -0.00002084      -0.00003550       0.00000000
