10
Lattice="8.368598135972727 0.0 0.0 -7.233847085815736 4.2077180395603255 0.0 0.0 0.0 7.945912994650824" Properties=species:S:1:pos:R:3 pbc="T T T"
Cs       6.07743263       1.41621138       7.93834647
Cs       0.87661756       2.81878406       0.00736967
K        2.90965851       0.01362603       3.97296097
In       2.90968004       0.01363491       0.00005529
I        9.08167165       0.01652234       1.58945863
I       -2.12763912       4.21839127       6.35649610
I        3.21266458       1.11556462       1.58947838
I        3.74145322       3.11947752       6.35651586
I        5.93798629       3.11654261       1.58945068
I        1.01606321       1.11847881       6.35648815
