10
Lattice="8.90230600936483 2.5732628869235645 0.7673210576505216 -6.731806284357452 6.409374556828635 0.2640342329588533 -0.4990019029557162 -0.8863584824043421 8.76987846380138" Properties=species:S:1:pos:R:3:spacegroup_kinds:I:1:forces:R:3 spacegroup="P 1" unit_cell=conventional occupancy="_JSON {\"0\": {\"Cs\": 1.0}, \"1\": {\"Cs\": 1.0}, \"2\": {\"K\": 1.0}, \"3\": {\"In\": 1.0}, \"4\": {\"I\": 1.0}, \"5\": {\"I\": 1.0}, \"6\": {\"I\": 1.0}, \"7\": {\"I\": 1.0}, \"8\": {\"I\": 1.0}, \"9\": {\"I\": 1.0}}" energy=-25.793815915974886 free_energy=-25.793815915974886 stress="-7.278636316719163e-07 -4.7328548063832783e-07 1.0117803138541627e-06 -4.7328548063832783e-07 -2.6551615878278465e-07 -3.5700825661193087e-07 1.0117803138541627e-06 -3.5700825661193087e-07 -1.8500108353158886e-07" pbc="T T T"
Cs      -2.61341715       1.31213787       8.90074355        0      -0.00027149       0.00006136       0.00001254
Cs       1.57973421       6.05613565       0.67272277        1      -0.00026463       0.00006600       0.00000623
K        2.84880023       0.47944217       4.65471224        2       0.00003598       0.00001612       0.00003044
In       3.09825443       0.92270479       0.26980414        3       0.00010378      -0.00005692       0.00001853
I        1.24605991       2.43928839       2.09587760        4       0.00007500      -0.00009788      -0.00006543
I        4.45145944      -1.48025925       7.21371494        5       0.00010650       0.00002495      -0.00003541
I        4.58171161       7.37705508       2.78474740        6       0.00000429       0.00009842      -0.00003605
I       -5.61577331      -0.00875427       6.78875881        7      -0.00005795      -0.00000763      -0.00001753
I       -1.39389979       7.81174405       2.48800595        8       0.00010621      -0.00001232       0.00004504
I        0.35958381      -0.44327079       7.08541380        9       0.00016230      -0.00009209       0.00004165
