20
Lattice="8.95541805836592 1.4806572932385007 0.13485247944500606 -1.4086178032093724 8.524045780741268 -0.04297851547998479 3.5729072625288816 5.035587417903649 12.908510017949288" Properties=species:S:1:pos:R:3:spacegroup_kinds:I:1:forces:R:3 spacegroup="P 1" unit_cell=conventional occupancy="_JSON {\"0\": {\"Cs\": 1.0}, \"1\": {\"Cs\": 1.0}, \"2\": {\"Cs\": 1.0}, \"3\": {\"Cs\": 1.0}, \"4\": {\"Pb\": 1.0}, \"5\": {\"Pb\": 1.0}, \"6\": {\"Pb\": 1.0}, \"7\": {\"Pb\": 1.0}, \"8\": {\"I\": 1.0}, \"9\": {\"I\": 1.0}, \"10\": {\"I\": 1.0}, \"11\": {\"I\": 1.0}, \"12\": {\"I\": 1.0}, \"13\": {\"I\": 1.0}, \"14\": {\"I\": 1.0}, \"15\": {\"I\": 1.0}, \"16\": {\"I\": 1.0}, \"17\": {\"I\": 1.0}, \"18\": {\"I\": 1.0}, \"19\": {\"I\": 1.0}}" energy=-56.322380430440525 free_energy=-56.322380430440525 stress="5.75455602506357e-06 1.1938840954586765e-06 -1.3591152975111058e-06 1.1938840954586765e-06 1.0938914738535173e-06 6.802003833287001e-07 -1.3591152975111058e-06 6.802003833287001e-07 -2.8637719918305744e-06" pbc="T T T"
Cs       7.66506758       5.08273571       3.32232612        0      -0.00019090       0.00008117       0.00015532
Cs       2.39345738       9.14529661       3.23115870        1       0.00026303      -0.00011399      -0.00010892
Cs       8.66029523       5.55257691       9.76952058        2      -0.00029042       0.00031526      -0.00035062
Cs       3.47450467       9.07966697       9.68079724        3       0.00020724       0.00007668      -0.00033651
Pb       3.61265016       4.67377858      12.93997185        4       0.00000706      -0.00067169      -0.00034840
Pb       3.79104312       4.77060589       0.07654402        5       0.00084853       0.00005022      -0.00026486
Pb       3.69344417       4.78622760       6.44891949        6       0.00025903      -0.00021513       0.00007649
Pb       7.48780892       9.65857328       6.49563179        7      -0.00027377      -0.00005263       0.00002513
I        1.71320957       7.18277338      -0.27921355        8      -0.00028525      -0.00001991      -0.00007219
I        5.99393743       2.35637451       0.44983044        9      -0.00056869       0.00051878       0.00009421
I        3.71666950       5.32014647       3.26027286       10       0.00048473      -0.00035478       0.00012797
I        4.91990074       7.67137821      13.28683232       11      -0.00020303      -0.00030553      -0.00006533
I        9.96666268      11.72277384      12.70096937       12       0.00001737       0.00012372       0.00018957
I        7.68774552       9.12974122       3.31215890       13      -0.00032696       0.00013990       0.00010734
I        4.49681704      10.89469846       6.11043358       14      -0.00015222       0.00034503      -0.00018643
I        6.28635348       6.70436100       6.80466961       15      -0.00009069      -0.00011540      -0.00008729
I        3.61341724       4.71892788       9.69273500       16      -0.00010141       0.00017526       0.00018145
I        1.60330095       7.19845038       6.73093762       17       0.00036017      -0.00010120       0.00012877
I        8.80739079      12.65347071       6.17139966       18      -0.00014741       0.00025666       0.00024807
I        7.38255004       9.73012371       9.73841336       19       0.00018362      -0.00013243       0.00048624
