20
Lattice="9.023611126149685 0.0 0.0 -2.6953335876250533 7.5701233471438245 0.0 2.846615201692192 3.9255468203251738 9.893977349329024" Properties=species:S:1:pos:R:3 pbc="T T T"
Cs       4.22876969       9.08131265       2.47349425
Cs       1.55796745       5.29681125       2.47349425
Cs       8.42110339       4.65234036       7.42048292
Cs      11.09207369       8.43796231       7.42048292
Pb       1.73745778       1.11939448      -0.00000551
Pb       3.16413877       3.78506167       0.00000000
Pb       3.16076538       3.08216789       4.94699400
Pb       6.32495466       6.86694108       4.94700970
I        1.71834739       6.57290683       0.41087777
I        4.08544236       2.78780019       0.41140688
I       10.68298659       2.17233420       2.47349425
I       10.93156215       7.16131310       9.48240636
I        8.56448021      10.94632980       9.48293548
I        6.35212803       5.95682223       2.47349425
I        2.90502668       8.20936444       4.53611073
I        5.27212165       4.42425780       4.53558161
I        1.96677699      11.56245428       7.42048292
I        9.74488286       5.52485549       5.35855948
I        7.37780092       9.30987219       5.35803037
I        6.29767905       7.77681897       7.42048292
