40
Lattice="17.943543114650048 0.0 0.0 8.971771557400576 15.539564171144885 0.0 4.485885778772796 2.589927361913847 7.325421002493724" Properties=species:S:1:pos:R:3 pbc="T T T"
Cs       4.48585333       2.58991763       1.83135637
Cs      13.45768970       7.76979156       5.49406447
K        8.97177158       5.17985463       3.66271047
In       0.00000010       0.00000023       0.00000009
I        6.89321785       3.33793975       5.06497632
I       11.05032535       7.02176934       2.26044458
I        9.61621061       2.86333247       1.70240978
I        8.32733221       7.49637658       5.62301108
I        6.57106138       6.56602949       1.70241657
I       11.37248206       3.79368040       5.62300467
Cs       8.97173911      10.35969972       1.83135637
Cs      17.94357547      15.53957365       5.49406447
K       13.45765736      12.94963672       3.66271047
In       4.48588588       7.76978232       0.00000009
I       11.37910363      11.10772184       5.06497632
I       15.53621113      14.79155143       2.26044458
I       14.10209639      10.63311455       1.70240978
I       12.81321799      15.26615867       5.62301108
I       11.05694715      14.33581158       1.70241657
I       15.85836783      11.56346249       5.62300467
Cs      13.45762488       2.58991763       1.83135637
Cs      22.42946125       7.76979156       5.49406447
K       17.94354314       5.17985463       3.66271047
In       8.97177166       0.00000023       0.00000009
I       15.86498940       3.33793975       5.06497632
I       20.02209691       7.02176934       2.26044458
I       18.58798217       2.86333247       1.70240978
I       17.29910377       7.49637658       5.62301108
I       15.54283293       6.56602949       1.70241657
I       20.34425361       3.79368040       5.62300467
Cs      17.94351066      10.35969972       1.83135637
Cs      26.91534703      15.53957365       5.49406447
K       22.42942892      12.94963672       3.66271047
In      13.45765744       7.76978232       0.00000009
I       20.35087518      11.10772184       5.06497632
I       24.50798269      14.79155143       2.26044458
I       23.07386795      10.63311455       1.70240978
I       21.78498955      15.26615867       5.62301108
I       20.02871871      14.33581158       1.70241657
I       24.83013939      11.56346249       5.62300467
