40
Lattice="18.358041057413 -0.030357295627419796 0.009321978418719843 9.171413370960057 16.003474535588364 -0.0463423289702022 4.57390049902365 2.626825541251411 6.9340154963188425" Properties=species:S:1:pos:R:3:spacegroup_kinds:I:1:forces:R:3 spacegroup="P 1" unit_cell=conventional occupancy="_JSON {\"0\": {\"Cs\": 1.0}, \"1\": {\"Cs\": 1.0}, \"2\": {\"K\": 1.0}, \"3\": {\"In\": 1.0}, \"4\": {\"I\": 1.0}, \"5\": {\"I\": 1.0}, \"6\": {\"I\": 1.0}, \"7\": {\"I\": 1.0}, \"8\": {\"I\": 1.0}, \"9\": {\"I\": 1.0}, \"10\": {\"Cs\": 1.0}, \"11\": {\"Cs\": 1.0}, \"12\": {\"K\": 1.0}, \"13\": {\"In\": 1.0}, \"14\": {\"I\": 1.0}, \"15\": {\"I\": 1.0}, \"16\": {\"I\": 1.0}, \"17\": {\"I\": 1.0}, \"18\": {\"I\": 1.0}, \"19\": {\"I\": 1.0}, \"20\": {\"Cs\": 1.0}, \"21\": {\"Cs\": 1.0}, \"22\": {\"K\": 1.0}, \"23\": {\"In\": 1.0}, \"24\": {\"I\": 1.0}, \"25\": {\"I\": 1.0}, \"26\": {\"I\": 1.0}, \"27\": {\"I\": 1.0}, \"28\": {\"I\": 1.0}, \"29\": {\"I\": 1.0}, \"30\": {\"Cs\": 1.0}, \"31\": {\"Cs\": 1.0}, \"32\": {\"K\": 1.0}, \"33\": {\"In\": 1.0}, \"34\": {\"I\": 1.0}, \"35\": {\"I\": 1.0}, \"36\": {\"I\": 1.0}, \"37\": {\"I\": 1.0}, \"38\": {\"I\": 1.0}, \"39\": {\"I\": 1.0}}" energy=-102.59578649977833 free_energy=-102.59578649977833 stress="1.0674604357269172e-06 -6.891598953346517e-07 -8.523664746434012e-07 -6.891598953346517e-07 1.9624248934434807e-06 -4.771493215631857e-07 -8.523664746434012e-07 -4.771493215631857e-07 2.6392655823502623e-06" pbc="T T T"
Cs       4.59895515       2.64117880       1.91859209        0      -0.00004438      -0.00011833      -0.00005681
Cs      13.73935582       7.97284785       4.99693704        1       0.00002317      -0.00014478      -0.00002312
K        9.16960906       5.30674303       3.45733289        2      -0.00000840      -0.00004078       0.00019113
In      18.35799815      -0.03042575       0.00939008        3       0.00043497      -0.00020275      -0.00002814
I        6.95715729       3.20817247       5.24824900        4      -0.00000706       0.00009089       0.00033651
I       11.38110040       7.40593057       1.66663055        5      -0.00032850       0.00004201       0.00028837
I        9.87198123       2.29210002       1.74595611        6      -0.00012450      -0.00011931      -0.00058950
I        8.46695733       8.32091339       5.17004483        7       0.00009416       0.00000725      -0.00018584
I        6.24456045       6.19887330       1.67425080        8       0.00009218       0.00003681      -0.00008548
I       12.09422546       4.41454947       5.24118552        9       0.00020638      -0.00009962       0.00009812
Cs       9.18442451      10.64283075       1.89541782       10       0.00013385       0.00003990      -0.00002402
Cs      18.32517320      15.97480970       4.97392829       11       0.00009368      -0.00003761      -0.00005905
K       13.75525901      13.30842310       3.43424164       12       0.00008946      -0.00004984       0.00011795
In      22.94387810       7.97132455      -0.01384410       13      -0.00061116       0.00039828       0.00002554
I       11.54289749      11.20983676       5.22492212       14      -0.00022700       0.00001916       0.00055868
I       15.96671268      15.40767074       1.64356538       15       0.00014855      -0.00023184       0.00001247
I       14.45783755      10.29373561       1.72275052       16      -0.00016948       0.00048422      -0.00016153
I       13.05294265      16.32266339       5.14678841       17      -0.00003835      -0.00026375      -0.00011749
I       10.83045849      14.20066621       1.65113839       18      -0.00032062      -0.00001145      -0.00023695
I       16.67998424      12.41670962       5.21810101       19       0.00020628      -0.00023467       0.00005523
Cs      13.77821940       2.62558656       1.92311993       20      -0.00004044      -0.00008409       0.00002143
Cs      22.91877054       7.95728190       5.00172009       21      -0.00017285      -0.00002183       0.00002390
K       18.34839656       5.29151692       3.46220388       22      -0.00022525       0.00003008       0.00016940
In       9.17903198      -0.01533696       0.00461153       23       0.00027163       0.00020319       0.00001835
I       16.13622124       3.19246945       5.25270803       24      -0.00012210      -0.00005818       0.00053265
I       20.56002957       7.39005856       1.67150249       25       0.00053650       0.00019290      -0.00020474
I       19.05067102       2.27678573       1.75072960       26       0.00001300       0.00030460      -0.00014054
I       17.64571081       8.30551666       5.17496829       27       0.00003024       0.00024726      -0.00030450
I       15.42312005       6.18367112       1.67906671       28       0.00037192      -0.00018547       0.00007622
I       21.27319318       4.39927343       5.24617919       29      -0.00036137       0.00041174      -0.00031537
Cs      18.36381163      10.62742091       1.90006780       30       0.00018154      -0.00014055       0.00000981
Cs      27.50465647      15.95920872       4.97838554       31      -0.00015171      -0.00004040       0.00007049
K       22.93409443      13.29326231       3.43905543       32      -0.00006866      -0.00016677       0.00020872
In      13.76475719       7.98665359      -0.01863399       33      -0.00021258      -0.00026597      -0.00003062
I       20.72188623      11.19417975       5.22970267       34       0.00020999      -0.00002784       0.00008001
I       25.14569128      15.39176617       1.64815360       35       0.00037006      -0.00003282       0.00009032
I       23.63635853      10.27862585       1.72772729       36      -0.00000562      -0.00021709      -0.00052944
I       22.23184192      16.30706014       5.15162209       37      -0.00025483       0.00044292       0.00018072
I       20.00916630      14.18538884       1.65599894       38      -0.00024312       0.00018806      -0.00026616
I       25.85882926      12.40142774       5.22306835       39       0.00023041      -0.00034354       0.00019328
