10
Lattice="9.175104351930223 -0.01182409271627319 0.01086130832162564 4.5839087499982725 8.009267562617088 -0.02459934626839472 4.578147772445153 2.628410292521158 6.932580111922673" Properties=species:S:1:pos:R:3:spacegroup_kinds:I:1:forces:R:3 spacegroup="P 1" unit_cell=conventional occupancy="_JSON {\"0\": {\"Cs\": 1.0}, \"1\": {\"Cs\": 1.0}, \"2\": {\"K\": 1.0}, \"3\": {\"In\": 1.0}, \"4\": {\"I\": 1.0}, \"5\": {\"I\": 1.0}, \"6\": {\"I\": 1.0}, \"7\": {\"I\": 1.0}, \"8\": {\"I\": 1.0}, \"9\": {\"I\": 1.0}}" energy=-25.648935594095676 free_energy=-25.648935594095676 stress="-1.985361054970939e-06 -1.1024748013452792e-05 7.985311988710735e-06 -1.1024748013452792e-05 1.4484506526335062e-05 2.385026791432624e-06 7.985311988710735e-06 2.385026791432624e-06 -1.5819928162457352e-05" pbc="T T T"
Cs       4.60326867       2.64454900       1.91777860        0      -0.00035026       0.00028857       0.00008214
Cs      13.73439168       7.98105989       5.00087350        1      -0.00016841      -0.00038675       0.00001062
K        9.16840369       5.31386574       3.45961598        2       0.00009012      -0.00084474      -0.00024135
In       9.17521067      -0.01165205       0.01094146        3      -0.00007491      -0.00008922      -0.00007367
I        6.95714690       3.21091164       5.24289560        4       0.00020692      -0.00012473       0.00050280
I       11.37989006       7.41522382       1.67580408        5       0.00003489      -0.00010520      -0.00025791
I        9.87184040       2.29408928       1.75272584        6      -0.00026434       0.00021580      -0.00012060
I        8.46548951       8.33158299       5.16663650        7      -0.00000614       0.00002856      -0.00020073
I        6.24707876       6.20363599       1.66738212        8       0.00012025       0.00034684       0.00021774
I       12.08960807       4.42125105       5.25099686        9       0.00041190       0.00067088       0.00008096
