40
Lattice="17.27221808514415 1.352367588906145 -0.17662271827016146 -0.7094263764203171 9.10878179821213 0.5781653532973882 0.18964651004347202 -0.7818815708361074 12.612393635047576" Properties=species:S:1:pos:R:3:spacegroup_kinds:I:1:forces:R:3 spacegroup="P 1" unit_cell=conventional occupancy="_JSON {\"0\": {\"Cs\": 1.0}, \"1\": {\"Cs\": 1.0}, \"2\": {\"Cs\": 1.0}, \"3\": {\"Cs\": 1.0}, \"4\": {\"Pb\": 1.0}, \"5\": {\"Pb\": 1.0}, \"6\": {\"Pb\": 1.0}, \"7\": {\"Pb\": 1.0}, \"8\": {\"I\": 1.0}, \"9\": {\"I\": 1.0}, \"10\": {\"I\": 1.0}, \"11\": {\"I\": 1.0}, \"12\": {\"I\": 1.0}, \"13\": {\"I\": 1.0}, \"14\": {\"I\": 1.0}, \"15\": {\"I\": 1.0}, \"16\": {\"I\": 1.0}, \"17\": {\"I\": 1.0}, \"18\": {\"I\": 1.0}, \"19\": {\"I\": 1.0}, \"20\": {\"Cs\": 1.0}, \"21\": {\"Cs\": 1.0}, \"22\": {\"Cs\": 1.0}, \"23\": {\"Cs\": 1.0}, \"24\": {\"Pb\": 1.0}, \"25\": {\"Pb\": 1.0}, \"26\": {\"Pb\": 1.0}, \"27\": {\"Pb\": 1.0}, \"28\": {\"I\": 1.0}, \"29\": {\"I\": 1.0}, \"30\": {\"I\": 1.0}, \"31\": {\"I\": 1.0}, \"32\": {\"I\": 1.0}, \"33\": {\"I\": 1.0}, \"34\": {\"I\": 1.0}, \"35\": {\"I\": 1.0}, \"36\": {\"I\": 1.0}, \"37\": {\"I\": 1.0}, \"38\": {\"I\": 1.0}, \"39\": {\"I\": 1.0}}" energy=-113.01605123055174 free_energy=-113.01605123055174 stress="5.005036072125519e-06 -1.1452995413240333e-05 -3.5670413214619093e-06 -1.1452995413240333e-05 7.541177051798763e-07 1.0573494275601024e-05 -3.5670413214619093e-06 1.0573494275601024e-05 -6.874056524203193e-06" pbc="T T T"
Cs       3.96772761       8.68154619       3.64698050        0      -0.00041061       0.00008707      -0.00019473
Cs       0.47562185       3.82541522       3.39797182        1       0.00029944       0.00064286      -0.00034975
Cs       5.13232803       0.63608692       9.46012181        2       0.00028471       0.00036502      -0.00030995
Cs       8.62334634       5.49199572       9.70959346        3       0.00019502      -0.00038460       0.00036172
Pb       0.49208723       0.15740699       0.00209843        4      -0.00019483      -0.00000451       0.00024524
Pb       4.45516740       5.05024024       0.24721117        5      -0.00024605      -0.00019244      -0.00006302
Pb       0.58699932      -0.23417845       6.30829218        6      -0.00011947       0.00010209       0.00011987
Pb       4.55039188       4.65826956       6.55354251        7      -0.00006310       0.00035682      -0.00015726
I        1.67473039       6.62150452       0.91470672        8      -0.00016076      -0.00014231       0.00004490
I        3.00578113       2.14365643       0.61581905        9       0.00007601      -0.00011381       0.00019100
I        8.43690315       0.66641290       3.07998614       10       0.00019357      -0.00028547      -0.00002615
I        7.42464823       2.69580435      12.19277097       11       0.00025484       0.00041845      -0.00025292
I        6.09336646       7.17496071      12.49072687       12       0.00039599      -0.00039520       0.00030249
I        5.22810416       4.99777470       3.39824062       13      -0.00007239      -0.00001070       0.00009294
I        1.75377966       6.29531621       6.17080175       14      -0.00010928      -0.00002706      -0.00024047
I        3.08603134       1.81724294       5.87062299       15      -0.00020390       0.00002720       0.00006265
I        1.37290840      -0.45737758       9.44873090       16      -0.00031409      -0.00005405      -0.00004099
I        7.34638685       3.02155360       6.93698776       17       0.00021530       0.00022906      -0.00014781
I        6.01485401       7.50041873       7.23580600       18      -0.00028589      -0.00021683       0.00022316
I        3.87150648       4.32065387       9.70846390       19       0.00026468      -0.00040167       0.00013903
Cs      12.60383667       9.35772999       3.55866914       20      -0.00041074       0.00008707      -0.00019473
Cs       9.11173087       4.50159901       3.30966046       21       0.00029958       0.00064286      -0.00034975
Cs      13.76843709       1.31227072       9.37181045       22       0.00028460       0.00036502      -0.00030995
Cs      -0.01276268       4.81581193       9.79790482       23       0.00019490      -0.00038462       0.00036173
Pb       9.12819618       0.83359075      -0.08621293       24      -0.00019432      -0.00000442       0.00024526
Pb      13.09127651       5.72642408       0.15889981       25      -0.00024645      -0.00019258      -0.00006302
Pb       9.22310827       0.44200531       6.21998082       26      -0.00011894       0.00010217       0.00011984
Pb      13.18650100       5.33445341       6.46523116       27      -0.00006356       0.00035663      -0.00015729
I       10.31083944       7.29768832       0.82639536       28      -0.00016080      -0.00014229       0.00004489
I       11.64189018       2.81984024       0.52750770       29       0.00007596      -0.00011385       0.00019098
I       17.07301217       1.34259668       2.99167478       30       0.00019371      -0.00028545      -0.00002610
I       16.06075722       3.37198818      12.10445962       31       0.00025518       0.00041824      -0.00025295
I       14.72947543       7.85114441      12.40241550       32       0.00039639      -0.00039481       0.00030251
I       13.86421318       5.67395848       3.30992927       33      -0.00007225      -0.00001068       0.00009292
I       10.38988870       6.97150001       6.08249039       34      -0.00010930      -0.00002706      -0.00024046
I       11.72214039       2.49342674       5.78231162       35      -0.00020393       0.00002719       0.00006267
I       10.00901744       0.21880622       9.36041954       36      -0.00031411      -0.00005407      -0.00004095
I       15.98249584       3.69773744       6.84867641       37       0.00021567       0.00022881      -0.00014783
I       14.65096297       8.17660242       7.14749462       38      -0.00028545      -0.00021638       0.00022319
I       12.50761552       4.99683767       9.62015254       39       0.00026468      -0.00040169       0.00013905
