20
Lattice="18.4356540179119 0.05005221739117759 0.09089597806711341 4.645456654677278 7.987680514983768 0.0367313886844934 4.639655144909093 2.6704773437676246 6.967889782573235" Properties=species:S:1:pos:R:3:spacegroup_kinds:I:1:forces:R:3 spacegroup="P 1" unit_cell=conventional occupancy="_JSON {\"0\": {\"Cs\": 1.0}, \"1\": {\"Cs\": 1.0}, \"2\": {\"K\": 1.0}, \"3\": {\"In\": 1.0}, \"4\": {\"I\": 1.0}, \"5\": {\"I\": 1.0}, \"6\": {\"I\": 1.0}, \"7\": {\"I\": 1.0}, \"8\": {\"I\": 1.0}, \"9\": {\"I\": 1.0}, \"10\": {\"Cs\": 1.0}, \"11\": {\"Cs\": 1.0}, \"12\": {\"K\": 1.0}, \"13\": {\"In\": 1.0}, \"14\": {\"I\": 1.0}, \"15\": {\"I\": 1.0}, \"16\": {\"I\": 1.0}, \"17\": {\"I\": 1.0}, \"18\": {\"I\": 1.0}, \"19\": {\"I\": 1.0}}" energy=-51.29788983314988 free_energy=-51.29788983314988 stress="-2.134398755164651e-06 1.3483350460491715e-06 -3.549168731425357e-07 1.3483350460491715e-06 -5.701991356660777e-07 2.800850515599414e-07 -3.549168731425357e-07 2.800850515599414e-07 9.458736030366592e-07" pbc="T T T"
Cs       4.63099699       2.68740036       1.95169937        0      -0.00011739       0.00015426       0.00023122
Cs      13.87222365       7.99559172       5.09776831        1      -0.00024413       0.00011051       0.00002006
K        9.25138618       5.34143611       3.52494515        2      -0.00001821       0.00024730       0.00005131
In      18.43546065       0.05013628       0.09095734        3       0.00052513      -0.00043005      -0.00002505
I        6.99018004       3.22807824       5.23622432        4       0.00018159      -0.00035152      -0.00054906
I       11.51269295       7.45573531       1.81451616        5       0.00015175      -0.00013559      -0.00000788
I        9.94468944       2.35862892       1.75023104        6       0.00011851      -0.00007891      -0.00028052
I        8.55810295       8.32444941       5.30033925        7      -0.00006512      -0.00006687      -0.00009819
I        6.33456024       6.20946647       1.72403910        8      -0.00030790       0.00015315       0.00021747
I       12.16848824       4.47356560       5.32549012        9       0.00037273      -0.00030368       0.00039561
Cs      13.84884562       2.71241967       1.99713911       10      -0.00023418       0.00018947       0.00029221
Cs      23.09002604       8.02062289       5.14321708       11      -0.00010125       0.00005754      -0.00003643
K       18.46919273       5.36646439       3.57039564       12       0.00008479       0.00021752       0.00003212
In       9.21775598       0.02502623       0.04551941       13      -0.00029064       0.00045207      -0.00013491
I       16.20808339       3.25308685       5.28164483       14       0.00003309      -0.00029986      -0.00049686
I       20.73050461       7.48079430       1.85995685       15      -0.00001814      -0.00028389       0.00016937
I       19.16250727       2.38357570       1.79560195       16       0.00016131       0.00033914       0.00010869
I       17.77590683       8.34945992       5.34581582       17       0.00001513      -0.00010013      -0.00021443
I       15.55231222       6.23451597       1.76947499       18       0.00003931      -0.00007110       0.00041731
I       21.38645752       4.49851363       5.37102213       19      -0.00028639       0.00020064      -0.00009207
