20
Lattice="18.321327509818815 -1.1407089224597184 0.5627316419964548 4.954120504767427 6.963316372467863 1.6576152290439046 4.383730803674069 0.9596631590762955 8.049124179211894" Properties=species:S:1:pos:R:3:spacegroup_kinds:I:1:forces:R:3 spacegroup="P 1" unit_cell=conventional occupancy="_JSON {\"0\": {\"Cs\": 1.0}, \"1\": {\"Cs\": 1.0}, \"2\": {\"K\": 1.0}, \"3\": {\"In\": 1.0}, \"4\": {\"I\": 1.0}, \"5\": {\"I\": 1.0}, \"6\": {\"I\": 1.0}, \"7\": {\"I\": 1.0}, \"8\": {\"I\": 1.0}, \"9\": {\"I\": 1.0}, \"10\": {\"Cs\": 1.0}, \"11\": {\"Cs\": 1.0}, \"12\": {\"K\": 1.0}, \"13\": {\"In\": 1.0}, \"14\": {\"I\": 1.0}, \"15\": {\"I\": 1.0}, \"16\": {\"I\": 1.0}, \"17\": {\"I\": 1.0}, \"18\": {\"I\": 1.0}, \"19\": {\"I\": 1.0}}" energy=-51.2978793368357 free_energy=-51.2978793368357 stress="8.542586476306395e-06 5.278882683573315e-06 -7.472587898121068e-06 5.278882683573315e-06 -1.2545151860058272e-05 5.743178863906265e-07 -7.472587898121068e-06 5.743178863906265e-07 3.180991088304405e-06" pbc="T T T"
Cs       4.64907829       2.02183279       2.45238613        0      -0.00000503      -0.00018659       0.00010829
Cs      13.84971120       5.33011573       7.53542897        1       0.00010327       0.00040465       0.00007737
K        9.24868999       3.67554532       4.99439787        2       0.00049343       0.00036649      -0.00026963
In      18.32129437      -1.14065034       0.56296242        3       0.00043743      -0.00023655      -0.00015053
I        6.18656195       2.25351161       6.05978104        4       0.00025109      -0.00047753       0.00035898
I       12.31092221       5.10016593       3.92815854        5       0.00028425       0.00002212      -0.00014719
I        9.90915575       1.46646667       2.31256621        6      -0.00047394      -0.00007184       0.00001327
I        8.59068083       5.88658738       7.67523521        7      -0.00058379      -0.00027482       0.00013394
I        7.21318750       5.25179417       2.56967166        8      -0.00043270       0.00020118       0.00008875
I       11.28528678       2.10076588       7.41861556        9       0.00049850       0.00005146      -0.00021343
Cs      13.80975047       1.45146640       2.73373973       10      -0.00007690      -0.00014089       0.00015800
Cs      23.01036669       4.75977323       7.81680721       11       0.00017483       0.00035870       0.00002715
K       18.40935372       3.10519074       5.27576358       12       0.00049367       0.00036616      -0.00026988
In       9.16078358      -0.57035942       0.28159982       13      -0.00070721       0.00016264      -0.00015518
I       15.34720733       1.68316973       6.34119501       14       0.00041589      -0.00042991       0.00010393
I       21.47160425       4.52979888       4.20947633       15       0.00011831      -0.00002643       0.00010897
I       19.06982639       0.89614396       2.59396996       16      -0.00053588      -0.00015647      -0.00007438
I       17.75133735       5.31619964       7.95656126       17      -0.00052064      -0.00018531       0.00022649
I       16.37378731       4.68150486       2.85103833       18       0.00001289      -0.00018808       0.00021025
I       20.44601432       1.53034638       7.69998043       19       0.00005252       0.00044100      -0.00033516
