40
Lattice="24.9693974169109 -1.7425071898716964 -2.0614082329540544 -1.7910696253071352 14.275374282073033 -1.692055601308936 -0.8699952300488929 1.0379657806917764 7.370872690650892" Properties=species:S:1:pos:R:3:spacegroup_kinds:I:1:forces:R:3 spacegroup="P 1" unit_cell=conventional occupancy="_JSON {\"0\": {\"Cs\": 1.0}, \"1\": {\"Cs\": 1.0}, \"2\": {\"K\": 1.0}, \"3\": {\"In\": 1.0}, \"4\": {\"I\": 1.0}, \"5\": {\"I\": 1.0}, \"6\": {\"I\": 1.0}, \"7\": {\"I\": 1.0}, \"8\": {\"I\": 1.0}, \"9\": {\"I\": 1.0}, \"10\": {\"Cs\": 1.0}, \"11\": {\"Cs\": 1.0}, \"12\": {\"K\": 1.0}, \"13\": {\"In\": 1.0}, \"14\": {\"I\": 1.0}, \"15\": {\"I\": 1.0}, \"16\": {\"I\": 1.0}, \"17\": {\"I\": 1.0}, \"18\": {\"I\": 1.0}, \"19\": {\"I\": 1.0}, \"20\": {\"Cs\": 1.0}, \"21\": {\"Cs\": 1.0}, \"22\": {\"K\": 1.0}, \"23\": {\"In\": 1.0}, \"24\": {\"I\": 1.0}, \"25\": {\"I\": 1.0}, \"26\": {\"I\": 1.0}, \"27\": {\"I\": 1.0}, \"28\": {\"I\": 1.0}, \"29\": {\"I\": 1.0}, \"30\": {\"Cs\": 1.0}, \"31\": {\"Cs\": 1.0}, \"32\": {\"K\": 1.0}, \"33\": {\"In\": 1.0}, \"34\": {\"I\": 1.0}, \"35\": {\"I\": 1.0}, \"36\": {\"I\": 1.0}, \"37\": {\"I\": 1.0}, \"38\": {\"I\": 1.0}, \"39\": {\"I\": 1.0}}" energy=-102.0924792203262 free_energy=-102.0924792203262 stress="1.3430084380369374e-05 -2.599694900445846e-06 5.776064544403726e-07 -2.599694900445846e-06 -1.1942417047027771e-06 5.3911105901738506e-06 5.776064544403726e-07 5.3911105901738506e-06 -6.9192252038144804e-06" pbc="T T T"
Cs       6.58621558       1.34941303       0.81455057        0      -0.00022993       0.00021204       0.00017737
Cs       0.29550189       5.29109820       7.55153729        1       0.00001363      -0.00006671      -0.00005695
K       26.35361917      -0.52862250       2.17113706        2       0.00055239       0.00023385      -0.00019698
In      22.29632005      -1.61230549      -2.20197330        3      -0.00000073      -0.00016776       0.00004027
I       23.29578639       0.10800524      -0.27668529        4       0.00013016       0.00010132       0.00004440
I        9.90985460       5.91204359       4.06435325        5      -0.00038427       0.00046532       0.00013650
I        0.70418422       4.75301353       3.86291415        6      -0.00000596      -0.00007224      -0.00002949
I        6.96305825       4.88373022      -0.70291081        7       0.00013640      -0.00035549       0.00027591
I        1.99589927       8.00934729      -0.02135906        8      -0.00009523       0.00007355       0.00008507
I        7.40560273       1.93426246       4.54764400        9      -0.00028646       0.00003833      -0.00021784
Cs       5.69029486       8.48765592      -0.03159510       10       0.00010729      -0.00033115       0.00024624
Cs      -0.59974047      12.42880341       6.70541474       11      -0.00016049      -0.00004037      -0.00014615
K        0.48972862       8.35180986       3.38606333       12      -0.00001238      -0.00004326      -0.00003924
In      21.40099228       5.52546344      -3.04813423       13      -0.00006035      -0.00029433       0.00016203
I       22.40015674       7.24593907      -1.12282063       14       0.00043437      -0.00009823      -0.00005552
I        9.01447634      13.05023038       3.21799339       15       0.00020072      -0.00065717      -0.00016496
I       -0.19115118      11.89052930       3.01677241       16      -0.00003057       0.00002926       0.00008388
I        6.06818912      12.02081133      -1.54867887       17      -0.00010154       0.00035553      -0.00010884
I        2.89156054       0.87158202       0.82462555       18       0.00000467       0.00017021       0.00010940
I        6.51001050       9.07203730       3.70128252       19      -0.00016690       0.00007754      -0.00016260
Cs      19.07112633       0.47784009      -0.21601320       20      -0.00057972       0.00047251      -0.00017895
Cs      12.78035755       4.41981166       6.52095011       21       0.00002564      -0.00003378      -0.00009975
K       13.86944136       0.34267110       3.20171312       22       0.00038034       0.00025210      -0.00013827
In       9.81191070      -0.74127756      -1.17117016       23      -0.00015777       0.00026921       0.00022791
I       10.81158758       0.97885158       0.75416788       24      -0.00005424       0.00022275       0.00003646
I       22.39447903       5.04071873       3.03362512       25      -0.00011514       0.00043580      -0.00000738
I       13.18866777       3.88163190       2.83234628       26       0.00010384       0.00013336      -0.00015961
I       19.44810996       4.01245074      -1.73356064       27      -0.00009187      -0.00060166       0.00016658
I       14.48094796       7.13813768      -1.05204074       28      -0.00036735       0.00004077       0.00009852
I       19.89020444       1.06301713       3.51646224       29      -0.00025065       0.00000045       0.00035858
Cs      18.17509962       7.61609764      -1.06211379       30       0.00029677      -0.00020808       0.00003584
Cs      11.88486572      11.55753586       5.67479321       31      -0.00001834       0.00002262      -0.00010202
K       12.97483824       7.48084058       2.35488975       32      -0.00017983      -0.00035299       0.00018162
In       8.91617413       6.39655038      -2.01729263       33       0.00065988      -0.00022728      -0.00021566
I        9.91612105       8.11704618      -0.09233436       34      -0.00023627      -0.00027114       0.00008840
I       21.49886471      12.17898646       2.18731818       35       0.00025651      -0.00045910      -0.00010559
I       12.29310495      11.01946033       1.98621157       36       0.00017223      -0.00018957      -0.00018858
I       18.55293301      11.14939716      -2.57941628       37      -0.00010883       0.00056284      -0.00024723
I       15.37626933       0.00019738      -0.20581744       38       0.00030180       0.00028320       0.00002568
I       18.99477610       8.20084964       2.67040574       39      -0.00008185       0.00001774       0.00004097
