40
Lattice="18.444870387179915 0.08911175776496305 0.03166897799554634 9.297375863397912 14.915457942984704 0.4190029476927873 4.644535835151186 2.687632641980577 7.520774985002996" Properties=species:S:1:pos:R:3:spacegroup_kinds:I:1:forces:R:3 spacegroup="P 1" unit_cell=conventional occupancy="_JSON {\"0\": {\"Cs\": 1.0}, \"1\": {\"Cs\": 1.0}, \"2\": {\"K\": 1.0}, \"3\": {\"In\": 1.0}, \"4\": {\"I\": 1.0}, \"5\": {\"I\": 1.0}, \"6\": {\"I\": 1.0}, \"7\": {\"I\": 1.0}, \"8\": {\"I\": 1.0}, \"9\": {\"I\": 1.0}, \"10\": {\"Cs\": 1.0}, \"11\": {\"Cs\": 1.0}, \"12\": {\"K\": 1.0}, \"13\": {\"In\": 1.0}, \"14\": {\"I\": 1.0}, \"15\": {\"I\": 1.0}, \"16\": {\"I\": 1.0}, \"17\": {\"I\": 1.0}, \"18\": {\"I\": 1.0}, \"19\": {\"I\": 1.0}, \"20\": {\"Cs\": 1.0}, \"21\": {\"Cs\": 1.0}, \"22\": {\"K\": 1.0}, \"23\": {\"In\": 1.0}, \"24\": {\"I\": 1.0}, \"25\": {\"I\": 1.0}, \"26\": {\"I\": 1.0}, \"27\": {\"I\": 1.0}, \"28\": {\"I\": 1.0}, \"29\": {\"I\": 1.0}, \"30\": {\"Cs\": 1.0}, \"31\": {\"Cs\": 1.0}, \"32\": {\"K\": 1.0}, \"33\": {\"In\": 1.0}, \"34\": {\"I\": 1.0}, \"35\": {\"I\": 1.0}, \"36\": {\"I\": 1.0}, \"37\": {\"I\": 1.0}, \"38\": {\"I\": 1.0}, \"39\": {\"I\": 1.0}}" energy=-102.59578394988716 free_energy=-102.59578394988716 stress="1.8706969206946693e-07 -9.454777831813553e-08 2.48983771695935e-07 -9.454777831813553e-08 4.651489322448975e-07 -2.6436696482611645e-07 2.48983771695935e-07 -2.6436696482611645e-07 2.5112483072485817e-07" pbc="T T T"
Cs       4.63189056       2.73324321       1.89057723        0       0.00030529      -0.00030293       0.00035176
Cs      13.88335818       7.45780518       5.85499500        1      -0.00026663       0.00003000       0.00037795
K        9.25819026       5.09477225       3.87278435        2      -0.00027388      -0.00000085       0.00030567
In      18.44471296       0.08893262       0.03163677        3       0.00048905       0.00005853       0.00020699
I        6.33672657       3.69047744       5.28721618        4      -0.00008325      -0.00006893      -0.00045339
I       12.17842991       6.50006030       2.45921781        5       0.00044482      -0.00033978       0.00011289
I        9.95135292       2.42367247       1.65621094        6       0.00035393      -0.00024431      -0.00041643
I        8.56509777       7.76562809       6.09066042        7      -0.00073176      -0.00021516      -0.00032867
I        6.99614558       6.00357953       1.31028845        8       0.00045923       0.00009685      -0.00036834
I       11.51898565       4.18598908       6.43685541        9      -0.00005982      -0.00005470      -0.00032356
Cs       9.28078158      10.19062668       2.10004698       10       0.00041188      -0.00027919       0.00026995
Cs      18.53196078      14.91589931       6.06470063       11      -0.00017943      -0.00016174       0.00038023
K       13.90688598      12.55255152       4.08190184       12      -0.00022159      -0.00008446       0.00057597
In      23.09351860       7.54676432       0.24125151       13       0.00009311      -0.00000159      -0.00012522
I       10.98530544      11.14783279       5.49646779       14       0.00040847       0.00022994      -0.00023230
I       16.82768538      13.95798224       2.66916873       15       0.00000050      -0.00053662      -0.00017934
I       14.60005377       9.88124641       1.86587182       16       0.00008462       0.00010395      -0.00020754
I       13.21410986      15.22300254       6.30015153       17      -0.00055482       0.00013168      -0.00029564
I       11.64510209      13.46183577       1.51967218       18       0.00023634      -0.00014688      -0.00008865
I       16.16765183      11.64355937       6.64619262       19       0.00028440       0.00016235      -0.00041518
Cs      13.85509076       2.77732819       1.90594030       20      -0.00041105      -0.00007173       0.00025440
Cs      23.10596553       7.50275799       5.87091696       21       0.00020579      -0.00028063       0.00019803
K       18.48027093       5.13939215       3.88831554       22      -0.00011994       0.00015117       0.00047025
In       9.22230386       0.04440802       0.01571927       23       0.00000925       0.00015743       0.00004566
I       15.55861154       3.73522095       5.30244319       24       0.00010268      -0.00048004       0.00027113
I       21.40127614       6.54458186       2.47548200       25      -0.00025358      -0.00003565      -0.00008887
I       19.17370080       2.46830672       1.67178335       26      -0.00070874       0.00023850       0.00003977
I       17.78681796       7.81019189       6.10618938       27       0.00033854       0.00041011      -0.00011377
I       16.21865740       6.04798586       1.32558335       28       0.00000143       0.00021054      -0.00038763
I       20.74125368       4.22973230       6.45203224       29       0.00025489       0.00010262      -0.00017289
Cs      18.50368140      10.23529493       2.11578953       30      -0.00022135      -0.00020034       0.00023752
Cs      27.75498921      14.96034398       6.08041597       31       0.00017303      -0.00035762       0.00002431
K       23.12908318      12.59720267       4.09750256       32      -0.00021308       0.00008181       0.00077529
In      13.87108963       7.50220436       0.22532343       33      -0.00040343       0.00017689      -0.00028578
I       20.20775204      11.19315017       5.51232163       34      -0.00018379      -0.00058242       0.00016183
I       26.04998081      14.00181079       2.68483852       35       0.00022280       0.00033807      -0.00021798
I       23.82277360       9.92586924       1.88136775       36      -0.00047791       0.00052240       0.00004191
I       22.43529274      15.26770747       6.31580687       37       0.00020007       0.00068521       0.00005107
I       20.86740809      13.50545835       1.53466219       38      -0.00001936       0.00061105      -0.00033440
I       25.39011989      11.68802440       6.66175130       39       0.00030328      -0.00005352      -0.00011699
