40
Lattice="17.667040509275754 0.0 0.0 -4.2007979593530855 17.160350138067855 0.0 -1.1446850734450733 1.07369477765987 9.602135900704933" Properties=species:S:1:pos:R:3 pbc="T T T"
Cs       6.96746684       1.26941851       9.59299131
Cs       4.46536047       3.05780035       0.00890486
K       -0.57234254       0.53684739       4.80106795
In       2.92222750      -2.66334744       0.00003674
I        9.21197934      -2.44263325       1.92071599
I        2.22082544       6.76976252       7.68138084
I        4.46264214      -0.20159122       1.92075887
I        6.97025374       4.52883895       7.68142371
I        9.97171139       3.87872162       1.92074868
I        1.46112186       0.44851448       7.68141353
Cs       4.86706786       9.84959358       9.59299131
Cs       2.36496149      11.63797542       0.00890486
K       -2.67274152       9.11702246       4.80106795
In       0.82182852       5.91682763       0.00003674
I        7.11158036       6.13754182       1.92071599
I        0.12042646      15.34993759       7.68138084
I        2.36224316       8.37858385       1.92075887
I        4.86985476      13.10901401       7.68142371
I        7.87131241      12.45889669       1.92074868
I       -0.63927712       9.02868955       7.68141353
Cs      15.80098710       1.26941851       9.59299131
Cs      13.29888072       3.05780035       0.00890486
K        8.26117772       0.53684739       4.80106795
In      11.75574776      -2.66334744       0.00003674
I       18.04549959      -2.44263325       1.92071599
I       11.05434570       6.76976252       7.68138084
I       13.29616239      -0.20159122       1.92075887
I       15.80377399       4.52883895       7.68142371
I       18.80523164       3.87872162       1.92074868
I       10.29464212       0.44851448       7.68141353
Cs      13.70058812       9.84959358       9.59299131
Cs      11.19848174      11.63797542       0.00890486
K        6.16077874       9.11702246       4.80106795
In       9.65534878       5.91682763       0.00003674
I       15.94510061       6.13754182       1.92071599
I        8.95394672      15.34993759       7.68138084
I       11.19576341       8.37858385       1.92075887
I       13.70337501      13.10901401       7.68142371
I       16.70483266      12.45889669       1.92074868
I        8.19424314       9.02868955       7.68141353
