40
Lattice="12.754476855189083 0.9250049930629831 -0.4940868023211231 -1.1448921738314302 12.745972229700016 -0.8307220747346982 0.42809823982754097 0.8683379121770054 12.75118922093119" Properties=species:S:1:pos:R:3:spacegroup_kinds:I:1:forces:R:3 spacegroup="P 1" unit_cell=conventional occupancy="_JSON {\"0\": {\"Cs\": 1.0}, \"1\": {\"Pb\": 1.0}, \"2\": {\"I\": 1.0}, \"3\": {\"I\": 1.0}, \"4\": {\"I\": 1.0}, \"5\": {\"Cs\": 1.0}, \"6\": {\"Pb\": 1.0}, \"7\": {\"I\": 1.0}, \"8\": {\"I\": 1.0}, \"9\": {\"I\": 1.0}, \"10\": {\"Cs\": 1.0}, \"11\": {\"Pb\": 1.0}, \"12\": {\"I\": 1.0}, \"13\": {\"I\": 1.0}, \"14\": {\"I\": 1.0}, \"15\": {\"Cs\": 1.0}, \"16\": {\"Pb\": 1.0}, \"17\": {\"I\": 1.0}, \"18\": {\"I\": 1.0}, \"19\": {\"I\": 1.0}, \"20\": {\"Cs\": 1.0}, \"21\": {\"Pb\": 1.0}, \"22\": {\"I\": 1.0}, \"23\": {\"I\": 1.0}, \"24\": {\"I\": 1.0}, \"25\": {\"Cs\": 1.0}, \"26\": {\"Pb\": 1.0}, \"27\": {\"I\": 1.0}, \"28\": {\"I\": 1.0}, \"29\": {\"I\": 1.0}, \"30\": {\"Cs\": 1.0}, \"31\": {\"Pb\": 1.0}, \"32\": {\"I\": 1.0}, \"33\": {\"I\": 1.0}, \"34\": {\"I\": 1.0}, \"35\": {\"Cs\": 1.0}, \"36\": {\"Pb\": 1.0}, \"37\": {\"I\": 1.0}, \"38\": {\"I\": 1.0}, \"39\": {\"I\": 1.0}}" energy=-111.87533961756388 free_energy=-111.87533961756388 stress="-6.380248846526054e-06 -8.377015277223874e-07 -8.74453213233995e-06 -8.377015277223874e-07 -3.827230805606626e-08 2.689567953510277e-06 -8.74453213233995e-06 2.689567953510277e-06 8.23987128902828e-06" pbc="T T T"
Cs       3.21634298       3.32115777       2.87504454        0      -0.00015891      -0.00008960      -0.00064410
Pb      -0.00478117      -0.00141164      -0.00093426        1       0.00063232       0.00014064       0.00060107
I        0.08303849       0.35213661       3.17825432        2      -0.00019384      -0.00014691       0.00054781
I        3.14806123       0.37244021      -0.13159634        3      -0.00051884       0.00019344      -0.00015554
I       -0.42354519       3.22489677      -0.20750292        4      -0.00018758       0.00051934      -0.00012592
Cs       3.43033250       3.75550254       9.25056433        5      -0.00005609      -0.00015513      -0.00055027
Pb       0.20932951       0.43292867       6.37471995        6       0.00046630      -0.00004713       0.00025821
I        0.29701440       0.78633556       9.55389846        7      -0.00015040      -0.00015522       0.00018360
I        3.36187779       0.80663308       6.24392159        8       0.00012562       0.00026486      -0.00008682
I       12.54501228       4.58428640       5.67389876        9      -0.00018189      -0.00029842      -0.00001078
Cs       2.64390470       9.69402952       2.45970181       10      -0.00017396       0.00001548      -0.00063525
Pb      -0.57722243       6.37150092      -0.41630154       11       0.00065302       0.00036168       0.00058198
I       -0.48941107       6.72519090       2.76292650       12      -0.00019357      -0.00021137       0.00023837
I        2.57565339       6.74550143      -0.54697277       13      -0.00075800       0.00010995      -0.00013945
I       -0.99600288       9.59811869      -0.62294938       14      -0.00008719      -0.00074590      -0.00001960
Cs       2.85789641      10.12834065       8.83522102       15      -0.00009009      -0.00003263      -0.00057433
Pb      -0.36310063       6.80587577       5.95933400       16       0.00039639       0.00021267       0.00029669
I       -0.27544105       7.15940801       9.13850873       17      -0.00012419      -0.00024615       0.00045023
I        2.78938112       7.17966630       5.82856677       18       0.00022864       0.00019451      -0.00008409
I       11.97258545      10.95719645       5.25858884       19      -0.00021451       0.00008406      -0.00005061
Cs       9.59351477       3.78381486       2.62797285       20      -0.00010317      -0.00015725      -0.00063395
Pb       6.37246986       0.46136731      -0.24802895       21       0.00038240      -0.00016138       0.00046459
I        6.46011620       0.81465713       2.93125582       22      -0.00005247      -0.00016919       0.00067548
I        9.52516979       0.83492125      -0.37864774       23       0.00024048       0.00029001      -0.00012998
I        5.95364061       3.68748106      -0.45458137       24      -0.00009900       0.00022439      -0.00005341
Cs       9.80759110       4.21800633       9.00351751       25      -0.00015896      -0.00014417      -0.00055258
Pb       6.58663597       0.89549132       6.12749661       26       0.00009012      -0.00022769       0.00080104
I        6.67428454       1.24876864       9.30702293       27      -0.00017750      -0.00019277      -0.00039658
I        9.73911031       1.26897640       5.99696870       28       0.00025782       0.00033060      -0.00017479
I        6.16773747       4.12171266       5.92095455       29      -0.00012741      -0.00015368      -0.00001356
Cs       9.02107032      10.15666671       2.21263818       30      -0.00012322      -0.00003824      -0.00063492
Pb       5.80004698       6.83435019      -0.66339716       31       0.00030274      -0.00011894       0.00050409
I        5.88765803       7.18768267       2.51589565       32      -0.00004105      -0.00022084       0.00060750
I        8.95271136       7.20796243      -0.79401820       33       0.00045531       0.00024179      -0.00012945
I        5.38122592      10.06048299      -0.86997915       34      -0.00008747       0.00007660      -0.00002570
Cs       9.23514928      10.59082069       8.58818243       35      -0.00018935      -0.00000914      -0.00057391
Pb       6.01420032       7.26839082       5.71215077       36       0.00004287       0.00025364       0.00071682
I        6.10182944       7.62183648       8.89164332       37      -0.00015148      -0.00028190      -0.00030396
I        9.16663040       7.64200960       5.58160554       38       0.00027568       0.00026155      -0.00016821
I        5.59527710      10.49462873       5.50563517       39      -0.00014957       0.00022844      -0.00005971
