40
Lattice="20.885360225601868 0.0 0.0 -9.774152654351814 11.501870667959297 0.0 3.9235545406251346 7.029308694431744 4.2548956620634595" Properties=species:S:1:pos:R:3 pbc="T T T"
Cs      11.97704070       7.45995614       4.25079275
Cs       2.95094258       2.36083912       0.00389516
K        1.96177727       3.51465435       2.12744783
In       2.72444175      -1.47973805       0.00004129
I       11.21383040      -0.06968014       0.85111273
I        3.71413366       9.89039465       3.40377686
I        4.97142154       1.43241486       0.85114407
I        9.95662541       8.38841407       3.40380820
I       10.34080384       4.16727601       0.85112796
I        4.58718248       5.65353864       3.40379209
Cs       7.08996437      13.21089148       4.25079275
Cs      -1.93613375       8.11177445       0.00389516
K       -2.92529906       9.26558968       2.12744783
In      -2.16263458       4.27119729       0.00004129
I        6.32675407       5.68125520       0.85111273
I       -1.17294266      15.64132998       3.40377686
I        0.08434521       7.18335020       0.85114407
I        5.06954908      14.13934941       3.40380820
I        5.45372752       9.91821135       0.85112796
I       -0.29989385      11.40447398       3.40379209
Cs      22.41972081       7.45995614       4.25079275
Cs      13.39362269       2.36083912       0.00389516
K       12.40445738       3.51465435       2.12744783
In      13.16712186      -1.47973805       0.00004129
I       21.65651051      -0.06968014       0.85111273
I       14.15681378       9.89039465       3.40377686
I       15.41410165       1.43241486       0.85114407
I       20.39930552       8.38841407       3.40380820
I       20.78348396       4.16727601       0.85112796
I       15.02986259       5.65353864       3.40379209
Cs      17.53264448      13.21089148       4.25079275
Cs       8.50654636       8.11177445       0.00389516
K        7.51738106       9.26558968       2.12744783
In       8.28004554       4.27119729       0.00004129
I       16.76943418       5.68125520       0.85111273
I        9.26973745      15.64132998       3.40377686
I       10.52702532       7.18335020       0.85114407
I       15.51222919      14.13934941       3.40380820
I       15.89640763       9.91821135       0.85112796
I       10.14278626      11.40447398       3.40379209
