10
Lattice="10.565161325275302 -0.16988775669029313 -1.5369708741420622 8.507608435539357 8.013828735336569 -2.663141607787062 8.155257306172832 -4.162499120355056 5.496803414472414" Properties=species:S:1:pos:R:3:spacegroup_kinds:I:1:forces:R:3 spacegroup="P 1" unit_cell=conventional occupancy="_JSON {\"0\": {\"Cs\": 1.0}, \"1\": {\"Cs\": 1.0}, \"2\": {\"K\": 1.0}, \"3\": {\"In\": 1.0}, \"4\": {\"I\": 1.0}, \"5\": {\"I\": 1.0}, \"6\": {\"I\": 1.0}, \"7\": {\"I\": 1.0}, \"8\": {\"I\": 1.0}, \"9\": {\"I\": 1.0}}" energy=-25.72007258652811 free_energy=-25.72007258652811 stress="-3.617711530837701e-06 7.514919966918429e-07 -1.869662986429167e-06 7.514919966918429e-07 1.7697355493445182e-06 -1.2088006621535347e-06 -1.869662986429167e-06 -1.2088006621535347e-06 -4.956250254081804e-06" pbc="T T T"
Cs       6.82850545      -0.85092059       1.85852676        0       0.00032297       0.00002695       0.00013505
Cs      20.39950464       4.53146553      -0.56242096        1      -0.00003322       0.00024176       0.00011247
K       13.61417892       1.84084743       0.64812452        2      -0.00003979      -0.00012093       0.00016537
In      10.56500605      -0.16980114      -1.53687445        3       0.00045714       0.00028791       0.00042614
I       11.38197627       6.99871996      -2.25273806        4       0.00022588      -0.00033726       0.00007642
I       15.84610708      -3.31690425       3.54910401        5      -0.00030569       0.00022068       0.00012512
I       16.79451898       3.13733114      -0.03161937        6      -0.00025771       0.00020722      -0.00047646
I       10.43397739       0.54393769       1.32873071        7      -0.00020649      -0.00026251       0.00008810
I       19.78411066      -1.64384446       3.34194253        8      -0.00011065      -0.00015368      -0.00050848
I        7.44339347       5.32576539      -2.04463946        9      -0.00005245      -0.00011015      -0.00014373
