20
Lattice="17.019789900400223 0.0 0.0 3.8828977381139835 8.089535681037178 0.0 6.0860047373325825 2.0806108688937073 3.2538921873808504" Properties=species:S:1:pos:R:3 pbc="T T T"
Cs       4.61952984       2.54248590       0.81353099
Cs      13.85926742       7.62765921       2.44036025
K        9.23939854       5.08507223       1.62694538
In       0.00000032       0.00000075       0.00000035
I        9.21310626       1.12737838       0.14474166
I        9.26569064       9.04276557       3.10914923
I       13.36903501       2.37738715       3.35439036
I        5.10975865       7.79275747      -0.10050072
I        7.57109375       4.35786083      -1.84226631
I       10.90770357       5.81228936       5.09616093
Cs      13.12942479       2.54248590       0.81353099
Cs      22.36916237       7.62765921       2.44036025
K       17.74929349       5.08507223       1.62694538
In       8.50989527       0.00000075       0.00000035
I       17.72300121       1.12737838       0.14474166
I       17.77558559       9.04276557       3.10914923
I       21.87892997       2.37738715       3.35439036
I       13.61965360       7.79275747      -0.10050072
I       16.08098870       4.35786083      -1.84226631
I       19.41759852       5.81228936       5.09616093
