10
Lattice="8.439218120320865 0.03551432031608405 -0.030838545444214934 -4.252215796923708 7.359837781124472 -0.4408968662678941 0.019187034774505753 2.5942010538410645 8.107428146333255" Properties=species:S:1:pos:R:3:spacegroup_kinds:I:1:forces:R:3 spacegroup="P 1" unit_cell=conventional occupancy="_JSON {\"0\": {\"Cs\": 1.0}, \"1\": {\"Cs\": 1.0}, \"2\": {\"K\": 1.0}, \"3\": {\"In\": 1.0}, \"4\": {\"I\": 1.0}, \"5\": {\"I\": 1.0}, \"6\": {\"I\": 1.0}, \"7\": {\"I\": 1.0}, \"8\": {\"I\": 1.0}, \"9\": {\"I\": 1.0}}" energy=-25.720072317637065 free_energy=-25.720072317637065 stress="1.643076248329255e-07 -2.0913892575517802e-07 8.849701961014329e-07 -2.0913892575517802e-07 -8.729219440320907e-08 3.6558375980222813e-07 8.849701961014329e-07 3.6558375980222813e-07 -4.3740786973427804e-07" pbc="T T T"
Cs       4.89272606       4.42940435       6.12854032        0      -0.00030318      -0.00005249      -0.00002820
Cs       0.65293942       5.07353486       1.53284951        1      -0.00030833       0.00006871      -0.00008755
K       -3.57270502       8.41335774       3.62559871        2      -0.00058217       0.00041971       0.00005104
In      -3.58370179       7.11672789      -0.42821020        3       0.00014094      -0.00006843       0.00010289
I        2.76425221       8.80654672       0.81734811        4      -0.00010736      -0.00005007      -0.00009078
I       -1.47245083       8.05679865       6.40372062        5       0.00006572      -0.00000944      -0.00000845
I        2.75616300       1.42817369       1.27295003        6      -0.00001255       0.00004286       0.00013375
I        2.78783686       8.07473214       6.38758409        7      -0.00015728      -0.00001073       0.00006090
I       -3.56766226       5.27985268       2.03921643        8       0.00065233      -0.00017335      -0.00010140
I        0.67035299       4.18782389       5.65279424        9       0.00061187      -0.00016677      -0.00003219
