10
Lattice="8.651674011609254 0.0 0.0 -4.400999432926212 7.62275462191002 0.0 0.0 3.1326108231972 6.420115358849413" Properties=species:S:1:pos:R:3 pbc="T T T"
Cs       4.98793926       5.41636299       6.41405604
Cs       0.63704811       4.83055885       0.00600878
K        0.68715835       1.31208275       3.21005691
In       0.68716372      -0.25422444       0.00001125
I        7.07009890       0.37768909       1.28423027
I       -1.44511616       9.86921271       5.13588716
I        1.80632959       2.36862607       1.28423715
I        3.81867382       7.87830506       5.13589404
I        6.08739523       5.99363960       1.28423230
I       -0.46240738       4.25328753       5.13588919
