80
Lattice="19.540831319484003 0.0 0.0 2.242247223310245 17.82966227883386 0.0 16.987158905198523 3.8257846337434485 12.287767326147769" Properties=species:S:1:pos:R:3 pbc="T T T"
Cs       4.84622871       2.70691581       1.53597749
Cs      14.53888990       8.12080724       4.60790591
K        9.69255939       5.41386152       3.07194171
In       0.00000012       0.00000032       0.00000013
I        9.55072532       2.83320759       3.89706924
I        9.83439344       7.99451523       2.24681416
I       10.84015238       3.01578481       1.65857060
I        8.54496570       7.81193802       4.48531265
I        5.21173107       7.08022983       1.19704090
I       14.17338798       3.74749442       4.94684321
Cs      13.33980816       4.61980813       7.67986115
Cs      23.03246935      10.03369955      10.75178958
K       18.18613884       7.32675384       9.21582537
In       8.49357958       1.91289264       6.14388379
I       18.04430478       4.74609991      10.04095291
I       18.32797289       9.90740754       8.39069782
I       19.33373183       4.92867713       7.80245426
I       17.03854515       9.72483034      10.62919631
I       13.70531052       8.99312214       7.34092456
I       22.66696744       5.66038674      11.09072687
Cs       5.96735232      11.62174695       1.53597749
Cs      15.66001351      17.03563838       4.60790591
K       10.81368300      14.32869266       3.07194171
In       1.12112373       8.91483146       0.00000013
I       10.67184894      11.74803873       3.89706924
I       10.95551705      16.90934637       2.24681416
I       11.96127599      11.93061595       1.65857060
I        9.66608931      16.72676916       4.48531265
I        6.33285468      15.99506097       1.19704090
I       15.29451159      12.66232556       4.94684321
Cs      14.46093178      13.53463927       7.67986115
Cs      24.15359296      18.94853069      10.75178958
K       19.30726246      16.24158498       9.21582537
In       9.61470319      10.82772378       6.14388379
I       19.16542839      13.66093105      10.04095291
I       19.44909651      18.82223868       8.39069782
I       20.45485545      13.84350826       7.80245426
I       18.15966876      18.63966148      10.62919631
I       14.82643413      17.90795328       7.34092456
I       23.78809105      14.57521788      11.09072687
Cs      14.61664437       2.70691581       1.53597749
Cs      24.30930556       8.12080724       4.60790591
K       19.46297505       5.41386152       3.07194171
In       9.77041578       0.00000032       0.00000013
I       19.32114098       2.83320759       3.89706924
I       19.60480910       7.99451523       2.24681416
I       20.61056804       3.01578481       1.65857060
I       18.31538136       7.81193802       4.48531265
I       14.98214673       7.08022983       1.19704090
I       23.94380364       3.74749442       4.94684321
Cs      23.11022382       4.61980813       7.67986115
Cs      32.80288501      10.03369955      10.75178958
K       27.95655450       7.32675384       9.21582537
In      18.26399523       1.91289264       6.14388379
I       27.81472044       4.74609991      10.04095291
I       28.09838855       9.90740754       8.39069782
I       29.10414749       4.92867713       7.80245426
I       26.80896081       9.72483034      10.62919631
I       23.47572618       8.99312214       7.34092456
I       32.43738310       5.66038674      11.09072687
Cs      15.73776798      11.62174695       1.53597749
Cs      25.43042917      17.03563838       4.60790591
K       20.58409866      14.32869266       3.07194171
In      10.89153939       8.91483146       0.00000013
I       20.44226460      11.74803873       3.89706924
I       20.72593271      16.90934637       2.24681416
I       21.73169165      11.93061595       1.65857060
I       19.43650497      16.72676916       4.48531265
I       16.10327034      15.99506097       1.19704090
I       25.06492725      12.66232556       4.94684321
Cs      24.23134744      13.53463927       7.67986115
Cs      33.92400862      18.94853069      10.75178958
K       29.07767811      16.24158498       9.21582537
In      19.38511885      10.82772378       6.14388379
I       28.93584405      13.66093105      10.04095291
I       29.21951217      18.82223868       8.39069782
I       30.22527111      13.84350826       7.80245426
I       27.93008442      18.63966148      10.62919631
I       24.59684979      17.90795328       7.34092456
I       33.55850671      14.57521788      11.09072687
