80
Lattice="18.58421008263084 -0.7534923971644976 0.0031344525421220723 -8.638664970588783 16.46917082564886 -0.00577235722827722 -0.00622253586932629 0.008170355296601239 17.65697798897252" Properties=species:S:1:pos:R:3:spacegroup_kinds:I:1:forces:R:3 spacegroup="P 1" unit_cell=conventional occupancy="_JSON {\"0\": {\"Cs\": 1.0}, \"1\": {\"Cs\": 1.0}, \"2\": {\"K\": 1.0}, \"3\": {\"In\": 1.0}, \"4\": {\"I\": 1.0}, \"5\": {\"I\": 1.0}, \"6\": {\"I\": 1.0}, \"7\": {\"I\": 1.0}, \"8\": {\"I\": 1.0}, \"9\": {\"I\": 1.0}, \"10\": {\"Cs\": 1.0}, \"11\": {\"Cs\": 1.0}, \"12\": {\"K\": 1.0}, \"13\": {\"In\": 1.0}, \"14\": {\"I\": 1.0}, \"15\": {\"I\": 1.0}, \"16\": {\"I\": 1.0}, \"17\": {\"I\": 1.0}, \"18\": {\"I\": 1.0}, \"19\": {\"I\": 1.0}, \"20\": {\"Cs\": 1.0}, \"21\": {\"Cs\": 1.0}, \"22\": {\"K\": 1.0}, \"23\": {\"In\": 1.0}, \"24\": {\"I\": 1.0}, \"25\": {\"I\": 1.0}, \"26\": {\"I\": 1.0}, \"27\": {\"I\": 1.0}, \"28\": {\"I\": 1.0}, \"29\": {\"I\": 1.0}, \"30\": {\"Cs\": 1.0}, \"31\": {\"Cs\": 1.0}, \"32\": {\"K\": 1.0}, \"33\": {\"In\": 1.0}, \"34\": {\"I\": 1.0}, \"35\": {\"I\": 1.0}, \"36\": {\"I\": 1.0}, \"37\": {\"I\": 1.0}, \"38\": {\"I\": 1.0}, \"39\": {\"I\": 1.0}, \"40\": {\"Cs\": 1.0}, \"41\": {\"Cs\": 1.0}, \"42\": {\"K\": 1.0}, \"43\": {\"In\": 1.0}, \"44\": {\"I\": 1.0}, \"45\": {\"I\": 1.0}, \"46\": {\"I\": 1.0}, \"47\": {\"I\": 1.0}, \"48\": {\"I\": 1.0}, \"49\": {\"I\": 1.0}, \"50\": {\"Cs\": 1.0}, \"51\": {\"Cs\": 1.0}, \"52\": {\"K\": 1.0}, \"53\": {\"In\": 1.0}, \"54\": {\"I\": 1.0}, \"55\": {\"I\": 1.0}, \"56\": {\"I\": 1.0}, \"57\": {\"I\": 1.0}, \"58\": {\"I\": 1.0}, \"59\": {\"I\": 1.0}, \"60\": {\"Cs\": 1.0}, \"61\": {\"Cs\": 1.0}, \"62\": {\"K\": 1.0}, \"63\": {\"In\": 1.0}, \"64\": {\"I\": 1.0}, \"65\": {\"I\": 1.0}, \"66\": {\"I\": 1.0}, \"67\": {\"I\": 1.0}, \"68\": {\"I\": 1.0}, \"69\": {\"I\": 1.0}, \"70\": {\"Cs\": 1.0}, \"71\": {\"Cs\": 1.0}, \"72\": {\"K\": 1.0}, \"73\": {\"In\": 1.0}, \"74\": {\"I\": 1.0}, \"75\": {\"I\": 1.0}, \"76\": {\"I\": 1.0}, \"77\": {\"I\": 1.0}, \"78\": {\"I\": 1.0}, \"79\": {\"I\": 1.0}}" energy=-206.35053426474224 free_energy=-206.35053426474224 stress="2.5877613336735134e-06 5.752313030613432e-07 -1.983854245773896e-06 5.752313030613432e-07 3.2258276887648815e-07 2.251305358329938e-06 -1.983854245773896e-06 2.251305358329938e-06 -1.3599765414880297e-06" pbc="T T T"
Cs       2.72692376       5.27083518      17.66967786        0       0.00003929      -0.00022897       0.00015524
Cs       7.26387110       2.39952296      17.64389628        1      -0.00015191       0.00020390      -0.00009915
K        2.51490776      -0.09997706       4.41460420        2      -0.00090406      -0.00001002      -0.00011241
In       2.51483048      -0.10196564       0.00028474        3      -0.00008286       0.00025206       0.00030749
I        1.37412847       2.05390160       1.76550679        4       0.00002713      -0.00010899       0.00003141
I        8.62575789       5.60434658       7.06210867        5      -0.00001352      -0.00027806      -0.00002856
I        3.80871082       1.96644622       7.06198655        6       0.00027300       0.00035756       0.00003804
I        4.95111441      -0.19114016       1.76723776        7       0.00034494      -0.00010020       0.00004922
I       15.48352099       5.31448206       1.76728588        8      -0.00000230       0.00012767      -0.00011703
I        0.07583025      -0.00874135       7.06160829        9       0.00042363      -0.00000224       0.00034333
Cs       2.73028287       5.26636600       8.84098026       10      -0.00015565       0.00010334      -0.00000002
Cs       7.26708952       2.39556449       8.81460594       11      -0.00009556      -0.00010432       0.00012436
K        2.50968532      -0.09583903      13.24313064       12       0.00047436       0.00009518       0.00004346
In       2.51188910      -0.09780254       8.82881216       13      -0.00015331      -0.00002188      -0.00016333
I        1.37120739       2.05823022      10.59399700       14      -0.00004580      -0.00019891      -0.00005539
I        8.62277229       5.60815929      15.89103507       15      -0.00022848       0.00022507       0.00001107
I        3.80540204       1.97069224      15.89065191       16       0.00006762      -0.00005445      -0.00009704
I        4.94802453      -0.18699626      10.59585023       17      -0.00016813       0.00010491       0.00007169
I       15.48038747       5.31841603      10.59587723       18       0.00012492       0.00022923       0.00000813
I        0.07248250      -0.00458508      15.89027529       19      -0.00015501      -0.00000495       0.00006590
Cs      -1.59253382      13.50520515      17.66760551       20       0.00000023       0.00005434      -0.00012159
Cs       2.94436061      10.63409588      17.64013826       21      -0.00000340       0.00005839       0.00017210
K       -1.80694529       8.13472672       4.41177623       22       0.00056125       0.00000982       0.00018993
In      -1.80389374       8.13284878      -0.00242697       23      -0.00037178      -0.00053324      -0.00009462
I       -2.94511099      10.28839296       1.76289246       24      -0.00018089       0.00026102       0.00001440
I        4.30633462      13.83864409       7.05982325       25       0.00019567      -0.00019424      -0.00013557
I       -0.51086891      10.20142454       7.05941586       26      -0.00011066      -0.00016838      -0.00000735
I        0.63176597       8.04354790       1.76468653       27       0.00034440      -0.00003902       0.00004121
I       11.16384207      13.54933191       1.76458464       28       0.00006946      -0.00004352      -0.00003604
I       14.34064378       7.47262226       7.06248400       29      -0.00014114       0.00001254      -0.00021344
Cs      -1.58966977      13.50122722       8.83900038       30       0.00012518      -0.00016273      -0.00015850
Cs       2.94706586      10.63019608       8.81252368       31       0.00018419       0.00005677      -0.00004662
K       -1.80813618       8.13874845      13.24030250       32      -0.00029880      -0.00009469      -0.00004398
In      -1.80721661       8.13664046       8.82612148       33       0.00004630      -0.00009033      -0.00017236
I       -2.94821277      10.29216492      10.59133922       34      -0.00005795       0.00028501       0.00024381
I        4.30316331      13.84266760      15.88780513       35       0.00002978       0.00044420       0.00004842
I       -0.51374800      10.20574016      15.88782196       36      -0.00002497      -0.00017885      -0.00009937
I        0.62906888       8.04705605      10.59292764       37      -0.00011337       0.00003630       0.00011356
I       11.16081896      13.55350900      10.59300905       38      -0.00008650      -0.00024950       0.00013728
I       14.33798526       7.47669142      15.89072086       39       0.00004003       0.00001198      -0.00012509
Cs      12.01920982       4.89399763      17.67144595       40      -0.00009765       0.00006419       0.00011108
Cs      16.55567838       2.02293808      17.64471330       41       0.00002125       0.00000595       0.00009848
K       11.80551336      -0.47694766       4.41630877       42       0.00021261       0.00006278      -0.00005112
In      11.80714467      -0.47870924       0.00184108       43       0.00021001      -0.00021249       0.00021022
I       10.66672506       1.67712524       1.76725352       44      -0.00038924      -0.00004426       0.00009066
I       -0.66632633       5.98121285       7.06057941       45      -0.00007120      -0.00021291       0.00004601
I       13.10121631       1.58964044       7.06373457       46      -0.00027573       0.00000231      -0.00003350
I       14.24329722      -0.56795786       1.76887236       47       0.00008307      -0.00001133      -0.00010060
I        6.19106083       5.69129406       1.76591544       48       0.00021989       0.00006591      -0.00025542
I        9.36822667      -0.38556166       7.06364001       49      -0.00029974       0.00014999      -0.00014194
Cs      12.02226413       4.88974776       8.84265877       50       0.00001174      -0.00006922       0.00005536
Cs      16.55921102       2.01879425       8.81641093       51      -0.00007421       0.00002915      -0.00000702
K       11.80254986      -0.47260610      13.24471163       52      -0.00007801      -0.00001796       0.00002998
In      11.80429776      -0.47465426       8.83063217       53       0.00000132      -0.00014569       0.00004874
I       10.66355210       1.68131399      10.59559302       54      -0.00023831       0.00005556       0.00010667
I       -0.66917710       5.98508189      15.88927311       55      -0.00015144       0.00025417       0.00001570
I       13.09722824       1.59424027      15.89215906       56       0.00023213      -0.00032194      -0.00015182
I       14.24038257      -0.56388360      10.59765781       57      -0.00011560      -0.00005151       0.00002269
I        6.18836164       5.69531695      10.59406681       58      -0.00033084      -0.00039019       0.00021000
I        9.36467091      -0.38142901      15.89206562       59       0.00012079       0.00006171      -0.00002346
Cs       7.69936720      13.12839608      17.66884592       60       0.00016214      -0.00008660      -0.00006134
Cs      12.23658384      10.25734664      17.64241853       61      -0.00016001       0.00015969       0.00008110
K        7.48643173       7.75780370       4.41328989       62      -0.00023441       0.00009351       0.00008271
In       7.48796051       7.75592334      -0.00077149       63       0.00005179      -0.00051828      -0.00013232
I        6.34665630       9.91138110       1.76434087       64       0.00008879       0.00036087       0.00006156
I       -4.98589379      14.21532162       7.05799067       65       0.00013855      -0.00004820       0.00004802
I        8.78095756       9.82470656       7.06081679       66       0.00021719      -0.00004024       0.00017720
I        9.92400559       7.66658762       1.76636699       67       0.00005236      -0.00005503      -0.00025662
I        1.87222551      13.92569404       1.76286280       68      -0.00020305       0.00009414       0.00006514
I        5.04838361       7.84944851       7.06053183       69       0.00024945      -0.00010741      -0.00001989
Cs       7.70273375      13.12420721       8.84086179       70      -0.00008610       0.00009357      -0.00027897
Cs      12.23927088      10.25349599       8.81392191       71       0.00006249      -0.00008063      -0.00003352
K        7.48312145       7.76183829      13.24180953       72       0.00025660       0.00007071       0.00002723
In       7.48459752       7.75982091       8.82740244       73       0.00004655       0.00090107       0.00018425
I        6.34352182       9.91558292      10.59298279       74       0.00025446      -0.00028149      -0.00019999
I       -4.98915382      14.21952260      15.88659844       75       0.00018665      -0.00003654      -0.00035415
I        8.77850254       9.82855114      15.88953289       76      -0.00011563      -0.00006400      -0.00008975
I        9.92086364       7.67058493      10.59432390       77      -0.00017931       0.00002167       0.00013984
I        1.86838078      13.93010288      10.59162922       78       0.00047785       0.00028233      -0.00005530
I        5.04575031       7.85334420      15.88894500       79      -0.00008250      -0.00009515       0.00005152
