40
Lattice="17.489862420539822 -0.550531765230982 -0.4195931145623811 8.25447348266914 15.354991993924063 -0.3880062879390335 4.1464550293081075 2.3872051115821 7.343505186919793" Properties=species:S:1:pos:R:3:spacegroup_kinds:I:1:forces:R:3 spacegroup="P 1" unit_cell=conventional occupancy="_JSON {\"0\": {\"Cs\": 1.0}, \"1\": {\"Cs\": 1.0}, \"2\": {\"K\": 1.0}, \"3\": {\"In\": 1.0}, \"4\": {\"I\": 1.0}, \"5\": {\"I\": 1.0}, \"6\": {\"I\": 1.0}, \"7\": {\"I\": 1.0}, \"8\": {\"I\": 1.0}, \"9\": {\"I\": 1.0}, \"10\": {\"Cs\": 1.0}, \"11\": {\"Cs\": 1.0}, \"12\": {\"K\": 1.0}, \"13\": {\"In\": 1.0}, \"14\": {\"I\": 1.0}, \"15\": {\"I\": 1.0}, \"16\": {\"I\": 1.0}, \"17\": {\"I\": 1.0}, \"18\": {\"I\": 1.0}, \"19\": {\"I\": 1.0}, \"20\": {\"Cs\": 1.0}, \"21\": {\"Cs\": 1.0}, \"22\": {\"K\": 1.0}, \"23\": {\"In\": 1.0}, \"24\": {\"I\": 1.0}, \"25\": {\"I\": 1.0}, \"26\": {\"I\": 1.0}, \"27\": {\"I\": 1.0}, \"28\": {\"I\": 1.0}, \"29\": {\"I\": 1.0}, \"30\": {\"Cs\": 1.0}, \"31\": {\"Cs\": 1.0}, \"32\": {\"K\": 1.0}, \"33\": {\"In\": 1.0}, \"34\": {\"I\": 1.0}, \"35\": {\"I\": 1.0}, \"36\": {\"I\": 1.0}, \"37\": {\"I\": 1.0}, \"38\": {\"I\": 1.0}, \"39\": {\"I\": 1.0}}" energy=-102.5956937103663 free_energy=-102.5956937103663 stress="5.597894394419048e-06 1.4150289910403745e-05 -1.0436394486718875e-05 1.4150289910403745e-05 -1.3379530820156773e-06 -7.976918820109572e-07 -1.0436394486718875e-05 -7.976918820109572e-07 -5.026095665981162e-06" pbc="T T T"
Cs       4.10335117       2.35622698       1.66185622        0       0.00003760       0.00008242       0.00007341
Cs      12.91425545       7.43298678       5.27803283        1       0.00031000       0.00021218      -0.00016785
K        8.50949118       4.89476894       3.46985081        2      -0.00010890      -0.00009918       0.00004986
In      17.48990572      -0.55046799      -0.41966496        3      -0.00022836       0.00002696       0.00030278
I        8.80385824       1.66995907       2.04388316        4      -0.00045066       0.00024789       0.00006774
I        8.21587256       8.11932157       4.89620942        5      -0.00025063      -0.00001744      -0.00047186
I       11.14251391       5.60604759       1.21644842        6      -0.00032177      -0.00043712       0.00060765
I        5.87562735       4.18368784       5.72260435        7       0.00071732       0.00032171      -0.00030152
I        6.53793632       6.31416628       0.89952483        8       0.00008679       0.00019966       0.00025962
I       10.48048165       3.47515414       6.04051835        9       0.00006113      -0.00013250      -0.00010478
Cs       8.23073237      10.03342934       1.46789630       10       0.00006901       0.00022461      -0.00002915
Cs      17.04162283      15.11029709       5.08376235       11       0.00009135       0.00022192       0.00014583
K       12.63665958      12.57227415       3.27583081       12       0.00000511      -0.00008627      -0.00002031
In      21.61712405       7.12712463      -0.61359365       13       0.00040012      -0.00020865      -0.00001231
I       12.93101159       9.34755158       1.84994119       14      -0.00025354      -0.00007783      -0.00004932
I       12.34316118      15.79673422       4.70204888       15      -0.00022551       0.00014659      -0.00016193
I       15.26970881      13.28325983       1.02273416       16       0.00023896       0.00006547      -0.00006377
I       10.00331373      11.86128833       5.52852752       17      -0.00002736      -0.00042122       0.00037997
I       10.66526332      13.99202632       0.70559550       18       0.00036561      -0.00016924      -0.00003561
I       14.60784312      11.15282395       5.84648113       19      -0.00006754      -0.00002177      -0.00016213
Cs      12.84824399       2.08078513       1.45211826       20       0.00023446       0.00016885      -0.00013182
Cs      21.65931992       7.15760874       5.06799725       21       0.00006808       0.00023954       0.00004987
K       17.25423595       4.61949743       3.26011670       22       0.00001910      -0.00009341      -0.00000171
In       8.74501255      -0.27516451      -0.20975866       23      -0.00025551      -0.00012273      -0.00026189
I       17.54878955       1.39468675       1.83419313       24      -0.00047978       0.00008090      -0.00021777
I       16.96073730       7.84419185       4.68628569       25      -0.00015860      -0.00009840      -0.00025371
I       19.88714975       5.33073619       1.00671398       26       0.00013087      -0.00006922       0.00026572
I       14.62070625       3.90857944       5.51257926       27      -0.00006086      -0.00019589       0.00039673
I       15.28299933       6.03897323       0.68984912       28       0.00006080       0.00023881      -0.00017861
I       19.22550062       3.19997880       5.83052020       29      -0.00001495      -0.00019137       0.00007922
Cs      16.97565498       9.75810929       1.25795721       30      -0.00002758       0.00016054       0.00011922
Cs      25.78664876      14.83489003       4.87389111       31       0.00010599       0.00034787       0.00010719
K       21.38148459      12.29697511       3.06600944       32       0.00004854      -0.00003726       0.00004313
In      12.87231266       7.40241657      -0.40375385       33      -0.00017901      -0.00028966      -0.00008182
I       21.67596404       9.07228548       1.64000859       34      -0.00021374       0.00003930       0.00022273
I       21.08804072      15.52158800       4.49225658       35      -0.00022676      -0.00000143      -0.00006518
I       24.01465323      13.00826309       0.81285063       36      -0.00014571      -0.00040751       0.00025442
I       18.74792335      11.58583946       5.31869117       37       0.00062778       0.00027879       0.00002287
I       19.41019770      13.71679498       0.49578107       38       0.00045626      -0.00020941      -0.00007596
I       23.35298278      10.87766678       5.63671816       39      -0.00043808       0.00008349      -0.00059895
