20
Lattice="24.718822852548158 -7.392389823330209 2.278771210289203 -2.757323043615276 9.186676581866857 -1.3733384706489413 0.007326758985163348 1.5427965038851845 5.551646610667238" Properties=species:S:1:pos:R:3:spacegroup_kinds:I:1:forces:R:3 spacegroup="P 1" unit_cell=conventional occupancy="_JSON {\"0\": {\"Cs\": 1.0}, \"1\": {\"Cs\": 1.0}, \"2\": {\"K\": 1.0}, \"3\": {\"In\": 1.0}, \"4\": {\"I\": 1.0}, \"5\": {\"I\": 1.0}, \"6\": {\"I\": 1.0}, \"7\": {\"I\": 1.0}, \"8\": {\"I\": 1.0}, \"9\": {\"I\": 1.0}, \"10\": {\"Cs\": 1.0}, \"11\": {\"Cs\": 1.0}, \"12\": {\"K\": 1.0}, \"13\": {\"In\": 1.0}, \"14\": {\"I\": 1.0}, \"15\": {\"I\": 1.0}, \"16\": {\"I\": 1.0}, \"17\": {\"I\": 1.0}, \"18\": {\"I\": 1.0}, \"19\": {\"I\": 1.0}}" energy=-51.048829044410105 free_energy=-51.048829044410105 stress="6.952177021958699e-07 1.7455170390835267e-06 -1.0843325680796005e-06 1.7455170390835267e-06 -1.245872135310428e-06 -1.7013900921065046e-06 -1.0843325680796005e-06 -1.7013900921065046e-06 -6.939534083808633e-07" pbc="T T T"
Cs       5.52122551       0.95043472       1.35838053        0       0.00039398      -0.00008200       0.00019465
Cs       2.01558406       6.22586607       4.18399786        1       0.00064548      -0.00008554      -0.00025024
K       25.85942386      -6.84626454       3.81439023        2       0.00027806       0.00001161       0.00074917
In      21.75165369      -6.58023826       2.14774692        3       0.00050054       0.00031724      -0.00036424
I       23.27737771      -4.44773965       3.00642551        4       0.00072981       0.00008253      -0.00035331
I        8.41493235       5.86881504       4.36475731        5      -0.00035043      -0.00032930      -0.00068693
I        3.00555721       2.56658826       3.94337229        6       0.00064372       0.00007652      -0.00005950
I        5.03977387       4.97700604       1.44275641        7      -0.00000553       0.00003807       0.00087467
I        0.50957762       7.20293793       0.94275923        8       0.00016566      -0.00034581      -0.00016835
I        7.60029439      -0.18442941       4.75551620        9      -0.00005071      -0.00000792       0.00030780
Cs      17.88283372      -2.75502049       2.50913680       10      -0.00028784       0.00017799      -0.00024657
Cs      14.37743768       2.52140167       5.32909518       11      -0.00073217      -0.00003785       0.00027882
K       13.50231180      -3.15493109       2.68510088       12      -0.00026851      -0.00000143      -0.00079682
In       9.39584844      -2.87917006       1.00127772       13      -0.00041904      -0.00024567       0.00040635
I       10.92656892      -0.75096026       1.86188990       14      -0.00055843      -0.00012275       0.00027408
I       20.77281661       2.17328349       5.50361263       15       0.00017322       0.00014908       0.00074758
I       15.37045549      -1.13712287       5.09215808       16      -0.00082480      -0.00007626       0.00006530
I       17.40040533       1.27282328       2.59086224       17      -0.00002740       0.00005162      -0.00078428
I       12.86749766       3.49683092       2.08850071       18      -0.00016145       0.00031970       0.00000265
I       19.95369240      -3.88811529       5.90279988       19       0.00015585       0.00011019      -0.00019083
