10
Lattice="10.622626159355372 -0.890539226158538 -0.6318809784144916 -13.251133215804098 8.854063257952003 1.5792071119496602 -5.201595109192464 -2.4633488400751244 6.271710749618272" Properties=species:S:1:pos:R:3:spacegroup_kinds:I:1:forces:R:3 spacegroup="P 1" unit_cell=conventional occupancy="_JSON {\"0\": {\"Cs\": 1.0}, \"1\": {\"Cs\": 1.0}, \"2\": {\"K\": 1.0}, \"3\": {\"In\": 1.0}, \"4\": {\"I\": 1.0}, \"5\": {\"I\": 1.0}, \"6\": {\"I\": 1.0}, \"7\": {\"I\": 1.0}, \"8\": {\"I\": 1.0}, \"9\": {\"I\": 1.0}}" energy=-25.72007328225508 free_energy=-25.72007328225508 stress="-2.629881949175388e-06 -9.473588600895656e-07 9.725091829121425e-08 -9.473588600895656e-07 -1.6906457534978013e-06 -6.247620238662067e-07 9.725091829121425e-08 -6.247620238662067e-07 -2.0678852927973136e-07" pbc="T T T"
Cs      -8.95800976       0.81260264       5.95676556        0       0.00005284      -0.00007107       0.00002323
Cs      -3.69223730       2.36325252       7.52835974        1       0.00020879       0.00009291       0.00006609
K       -2.41000088      -1.16208632       3.13309021        2       0.00021656      -0.00014857      -0.00004189
In       0.19111923       0.06967095      -0.00264459        3       0.00007428      -0.00058088       0.00031223
I       -0.63592280       1.73732151       2.29399161        4      -0.00015825       0.00051248      -0.00023342
I       -6.81145837       3.90145175       4.92039411        5      -0.00024775       0.00028246      -0.00010440
I       -2.09625558      -1.47349065       6.61777654        6       0.00018431       0.00013706       0.00007670
I        7.89948137      -1.74097625      -0.98342466        7      -0.00004623      -0.00014291       0.00005196
I      -12.58590371       6.64837808       3.40366405        8      -0.00000360      -0.00018560      -0.00018813
I       -5.48467660      -0.11839016       4.44219258        9      -0.00028094       0.00010412       0.00003762
