80
Lattice="20.456573221266666 0.0 0.0 -4.401976097584937 19.97733701956633 0.0 1.8065277356229703 0.39806566330877186 19.335052359368465" Properties=species:S:1:pos:R:3 pbc="T T T"
Cs       8.25027056       3.53432054       9.65839728
Cs       3.20561303       6.66521800       0.00904347
K        1.71429639       0.10542952       4.83376503
In       1.26267380       0.00591695       0.00002399
I        8.99154723       0.05265637       1.93382474
I        2.46432870      10.14684666       7.73371955
I        3.55262717       2.66153946       1.93383331
I        7.90328576       7.53801935       7.73372813
I       10.04144853       7.41166536       1.93382129
I        1.41443475       2.78788445       7.73371610
Cs       9.15353443       3.73335337      19.32592346
Cs       4.10887690       6.86425083       9.67656965
K        2.61756026       0.30446235      14.50129121
In       2.16593767       0.20494979       9.66755017
I        9.89481110       0.25168920      11.60135092
I        3.36759256      10.34587949      17.40124573
I        4.45589104       2.86057229      11.60135949
I        8.80654962       7.73705218      17.40125431
I       10.94471240       7.61069819      11.60134747
I        2.31769862       2.98691728      17.40124228
Cs       6.04928251      13.52298905       9.65839728
Cs       1.00462498      16.65388651       0.00904347
K       -0.48669166      10.09409803       4.83376503
In      -0.93831425       9.99458546       0.00002399
I        6.79055918      10.04132488       1.93382474
I        0.26334065      20.13551517       7.73371955
I        1.35163913      12.65020797       1.93383331
I        5.70229771      17.52668786       7.73372813
I        7.84046049      17.40033387       1.93382129
I       -0.78655330      12.77655296       7.73371610
Cs       6.95254638      13.72202188      19.32592346
Cs       1.90788885      16.85291934       9.67656965
K        0.41657221      10.29313086      14.50129121
In      -0.03505038      10.19361830       9.66755017
I        7.69382305      10.24035771      11.60135092
I        1.16660452      20.33454800      17.40124573
I        2.25490299      12.84924080      11.60135949
I        6.60556157      17.72572069      17.40125431
I        8.74372435      17.59936670      11.60134747
I        0.11671057      12.97558579      17.40124228
Cs      18.47855717       3.53432054       9.65839728
Cs      13.43389964       6.66521800       0.00904347
K       11.94258300       0.10542952       4.83376503
In      11.49096041       0.00591695       0.00002399
I       19.21983384       0.05265637       1.93382474
I       12.69261531      10.14684666       7.73371955
I       13.78091379       2.66153946       1.93383331
I       18.13157237       7.53801935       7.73372813
I       20.26973515       7.41166536       1.93382129
I       11.64272136       2.78788445       7.73371610
Cs      19.38182104       3.73335337      19.32592346
Cs      14.33716351       6.86425083       9.67656965
K       12.84584687       0.30446235      14.50129121
In      12.39422428       0.20494979       9.66755017
I       20.12309771       0.25168920      11.60135092
I       13.59587918      10.34587949      17.40124573
I       14.68417765       2.86057229      11.60135949
I       19.03483623       7.73705218      17.40125431
I       21.17299901       7.61069819      11.60134747
I       12.54598523       2.98691728      17.40124228
Cs      16.27756912      13.52298905       9.65839728
Cs      11.23291159      16.65388651       0.00904347
K        9.74159495      10.09409803       4.83376503
In       9.28997236       9.99458546       0.00002399
I       17.01884579      10.04132488       1.93382474
I       10.49162726      20.13551517       7.73371955
I       11.57992574      12.65020797       1.93383331
I       15.93058432      17.52668786       7.73372813
I       18.06874710      17.40033387       1.93382129
I        9.44173331      12.77655296       7.73371610
Cs      17.18083299      13.72202188      19.32592346
Cs      12.13617546      16.85291934       9.67656965
K       10.64485882      10.29313086      14.50129121
In      10.19323623      10.19361830       9.66755017
I       17.92210966      10.24035771      11.60135092
I       11.39489113      20.33454800      17.40124573
I       12.48318960      12.84924080      11.60135949
I       16.83384818      17.72572069      17.40125431
I       18.97201096      17.59936670      11.60134747
I       10.34499718      12.97558579      17.40124228
