80
Lattice="21.106048141060473 1.885801458409927 0.732634783540045 10.52736631812918 26.160226103258584 1.5877331204155452 -4.85421434690631 9.943946911831713 9.060702875296679" Properties=species:S:1:pos:R:3:spacegroup_kinds:I:1:forces:R:3 spacegroup="P 1" unit_cell=conventional occupancy="_JSON {\"0\": {\"Cs\": 1.0}, \"1\": {\"Cs\": 1.0}, \"2\": {\"Cs\": 1.0}, \"3\": {\"Cs\": 1.0}, \"4\": {\"Pb\": 1.0}, \"5\": {\"Pb\": 1.0}, \"6\": {\"Pb\": 1.0}, \"7\": {\"Pb\": 1.0}, \"8\": {\"I\": 1.0}, \"9\": {\"I\": 1.0}, \"10\": {\"I\": 1.0}, \"11\": {\"I\": 1.0}, \"12\": {\"I\": 1.0}, \"13\": {\"I\": 1.0}, \"14\": {\"I\": 1.0}, \"15\": {\"I\": 1.0}, \"16\": {\"I\": 1.0}, \"17\": {\"I\": 1.0}, \"18\": {\"I\": 1.0}, \"19\": {\"I\": 1.0}, \"20\": {\"Cs\": 1.0}, \"21\": {\"Cs\": 1.0}, \"22\": {\"Cs\": 1.0}, \"23\": {\"Cs\": 1.0}, \"24\": {\"Pb\": 1.0}, \"25\": {\"Pb\": 1.0}, \"26\": {\"Pb\": 1.0}, \"27\": {\"Pb\": 1.0}, \"28\": {\"I\": 1.0}, \"29\": {\"I\": 1.0}, \"30\": {\"I\": 1.0}, \"31\": {\"I\": 1.0}, \"32\": {\"I\": 1.0}, \"33\": {\"I\": 1.0}, \"34\": {\"I\": 1.0}, \"35\": {\"I\": 1.0}, \"36\": {\"I\": 1.0}, \"37\": {\"I\": 1.0}, \"38\": {\"I\": 1.0}, \"39\": {\"I\": 1.0}, \"40\": {\"Cs\": 1.0}, \"41\": {\"Cs\": 1.0}, \"42\": {\"Cs\": 1.0}, \"43\": {\"Cs\": 1.0}, \"44\": {\"Pb\": 1.0}, \"45\": {\"Pb\": 1.0}, \"46\": {\"Pb\": 1.0}, \"47\": {\"Pb\": 1.0}, \"48\": {\"I\": 1.0}, \"49\": {\"I\": 1.0}, \"50\": {\"I\": 1.0}, \"51\": {\"I\": 1.0}, \"52\": {\"I\": 1.0}, \"53\": {\"I\": 1.0}, \"54\": {\"I\": 1.0}, \"55\": {\"I\": 1.0}, \"56\": {\"I\": 1.0}, \"57\": {\"I\": 1.0}, \"58\": {\"I\": 1.0}, \"59\": {\"I\": 1.0}, \"60\": {\"Cs\": 1.0}, \"61\": {\"Cs\": 1.0}, \"62\": {\"Cs\": 1.0}, \"63\": {\"Cs\": 1.0}, \"64\": {\"Pb\": 1.0}, \"65\": {\"Pb\": 1.0}, \"66\": {\"Pb\": 1.0}, \"67\": {\"Pb\": 1.0}, \"68\": {\"I\": 1.0}, \"69\": {\"I\": 1.0}, \"70\": {\"I\": 1.0}, \"71\": {\"I\": 1.0}, \"72\": {\"I\": 1.0}, \"73\": {\"I\": 1.0}, \"74\": {\"I\": 1.0}, \"75\": {\"I\": 1.0}, \"76\": {\"I\": 1.0}, \"77\": {\"I\": 1.0}, \"78\": {\"I\": 1.0}, \"79\": {\"I\": 1.0}}" energy=-223.47367662839184 free_energy=-223.47367662839184 stress="1.3743464350027737e-06 3.3456319267001436e-06 3.4246140155597854e-06 3.3456319267001436e-06 -1.3242999580255052e-06 -4.071349701406446e-06 3.4246140155597854e-06 -4.071349701406446e-06 4.231927091534038e-06" pbc="T T T"
Cs      10.21695345      12.36318544       3.98594515        0       0.00003862      -0.00002565       0.00000076
Cs       2.67048836       6.54671427       4.60533424        1       0.00003849      -0.00026085       0.00027142
Cs       3.87785729      10.49521451       8.77905586        2       0.00022082      -0.00005180       0.00009291
Cs      11.83305776      16.60115842       7.63427278        3      -0.00004835       0.00001303       0.00008407
Pb      -2.66224238      12.20211413       8.21972236        4      -0.00024721       0.00001340      -0.00006593
Pb       6.15058458       9.41689439       1.76713830        5       0.00005996      -0.00001077       0.00035690
Pb      19.61173335       6.58833172       2.94883168        6       0.00011816      -0.00035775       0.00006544
Pb       5.63682362      15.14113582       5.57075288        7      -0.00016227       0.00006919       0.00018758
I        7.10984219      12.55633404       1.53248858        8       0.00001106       0.00024240      -0.00009321
I        5.89575322       6.21127135       2.24214854        9      -0.00020227      -0.00002991       0.00027667
I        9.39853772       4.29621218      -0.52386824       10       0.00014077       0.00030344      -0.00008155
I        8.14312356      16.16264758       7.28544899       11       0.00022312      -0.00024619       0.00014076
I        9.08938940      20.93319091      12.55752090       12       0.00005188       0.00012193      -0.00037722
I        9.49110051       8.78466099       2.29036022       13      -0.00003941       0.00003544       0.00002278
I        2.90477212      14.63880448       3.79388955       14      -0.00041583      -0.00016160      -0.00014000
I        6.84718499      12.02018580       5.86266253       15       0.00002823       0.00020782      -0.00026153
I        0.17694709      19.31528733       7.96640871       16      -0.00013122      -0.00011387      -0.00026146
I       10.90087655      12.65127925       7.94079295       17       0.00013994       0.00007682      -0.00009332
I        6.99214185      16.72119982       3.07187780       18       0.00009337       0.00000571       0.00009516
I        4.27999641      18.02150112       6.13238610       19       0.00000052       0.00001785      -0.00004809
Cs       4.95313574      -0.71636494       3.19359311       20      -0.00000695       0.00004840      -0.00017663
Cs       7.93285324      19.62693593       5.40017298       21       0.00012184      -0.00017674      -0.00007720
Cs       9.14222906      23.57615409       9.57166455       22      -0.00001076      -0.00021390       0.00033306
Cs      17.09731609      29.68151540       8.42930036       23      -0.00024169       0.00013073       0.00013577
Pb       2.60095788      25.28267620       9.01403968       24       0.00010129       0.00017833       0.00021440
Pb      11.41393028      22.49732892       2.56277287       25       0.00008219      -0.00008727       0.00011208
Pb      24.87557180      19.66809920       3.74372340       26       0.00012511       0.00022839       0.00000045
Pb      10.90051377      28.22234643       6.36462702       27      -0.00044936      -0.00026012      -0.00015792
I       12.37340524      25.63672711       2.32663944       28       0.00009561      -0.00036576       0.00021560
I       11.15935872      19.29165123       3.03749251       29      -0.00001751      -0.00004618       0.00034954
I       14.66290835      17.37729429       0.27060283       30      -0.00012413       0.00052856      -0.00050707
I       13.40727029      29.24291528       8.07904801       31       0.00018587       0.00001916      -0.00006176
I       14.35263524      34.01361200      13.35262293       32       0.00027994      -0.00016460      -0.00040288
I       14.75447692      21.86505349       3.08616855       33       0.00011345       0.00015164      -0.00001266
I        8.16760835      27.71965466       4.58833578       34       0.00022218      -0.00014299       0.00005489
I       12.11060402      25.10107076       6.65676129       35      -0.00009036      -0.00006065      -0.00018342
I       -5.08696237       6.23498032       7.17424187       36      -0.00012364      -0.00004478      -0.00026164
I       16.16438541      25.73237743       8.73582842       37       0.00048682      -0.00030560       0.00002139
I       12.25553648      29.80140491       3.86496814       38       0.00004620       0.00004522       0.00071497
I        9.54393966      31.10262028       6.92533597       39      -0.00004477       0.00027295       0.00024654
Cs      20.77021575      13.30646009       4.35162665       40       0.00004267      -0.00002539      -0.00000828
Cs      13.22312443       7.48962282       4.97167311       41       0.00005083      -0.00003912       0.00031021
Cs      14.43133069      11.43817321       9.14500162       42       0.00000360       0.00030753       0.00015180
Cs       1.27985748      15.65813918       7.26764047       43       0.00015511       0.00011459       0.00010451
Pb       7.89056520      13.14481882       8.58610375       44      -0.00029176      -0.00020788      -0.00008991
Pb      16.70318842      10.35972052       2.13388516       45      -0.00014066      -0.00014106       0.00016692
Pb       9.05885709       5.64513143       2.58237165       46      -0.00004557       0.00028912       0.00021703
Pb      16.18977683      16.08464701       5.93732110       47      -0.00025057      -0.00024386       0.00033229
I       17.66251347      13.49890776       1.89869689       48       0.00007138       0.00041629      -0.00005216
I       16.44853539       7.15391342       2.60880048       49      -0.00012260       0.00018892       0.00031700
I       19.95172555       5.23955050      -0.15740458       50      -0.00005538      -0.00007962      -0.00006859
I       18.69575290      17.10626361       7.65247961       51       0.00024776      -0.00022695      -0.00001557
I       19.64251644      21.87569045      12.92310674       52       0.00014644       0.00024044      -0.00042340
I       20.04365567       9.72783247       2.65700108       53       0.00005715      -0.00004564       0.00003278
I       13.45759726      15.58203167       4.16033919       54      -0.00012617      -0.00011140       0.00010507
I       17.40054185      12.96378667       6.22872768       55      -0.00018250       0.00030071      -0.00038100
I       10.72904142      20.25782090       8.33332455       56      -0.00013421       0.00007211      -0.00020316
I       21.45405665      13.59447433       8.30658025       57       0.00005527       0.00008989      -0.00014550
I       17.54519685      17.66427466       3.43836705       58       0.00014156      -0.00007286      -0.00023438
I       14.83259786      18.96500468       6.49864761       59       0.00025646      -0.00004368       0.00011014
Cs      15.50638450       0.22696855       3.55951081       60       0.00008202       0.00003002      -0.00024779
Cs      18.48595584      20.56967879       5.76661024       61       0.00015961       0.00004279      -0.00008105
Cs      19.69583986      24.51877440       9.93751392       62      -0.00017404       0.00028303       0.00040345
Cs       6.54410244      28.73878170       8.06275999       63      -0.00008540       0.00015800       0.00007796
Pb      13.15371172      26.22534535       9.38053835       64       0.00006043       0.00012814      -0.00010885
Pb      21.96690006      23.44011506       2.92956527       65       0.00001057      -0.00009709       0.00003604
Pb      14.32262843      18.72539912       3.37739392       66      -0.00042943       0.00010628      -0.00028920
Pb      21.45348252      29.16537813       6.73101462       67      -0.00028691      -0.00000651       0.00027481
I       22.92627630      26.57923277       2.69302727       68       0.00006129      -0.00000607       0.00009993
I       21.71242071      20.23428238       3.40403064       69      -0.00023472      -0.00006792       0.00039586
I       25.21624752      18.32034916       0.63680635       70      -0.00061051       0.00010307       0.00000318
I       23.96001627      30.18641508       8.44578735       71       0.00004315      -0.00023029      -0.00021265
I       24.90569688      34.95634188      13.71841955       72       0.00026936      -0.00001499      -0.00042134
I       25.30744475      22.80790067       3.45308880       73      -0.00001596      -0.00006875      -0.00004333
I       18.72061138      28.66266183       4.95474899       74       0.00011758      -0.00044960       0.00007450
I       22.66391221      26.04424679       7.02293785       75      -0.00021660      -0.00002710      -0.00037869
I        5.46576447       7.17743377       7.54112251       76      -0.00018971       0.00016351      -0.00025570
I       26.71759645      26.67559848       9.10162027       77       0.00040394      -0.00024125      -0.00006023
I       22.80858758      30.74418931       4.23160634       78       0.00032831       0.00004695      -0.00013928
I       20.09657498      32.04579895       7.29161808       79       0.00015856      -0.00021771      -0.00008311
