40
Lattice="16.95278520048577 1.0991474533398076 -3.1161318519827934 7.926537445441731 16.069592709573786 -0.182581596411539 5.900112517971099 2.291737110978185 6.50417413296974" Properties=species:S:1:pos:R:3:spacegroup_kinds:I:1:forces:R:3 spacegroup="P 1" unit_cell=conventional occupancy="_JSON {\"0\": {\"Cs\": 1.0}, \"1\": {\"Cs\": 1.0}, \"2\": {\"K\": 1.0}, \"3\": {\"In\": 1.0}, \"4\": {\"I\": 1.0}, \"5\": {\"I\": 1.0}, \"6\": {\"I\": 1.0}, \"7\": {\"I\": 1.0}, \"8\": {\"I\": 1.0}, \"9\": {\"I\": 1.0}, \"10\": {\"Cs\": 1.0}, \"11\": {\"Cs\": 1.0}, \"12\": {\"K\": 1.0}, \"13\": {\"In\": 1.0}, \"14\": {\"I\": 1.0}, \"15\": {\"I\": 1.0}, \"16\": {\"I\": 1.0}, \"17\": {\"I\": 1.0}, \"18\": {\"I\": 1.0}, \"19\": {\"I\": 1.0}, \"20\": {\"Cs\": 1.0}, \"21\": {\"Cs\": 1.0}, \"22\": {\"K\": 1.0}, \"23\": {\"In\": 1.0}, \"24\": {\"I\": 1.0}, \"25\": {\"I\": 1.0}, \"26\": {\"I\": 1.0}, \"27\": {\"I\": 1.0}, \"28\": {\"I\": 1.0}, \"29\": {\"I\": 1.0}, \"30\": {\"Cs\": 1.0}, \"31\": {\"Cs\": 1.0}, \"32\": {\"K\": 1.0}, \"33\": {\"In\": 1.0}, \"34\": {\"I\": 1.0}, \"35\": {\"I\": 1.0}, \"36\": {\"I\": 1.0}, \"37\": {\"I\": 1.0}, \"38\": {\"I\": 1.0}, \"39\": {\"I\": 1.0}}" energy=-103.08252032585365 free_energy=-103.08252032585365 stress="9.160180053178659e-07 -2.9531621049787235e-07 1.3928772696161076e-07 -2.9531621049787235e-07 -5.659589575527653e-07 -5.330211323743186e-07 1.3928772696161076e-07 -5.330211323743186e-07 2.880020917148383e-08" pbc="T T T"
Cs       4.99805334       3.71318165       1.39572348        0      -0.00027597       0.00012916      -0.00006750
Cs      13.88686707       8.63350372       3.98752932        1       0.00000069      -0.00028300      -0.00033680
K        9.83910633       4.53258749       3.27152071        2       0.00016432      -0.00029224       0.00020009
In      16.95219446       1.10008861      -3.11539962        3       0.00024563      -0.00041303      -0.00041606
I        8.92783340       3.10237634       0.00057006        4      -0.00002226      -0.00022873       0.00018132
I       10.02560691       7.88961241       4.59809845        5       0.00018430       0.00011060       0.00030877
I       10.82081606       7.08352766       0.30738518        6       0.00008613      -0.00018685      -0.00017276
I       24.23958949       5.95685956       3.68096733        7      -0.00023583       0.00001337      -0.00007036
I        6.51110925       7.24217803       1.29318052        8      -0.00024412      -0.00024102       0.00043143
I       11.56494914       2.72858252       5.96690210        9       0.00002259      -0.00040465       0.00001691
Cs       9.00385289      10.50580629       1.42658580       10       0.00010785       0.00034655       0.00016836
Cs      18.14691475      15.52923660       4.31099698       11      -0.00045480       0.00022602       0.00032963
K       13.54839504      14.81309002       2.63476958       12       0.00036233       0.00034521      -0.00069893
In      20.91624448       9.13313686      -3.20774624       13      -0.00022748       0.00033291      -0.00010991
I       13.07707524      10.60594597       0.47985491       14       0.00017848       0.00023657      -0.00005116
I       15.18621567      17.93318795       3.68714940       15       0.00013405       0.00012202       0.00017911
I       17.27529870      14.94333917       0.50346397       16      -0.00056611       0.00064493       0.00020197
I       28.40017995      12.90697084       1.30234589       17       0.00006735       0.00044558       0.00003270
I       10.15491294      14.55871036       1.20161223       18       0.00033594       0.00005470      -0.00036688
I       15.82565200      12.40152926       4.08163834       19       0.00024712       0.00016041      -0.00032513
Cs      12.63291191       3.93182444      -1.10618686       20      -0.00016007      -0.00025538      -0.00018207
Cs      21.77423606       8.95510603       1.77802878       21       0.00031656      -0.00039828       0.00006507
K       17.22855929       4.64770821       0.57387031       22      -0.00033459      -0.00027353       0.00006646
In       8.47720724       0.54911896      -1.55835318       23      -0.00005665      -0.00001848       0.00014113
I       15.59240562       1.52783841      -0.48024402       24      -0.00016501       0.00012814       0.00027886
I       17.70211830       8.85500450       2.72590480       25      -0.00028587       0.00003565      -0.00019665
I        2.37912987       6.55281051       1.90239008       26      -0.00004657      -0.00025399       0.00004050
I       13.50705515       4.51625145       2.70058186       27      -0.00005841      -0.00012416       0.00021658
I       14.95343894       7.05908044      -0.87589129       28      -0.00016055       0.00049613      -0.00011183
I       20.62307224       4.90268580       2.00484919       29       0.00063641       0.00020451      -0.00023191
Cs      16.89238782      10.82751562      -0.78159984       30       0.00025740      -0.00016155       0.00003315
Cs      25.78077439      15.74596637       1.81014722       31       0.00002139       0.00047287      -0.00002838
K       20.94355545      14.92756197      -0.06928123       32      -0.00050046       0.00003435       0.00036297
In      12.43964347       8.58462536      -1.64911490       33       0.00006985       0.00000874       0.00000878
I       20.75395544      11.56941536      -1.39303187       34      -0.00006070       0.00007131      -0.00025583
I       21.85241447      16.35748747       3.20431858       35      -0.00007638       0.00018985      -0.00005465
I        6.53775081      13.50529184      -0.47365782       36       0.00066617      -0.00044061       0.00006276
I       19.95833052      12.37767163       2.89867350       37       0.00020783      -0.00042632      -0.00019997
I       19.21590009      16.73204495      -2.76207989       38       0.00023915      -0.00040343       0.00004858
I       24.26899855      12.21714638       1.91083286       39      -0.00061971      -0.00000433       0.00050163
