20
Lattice="12.294071998923634 -0.7602248665087235 -3.3794941782959107 1.0689042706088703 12.687938231330364 1.031108977905652 1.6467569104674193 -0.6364451268798869 6.138651356293602" Properties=species:S:1:pos:R:3:spacegroup_kinds:I:1:forces:R:3 spacegroup="P 1" unit_cell=conventional occupancy="_JSON {\"0\": {\"Cs\": 1.0}, \"1\": {\"Pb\": 1.0}, \"2\": {\"I\": 1.0}, \"3\": {\"I\": 1.0}, \"4\": {\"I\": 1.0}, \"5\": {\"Cs\": 1.0}, \"6\": {\"Pb\": 1.0}, \"7\": {\"I\": 1.0}, \"8\": {\"I\": 1.0}, \"9\": {\"I\": 1.0}, \"10\": {\"Cs\": 1.0}, \"11\": {\"Pb\": 1.0}, \"12\": {\"I\": 1.0}, \"13\": {\"I\": 1.0}, \"14\": {\"I\": 1.0}, \"15\": {\"Cs\": 1.0}, \"16\": {\"Pb\": 1.0}, \"17\": {\"I\": 1.0}, \"18\": {\"I\": 1.0}, \"19\": {\"I\": 1.0}}" energy=-55.92296595427771 free_energy=-55.92296595427771 stress="-1.819034872091792e-05 4.043989887112923e-06 4.152068803511336e-06 4.043989887112923e-06 4.335211945681615e-06 2.546012579653147e-06 4.152068803511336e-06 2.546012579653147e-06 1.1254075920446903e-05" pbc="T T T"
Cs       4.16380984       2.66328427       2.48287146        0      -0.00001723       0.00002915       0.00008681
Pb       1.06893828      12.68796918       1.03111211        1       0.00005442       0.00048414       0.00021770
I        0.82359934      -0.31840735       3.06939120        2      -0.00007007       0.00025115      -0.00033123
I        3.07349886      -0.19018003      -0.84505526        3       0.00009139       0.00020568       0.00004100
I       12.56140993       2.41242447      -3.12225890        4      -0.00005850      -0.00097013      -0.00001428
Cs       4.69826197       9.00725339       2.99842595        5      -0.00001723       0.00002915       0.00008681
Pb       0.53448614       6.34400007       0.51555762        6       0.00005442       0.00048414       0.00021770
I        1.35805147       6.02556177       3.58494569        7      -0.00007007       0.00025115      -0.00033123
I        3.60795099       6.15378909      -0.32950077        8       0.00009139       0.00020568       0.00004100
I        0.80179007       9.51661845       0.77278976        9      -0.00005850      -0.00097013      -0.00001428
Cs      10.31084584       2.28317184       0.79312437       10      -0.00001723       0.00002915       0.00008681
Pb       7.21597428      12.30785675      -0.65863498       11       0.00005442       0.00048414       0.00021770
I        6.97063534      -0.69851978       1.37964411       12      -0.00007007       0.00025115      -0.00033123
I        9.22053485      -0.57029246      -2.53480235       13       0.00009139       0.00020568       0.00004100
I        6.41437393       2.79253690      -1.43251182       14      -0.00005850      -0.00097013      -0.00001428
Cs      10.84529797       8.62714095       1.30867886       15      -0.00001723       0.00002915       0.00008681
Pb       6.68152214       5.96388763      -1.17418947       16       0.00005442       0.00048414       0.00021770
I        7.50508747       5.64544934       1.89519860       17      -0.00007007       0.00025115      -0.00033123
I        9.75498699       5.77367665      -2.01924786       18       0.00009139       0.00020568       0.00004100
I        6.94882607       9.13650601      -0.91695733       19      -0.00005850      -0.00097013      -0.00001428
