20
Lattice="12.651577846322878 0.0 0.0 2.2312572382598246 13.096259609200281 0.0 3.2748142248812253 -1.0622003968919993 6.163082758100048" Properties=species:S:1:pos:R:3:oxi_states:R:1 pbc="T T T"
Cs       5.35814897       2.74293162       3.08154138       1.00000000
Pb      -0.00000000      -0.00000000       0.00000000       2.00000000
I        1.63740711      -0.53110020       3.08154138      -1.00000000
I        3.16289446       0.00000000      -0.00000000      -1.00000000
I        0.55781431       3.27406490       0.00000000      -1.00000000
Cs       6.47377759       9.29106143       3.08154138       1.00000000
Pb       1.11562862       6.54812980       0.00000000       2.00000000
I        2.75303573       6.01702961       3.08154138      -1.00000000
I        4.27852308       6.54812980      -0.00000000      -1.00000000
I        1.67344293       9.82219471       0.00000000      -1.00000000
Cs      11.68393789       2.74293162       3.08154138       1.00000000
Pb       6.32578892      -0.00000000       0.00000000       2.00000000
I        7.96319604      -0.53110020       3.08154138      -1.00000000
I        9.48868338       0.00000000      -0.00000000      -1.00000000
I        6.88360323       3.27406490       0.00000000      -1.00000000
Cs      12.79956651       9.29106143       3.08154138       1.00000000
Pb       7.44141754       6.54812980       0.00000000       2.00000000
I        9.07882465       6.01702961       3.08154138      -1.00000000
I       10.60431200       6.54812980      -0.00000000      -1.00000000
I        7.99923185       9.82219471       0.00000000      -1.00000000
