20
Lattice="15.879648784413842 0.0 0.0 -3.9299353056859845 8.031010167341591 0.0 -0.1300962861343195 2.1080138474873524 7.075402547459653" Properties=species:S:1:pos:R:3 pbc="T T T"
Cs       1.67317458       6.37920002      -0.00004187
Cs       5.62976114       3.70219663      -0.00004187
K        1.58148402       2.07919144       3.53771560
In       1.64654216       1.02520038       0.00003852
I        2.67191001       3.55267431       1.41558592
I        4.50097007       8.63674330       5.65988062
I        1.97775643       1.68627003       5.65984863
I        5.83197167       0.42174382       1.41555392
I       -2.92553284       6.34702028       1.41555392
I       -1.13449875       3.79200373       5.65984863
Cs       9.61299897       6.37920002      -0.00004187
Cs      13.56958553       3.70219663      -0.00004187
K        9.52130841       2.07919144       3.53771560
In       9.58636655       1.02520038       0.00003852
I       10.61173441       3.55267431       1.41558592
I       12.44079446       8.63674330       5.65988062
I        9.91758082       1.68627003       5.65984863
I       13.77179607       0.42174382       1.41555392
I        5.01429155       6.34702028       1.41555392
I        6.80532564       3.79200373       5.65984863
