20
Lattice="17.736696119438385 -0.43752832972872674 0.7265131265760753 -4.580510874177745 9.01216875670293 -0.6183148494867952 0.09329387165984895 1.9677423667417302 8.730246654546518" Properties=species:S:1:pos:R:3:spacegroup_kinds:I:1:forces:R:3 spacegroup="P 1" unit_cell=conventional occupancy="_JSON {\"0\": {\"Cs\": 1.0}, \"1\": {\"Cs\": 1.0}, \"2\": {\"K\": 1.0}, \"3\": {\"In\": 1.0}, \"4\": {\"I\": 1.0}, \"5\": {\"I\": 1.0}, \"6\": {\"I\": 1.0}, \"7\": {\"I\": 1.0}, \"8\": {\"I\": 1.0}, \"9\": {\"I\": 1.0}, \"10\": {\"Cs\": 1.0}, \"11\": {\"Cs\": 1.0}, \"12\": {\"K\": 1.0}, \"13\": {\"In\": 1.0}, \"14\": {\"I\": 1.0}, \"15\": {\"I\": 1.0}, \"16\": {\"I\": 1.0}, \"17\": {\"I\": 1.0}, \"18\": {\"I\": 1.0}, \"19\": {\"I\": 1.0}}" energy=-50.61041207444417 free_energy=-50.61041207444417 stress="-1.915808141219978e-06 -4.572978898798096e-06 -3.848162869044817e-07 -4.572978898798096e-06 2.760431683684861e-06 -1.3962356994923742e-06 -3.848162869044817e-07 -1.3962356994923742e-06 -4.26423159638179e-06" pbc="T T T"
Cs       2.04934226       9.35888816       8.68715932        0      -0.00004096      -0.00003402      -0.00012490
Cs       6.11610761       5.79660794       8.95040188        1       0.00014644       0.00001998       0.00010844
K        0.32919295       1.08369675       4.21187470        2       0.00048227      -0.00018354       0.00028786
In       1.97293292       1.17293825      -0.12135782        3      -0.00014405      -0.00006092      -0.00000361
I        2.10041261       3.38188227       1.55155376        4       0.00044617       0.00027228       0.00022003
I        4.20375553       7.48597977       6.29763027        5      -0.00037341       0.00029141       0.00002101
I        4.24350588       2.70278160       6.99249602        6      -0.00015126      -0.00030762       0.00003816
I        6.30819263       1.29746269       2.89348591        7       0.00034752      -0.00008360       0.00057702
I       -2.92087543       8.00644350       0.97209050        8       0.00006367      -0.00009252      -0.00045189
I       17.59868895       3.02623259       7.65825200        9       0.00009395       0.00001601      -0.00020756
Cs      10.91777404       9.14004102       9.05039507       10      -0.00016072       0.00008816      -0.00000380
Cs      14.98458634       5.57786106       9.31375104       11      -0.00007055      -0.00005105       0.00004566
K        9.19781727       0.86493237       4.57544614       12      -0.00024185      -0.00028081      -0.00044387
In      10.84123890       0.95434363       0.24189046       13      -0.00013022      -0.00012288      -0.00008267
I       10.96873082       3.16324769       1.91500990       14       0.00043865      -0.00023653      -0.00028893
I       -4.66473953       7.70489424       5.93426884       15      -0.00012928       0.00002792       0.00022695
I       13.11186384       2.48374709       7.35581401       16      -0.00037620       0.00011548       0.00017098
I       15.17688773       1.07855910       3.25704746       17      -0.00056939       0.00017247      -0.00014145
I        5.94759818       7.78766517       1.33518300       18      -0.00012093       0.00012662      -0.00019497
I        8.73022534       3.24479545       7.29484935       19       0.00049014       0.00032315       0.00024753
