40
Lattice="22.278458112906456 -0.6065093950101427 1.9844023471977903 3.6076220756618382 14.51762030282765 -0.6348323174159256 6.756642715415334 0.4169568988023461 7.018801421253245" Properties=species:S:1:pos:R:3:spacegroup_kinds:I:1:forces:R:3 spacegroup="P 1" unit_cell=conventional occupancy="_JSON {\"0\": {\"Cs\": 1.0}, \"1\": {\"Cs\": 1.0}, \"2\": {\"K\": 1.0}, \"3\": {\"In\": 1.0}, \"4\": {\"I\": 1.0}, \"5\": {\"I\": 1.0}, \"6\": {\"I\": 1.0}, \"7\": {\"I\": 1.0}, \"8\": {\"I\": 1.0}, \"9\": {\"I\": 1.0}, \"10\": {\"Cs\": 1.0}, \"11\": {\"Cs\": 1.0}, \"12\": {\"K\": 1.0}, \"13\": {\"In\": 1.0}, \"14\": {\"I\": 1.0}, \"15\": {\"I\": 1.0}, \"16\": {\"I\": 1.0}, \"17\": {\"I\": 1.0}, \"18\": {\"I\": 1.0}, \"19\": {\"I\": 1.0}, \"20\": {\"Cs\": 1.0}, \"21\": {\"Cs\": 1.0}, \"22\": {\"K\": 1.0}, \"23\": {\"In\": 1.0}, \"24\": {\"I\": 1.0}, \"25\": {\"I\": 1.0}, \"26\": {\"I\": 1.0}, \"27\": {\"I\": 1.0}, \"28\": {\"I\": 1.0}, \"29\": {\"I\": 1.0}, \"30\": {\"Cs\": 1.0}, \"31\": {\"Cs\": 1.0}, \"32\": {\"K\": 1.0}, \"33\": {\"In\": 1.0}, \"34\": {\"I\": 1.0}, \"35\": {\"I\": 1.0}, \"36\": {\"I\": 1.0}, \"37\": {\"I\": 1.0}, \"38\": {\"I\": 1.0}, \"39\": {\"I\": 1.0}}" energy=-102.29166293281536 free_energy=-102.29166293281536 stress="-8.918124593528708e-08 5.67204697596517e-07 -2.18965390908547e-07 5.67204697596517e-07 4.326029802800712e-08 -3.85516098346753e-07 -2.18965390908547e-07 -3.85516098346753e-07 8.193556923844777e-07" pbc="T T T"
Cs       4.93752839       0.66006893       0.81256677        0       0.00000633      -0.00021444       0.00009908
Cs      14.84976165       4.41149525       4.59555409        1       0.00038534       0.00019661       0.00003489
K        9.43848027       4.97633346       4.77459601        2      -0.00002034      -0.00012347       0.00015087
In      21.79858800       0.15927610       2.30530195        3       0.00010878      -0.00001206      -0.00012698
I       10.15070621      -2.08280252       2.35388880        4       0.00023477      -0.00021157      -0.00007621
I       10.26478784       8.74156290       5.30217910        5      -0.00002252      -0.00005170      -0.00024369
I       12.17255045       1.32928373       3.68246401        6       0.00026371      -0.00007114      -0.00001670
I        6.65084556       7.18345907       4.33182448        7      -0.00005171      -0.00009190      -0.00023615
I       12.01329249       4.82592327       7.13145149        8      -0.00007445       0.00043381       0.00005800
I        8.64949000       2.36630337       1.31513071        9      -0.00002296      -0.00015833       0.00000050
Cs       6.74137725       7.91863534       0.49529661       10       0.00008526       0.00006367       0.00006776
Cs      16.65368712      11.67111608       4.27839544       11      -0.00004054       0.00002281      -0.00013694
K       11.24206063      12.23501424       4.45751873       12      -0.00001546       0.00003288       0.00000209
In      23.60241478       7.41752088       1.98827468       13      -0.00007897       0.00014244      -0.00005807
I       11.95513093       5.17527351       2.03654115       14      -0.00006967       0.00052272      -0.00038654
I       12.06853369      16.00034174       4.98427775       15      -0.00019576       0.00013188       0.00004919
I       13.97727579       8.58758380       3.36521450       16      -0.00021961      -0.00007852      -0.00009914
I        8.45482650      14.44191816       4.01357332       17      -0.00010286       0.00014184       0.00031014
I       13.81694138      12.08522887       6.81415855       18       0.00006192      -0.00033335       0.00004928
I       10.45339999       9.62450657       0.99838185       19      -0.00017283       0.00028903      -0.00004130
Cs      16.07668182       0.35685297       1.80496646       20       0.00012700      -0.00013166      -0.00002767
Cs      25.98915011       4.10853570       5.58777688       21       0.00018329       0.00016527      -0.00005816
K       20.57771043       4.67336767       5.76695611       22      -0.00007131      -0.00015240       0.00010213
In      10.65912894       0.46255346       1.31278678       23       0.00005528      -0.00013630       0.00008905
I       21.28993260      -2.38617392       3.34582537       24       0.00011818      -0.00043402       0.00010497
I       21.40385512       8.43824543       6.29412049       25      -0.00020571      -0.00007133       0.00013532
I       23.31232525       1.02562649       4.67458757       26       0.00005741       0.00003515       0.00015681
I       17.78977213       6.87998082       5.32390729       27       0.00017084      -0.00006488       0.00022802
I       23.15256772       4.52277668       8.12372433       28      -0.00001212       0.00022019      -0.00004372
I       19.78867241       2.06266423       2.30741124       29       0.00005489      -0.00009341      -0.00013157
Cs      17.88053994       7.61541620       1.48769560       30      -0.00003538       0.00016880      -0.00000606
Cs      27.79306414      11.36749581       5.27049158       31      -0.00020730       0.00004468      -0.00005410
K       22.38169817      11.93169236       5.44981665       32      -0.00012962       0.00006464       0.00005017
In      12.46318034       7.72099648       0.99613090       33       0.00034859      -0.00027573      -0.00010014
I       23.09429933       4.87173426       3.02839248       34      -0.00000752       0.00029384       0.00021287
I       23.20793855      15.69719974       5.97659478       35      -0.00001645       0.00023130       0.00019081
I       25.11643909       8.28395915       4.35753638       36      -0.00021346      -0.00006535      -0.00002322
I       19.59435637      14.13911197       5.00629885       37      -0.00045188      -0.00010452      -0.00009146
I       24.95639001      11.78210103       7.80663367       38       0.00003592      -0.00043267      -0.00004419
I       21.59261421       9.32112318       1.99080384       39       0.00014094       0.00010720      -0.00008991
