40
Lattice="20.313072459049753 0.0 0.0 3.7950743660428246 14.761422829322044 0.0 5.759745364151611 1.1757712767235975 4.366676364248631" Properties=species:S:1:pos:R:3 pbc="T T T"
Cs       4.45330926       2.13907723       1.09169664
Cs      13.36050927       6.41740430       3.27497896
K        8.90690920       4.27824058       2.18333765
In       0.00000025       0.00000078       0.00000034
I        8.65716926       0.58883237       1.08106741
I        9.15664910       7.96764818       3.28560794
I       12.93203239       3.06647755       2.07237249
I        4.88178381       5.49000322       2.29430228
I        5.64365424       4.98823181      -0.04298078
I       12.17016487       3.56825314       4.40965848
Cs       6.35084644       9.51978864       1.09169664
Cs      15.25804645      13.79811571       3.27497896
K       10.80444638      11.65895199       2.18333765
In       1.89753743       7.38071220       0.00000034
I       10.55470645       7.96954378       1.08106741
I       11.05418628      15.34835960       3.28560794
I       14.82956957      10.44718896       2.07237249
I        6.77932099      12.87071463       2.29430228
I        7.54119143      12.36894323      -0.04298078
I       14.06770206      10.94896455       4.40965848
Cs      14.60984549       2.13907723       1.09169664
Cs      23.51704550       6.41740430       3.27497896
K       19.06344543       4.27824058       2.18333765
In      10.15653648       0.00000078       0.00000034
I       18.81370549       0.58883237       1.08106741
I       19.31318533       7.96764818       3.28560794
I       23.08856862       3.06647755       2.07237249
I       15.03832004       5.49000322       2.29430228
I       15.80019047       4.98823181      -0.04298078
I       22.32670110       3.56825314       4.40965848
Cs      16.50738267       9.51978864       1.09169664
Cs      25.41458268      13.79811571       3.27497896
K       20.96098261      11.65895199       2.18333765
In      12.05407366       7.38071220       0.00000034
I       20.71124268       7.96954378       1.08106741
I       21.21072251      15.34835960       3.28560794
I       24.98610580      10.44718896       2.07237249
I       16.93585722      12.87071463       2.29430228
I       17.69772766      12.36894323      -0.04298078
I       24.22423828      10.94896455       4.40965848
