10
Lattice="11.985939230149354 2.6447504933364194 -0.43105851559866404 1.3839602952488539 8.164557928579693 2.391682913036782 7.396543027825175 9.96548154822003 8.298591200658105" Properties=species:S:1:pos:R:3:spacegroup_kinds:I:1:forces:R:3 spacegroup="P 1" unit_cell=conventional occupancy="_JSON {\"0\": {\"Cs\": 1.0}, \"1\": {\"Cs\": 1.0}, \"2\": {\"K\": 1.0}, \"3\": {\"In\": 1.0}, \"4\": {\"I\": 1.0}, \"5\": {\"I\": 1.0}, \"6\": {\"I\": 1.0}, \"7\": {\"I\": 1.0}, \"8\": {\"I\": 1.0}, \"9\": {\"I\": 1.0}}" energy=-25.77578100945608 free_energy=-25.77578100945608 stress="-1.4874329565242063e-06 -4.684132234789837e-08 6.814857707779231e-07 -4.684132234789837e-08 9.698674318741881e-07 2.1999758630843026e-06 6.814857707779231e-07 2.1999758630843026e-06 -1.046275188721603e-06" pbc="T T T"
Cs       3.30786659       3.44080083       1.87209026        0       0.00007269      -0.00021418       0.00010908
Cs      17.45859063      17.33446248       8.38692359        1      -0.00007845      -0.00027699       0.00009801
K       10.38356075      10.38653482       5.12972410        2      -0.00033515       0.00070657      -0.00003310
In      -0.00010731       0.00017903       0.00002172        3       0.00007883      -0.00015677      -0.00011048
I        7.55572411       8.30306686       5.81924693        4       0.00007086      -0.00001409       0.00011571
I       13.21029297      12.47202916       4.43982255        5       0.00018263      -0.00010245       0.00014726
I       12.91388782       8.35979252       3.61211538        6      -0.00004219       0.00008695       0.00004662
I        7.85288130      12.41498756       6.64714646        7       0.00007470      -0.00012128      -0.00027365
I        4.34023283       7.88262246       2.73256115        8       0.00001419      -0.00000462       0.00000691
I       16.42606063      12.89207885       7.52681753        9      -0.00003811       0.00009686      -0.00010637
