5
Lattice="5.949874939745134 0.0 0.0 1.8633508501479712 5.170588665967701 0.0 -1.9083440613430376 1.7218774248096569 4.7346305316579045" Properties=species:S:1:pos:R:3:oxi_states:R:1 pbc="T T T"
Cs       2.95255828       3.44611562       2.36731527       1.00000000
Pb      -0.00000000      -0.00000000       0.00000000       2.00000000
I       -0.95417203       0.86093871       2.36731527      -1.00000000
I        2.97493747       0.00000000      -0.00000000      -1.00000000
I        0.93167543       2.58529433       0.00000000      -1.00000000
