80
Lattice="17.046365958917526 0.0 0.0 8.523182979530501 14.762585962587758 0.0 8.523182979668308 4.9208619876362265 13.918299904738095" Properties=species:S:1:pos:R:3 pbc="T T T"
Cs       4.26157324       2.46042552       1.73978785
Cs      12.78479266       7.38129831       5.21936201
K        8.52318303       4.92086196       3.47957499
In       0.00000009       0.00000015       0.00000005
I        6.42362215       3.34773895       5.02804581
I       10.62274394       6.49398488       1.93110414
I        8.88557354       2.54350060       1.61730174
I        8.16079234       7.29822319       5.34184818
I        6.24246235       6.23770649       1.61730556
I       10.80390387       3.60401779       5.34184458
Cs       8.52316473       4.92085651       8.69893780
Cs      17.04638415       9.84172930      12.17851196
K       12.78477452       7.38129295      10.43872494
In       4.26159158       2.46043114       6.95915001
I       10.68521364       5.80816995      11.98719576
I       14.88433543       8.95441587       8.89025409
I       13.14716503       5.00393159       8.57645169
I       12.42238383       9.75865419      12.30099813
I       10.50405384       8.69813749       8.57645551
I       15.06549536       6.06444878      12.30099453
Cs       8.52316473       9.84171850       1.73978785
Cs      17.04638415      14.76259129       5.21936201
K       12.78477452      12.30215494       3.47957499
In       4.26159158       7.38129313       0.00000005
I       10.68521364      10.72903194       5.02804581
I       14.88433543      13.87527786       1.93110414
I       13.14716503       9.92479358       1.61730174
I       12.42238383      14.67951617       5.34184818
I       10.50405384      13.61899948       1.61730556
I       15.06549536      10.98531077       5.34184458
Cs      12.78475622      12.30214949       8.69893780
Cs      21.30797564      17.22302228      12.17851196
K       17.04636601      14.76258593      10.43872494
In       8.52318307       9.84172412       6.95915001
I       14.94680513      13.18946293      11.98719576
I       19.14592692      16.33570885       8.89025409
I       17.40875652      12.38522457       8.57645169
I       16.68397532      17.13994717      12.30099813
I       14.76564533      16.07943047       8.57645551
I       19.32708685      13.44574176      12.30099453
Cs      12.78475622       2.46042552       1.73978785
Cs      21.30797564       7.38129831       5.21936201
K       17.04636601       4.92086196       3.47957499
In       8.52318307       0.00000015       0.00000005
I       14.94680513       3.34773895       5.02804581
I       19.14592692       6.49398488       1.93110414
I       17.40875652       2.54350060       1.61730174
I       16.68397532       7.29822319       5.34184818
I       14.76564533       6.23770649       1.61730556
I       19.32708685       3.60401779       5.34184458
Cs      17.04634771       4.92085651       8.69893780
Cs      25.56956713       9.84172930      12.17851196
K       21.30795750       7.38129295      10.43872494
In      12.78477456       2.46043114       6.95915001
I       19.20839662       5.80816995      11.98719576
I       23.40751841       8.95441587       8.89025409
I       21.67034801       5.00393159       8.57645169
I       20.94556681       9.75865419      12.30099813
I       19.02723682       8.69813749       8.57645551
I       23.58867834       6.06444878      12.30099453
Cs      17.04634771       9.84171850       1.73978785
Cs      25.56956713      14.76259129       5.21936201
K       21.30795750      12.30215494       3.47957499
In      12.78477456       7.38129313       0.00000005
I       19.20839662      10.72903194       5.02804581
I       23.40751841      13.87527786       1.93110414
I       21.67034801       9.92479358       1.61730174
I       20.94556681      14.67951617       5.34184818
I       19.02723682      13.61899948       1.61730556
I       23.58867834      10.98531077       5.34184458
Cs      21.30793920      12.30214949       8.69893780
Cs      29.83115862      17.22302228      12.17851196
K       25.56954899      14.76258593      10.43872494
In      17.04636605       9.84172412       6.95915001
I       23.46998811      13.18946293      11.98719576
I       27.66910990      16.33570885       8.89025409
I       25.93193950      12.38522457       8.57645169
I       25.20715830      17.13994717      12.30099813
I       23.28882831      16.07943047       8.57645551
I       27.85026983      13.44574176      12.30099453
