80
Lattice="18.404943024492294 0.10522695795347246 0.04379172645586189 9.28922865518097 14.910542584179426 0.4077599901447032 9.276982253365277 5.370883553823798 15.087709028485726" Properties=species:S:1:pos:R:3:spacegroup_kinds:I:1:forces:R:3 spacegroup="P 1" unit_cell=conventional occupancy="_JSON {\"0\": {\"Cs\": 1.0}, \"1\": {\"Cs\": 1.0}, \"2\": {\"K\": 1.0}, \"3\": {\"In\": 1.0}, \"4\": {\"I\": 1.0}, \"5\": {\"I\": 1.0}, \"6\": {\"I\": 1.0}, \"7\": {\"I\": 1.0}, \"8\": {\"I\": 1.0}, \"9\": {\"I\": 1.0}, \"10\": {\"Cs\": 1.0}, \"11\": {\"Cs\": 1.0}, \"12\": {\"K\": 1.0}, \"13\": {\"In\": 1.0}, \"14\": {\"I\": 1.0}, \"15\": {\"I\": 1.0}, \"16\": {\"I\": 1.0}, \"17\": {\"I\": 1.0}, \"18\": {\"I\": 1.0}, \"19\": {\"I\": 1.0}, \"20\": {\"Cs\": 1.0}, \"21\": {\"Cs\": 1.0}, \"22\": {\"K\": 1.0}, \"23\": {\"In\": 1.0}, \"24\": {\"I\": 1.0}, \"25\": {\"I\": 1.0}, \"26\": {\"I\": 1.0}, \"27\": {\"I\": 1.0}, \"28\": {\"I\": 1.0}, \"29\": {\"I\": 1.0}, \"30\": {\"Cs\": 1.0}, \"31\": {\"Cs\": 1.0}, \"32\": {\"K\": 1.0}, \"33\": {\"In\": 1.0}, \"34\": {\"I\": 1.0}, \"35\": {\"I\": 1.0}, \"36\": {\"I\": 1.0}, \"37\": {\"I\": 1.0}, \"38\": {\"I\": 1.0}, \"39\": {\"I\": 1.0}, \"40\": {\"Cs\": 1.0}, \"41\": {\"Cs\": 1.0}, \"42\": {\"K\": 1.0}, \"43\": {\"In\": 1.0}, \"44\": {\"I\": 1.0}, \"45\": {\"I\": 1.0}, \"46\": {\"I\": 1.0}, \"47\": {\"I\": 1.0}, \"48\": {\"I\": 1.0}, \"49\": {\"I\": 1.0}, \"50\": {\"Cs\": 1.0}, \"51\": {\"Cs\": 1.0}, \"52\": {\"K\": 1.0}, \"53\": {\"In\": 1.0}, \"54\": {\"I\": 1.0}, \"55\": {\"I\": 1.0}, \"56\": {\"I\": 1.0}, \"57\": {\"I\": 1.0}, \"58\": {\"I\": 1.0}, \"59\": {\"I\": 1.0}, \"60\": {\"Cs\": 1.0}, \"61\": {\"Cs\": 1.0}, \"62\": {\"K\": 1.0}, \"63\": {\"In\": 1.0}, \"64\": {\"I\": 1.0}, \"65\": {\"I\": 1.0}, \"66\": {\"I\": 1.0}, \"67\": {\"I\": 1.0}, \"68\": {\"I\": 1.0}, \"69\": {\"I\": 1.0}, \"70\": {\"Cs\": 1.0}, \"71\": {\"Cs\": 1.0}, \"72\": {\"K\": 1.0}, \"73\": {\"In\": 1.0}, \"74\": {\"I\": 1.0}, \"75\": {\"I\": 1.0}, \"76\": {\"I\": 1.0}, \"77\": {\"I\": 1.0}, \"78\": {\"I\": 1.0}, \"79\": {\"I\": 1.0}}" energy=-205.19140534810842 free_energy=-205.19140534810842 stress="-1.2689271386828095e-05 2.719025638241461e-06 9.103502361499141e-06 2.719025638241461e-06 9.494484693978368e-07 -8.46129055016061e-08 9.103502361499141e-06 -8.46129055016061e-08 9.71040726869253e-06" pbc="T T T"
Cs       4.63518290       2.73333962       1.89551912        0      -0.00048107      -0.00015028      -0.00019881
Cs      13.85080832       7.46047930       5.87427310        1      -0.00005832      -0.00016749       0.00013913
K        9.24270496       5.09660467       3.88478814        2       0.00012830       0.00006847       0.00006382
In      18.40487333       0.10511831       0.04389305        3       0.00004459       0.00023521      -0.00031081
I        6.33276556       3.67144429       5.30150230        4       0.00029643       0.00035887      -0.00014775
I       12.15280511       6.52178809       2.46857222        5       0.00005182      -0.00008824      -0.00036303
I        9.93161629       2.44288001       1.64412299        6       0.00024019       0.00007104       0.00001071
I        8.55392360       7.75047372       6.12529207        7      -0.00004924      -0.00010034       0.00015010
I        6.98985333       6.00905453       1.31650105        8      -0.00006199       0.00014887       0.00018542
I       11.49543372       4.18365310       6.45302374        9       0.00020919       0.00025918      -0.00018487
Cs       9.27327509       5.41860219       9.43898723       10      -0.00005326      -0.00010673       0.00013004
Cs      18.48944529      10.14597792      13.41806006       11       0.00004551      -0.00006169       0.00002430
K       13.88129739       7.78212298      11.42889696       12      -0.00013828      -0.00017695      -0.00025422
In      23.04333406       2.79057676       7.58756970       13      -0.00020695       0.00025043       0.00051178
I       10.97107763       6.35701152      12.84524239       14       0.00035832       0.00012488      -0.00008611
I       16.79124064       9.20735537      10.01212635       15      -0.00016743      -0.00012355      -0.00000986
I       14.57040187       5.12825898       9.18775254       16      -0.00002291       0.00044290       0.00038927
I       13.19216981      10.43589240      13.66929513       17       0.00012329       0.00020254       0.00017182
I       11.62813556       8.69454921       8.86066037       18       0.00019867      -0.00000417       0.00019341
I       16.13417345       6.86935019      13.99678387       19      -0.00017254       0.00014437      -0.00009804
Cs       9.27950831      10.18838030       2.09923567       20       0.00002808      -0.00007662      -0.00000180
Cs      18.49543815      14.91606036       6.07806147       21       0.00002446      -0.00003715       0.00015446
K       13.88755812      12.55193644       4.08890578       22      -0.00023933      -0.00005033      -0.00039825
In      23.04964683       7.56055366       0.24774276       23      -0.00070090      -0.00020902      -0.00016160
I       10.97763358      11.12698057       5.50549670       24       0.00011036       0.00004640      -0.00011276
I       16.79739024      13.97684065       2.67213865       25      -0.00033723      -0.00005686       0.00003964
I       14.57643554       9.89835079       1.84786217       26       0.00002370      -0.00014950       0.00010179
I       13.19851147      15.20568347       6.32922050       27      -0.00009094      -0.00010055       0.00006579
I       11.63418290      13.46456783       1.52085552       28       0.00053914      -0.00022401      -0.00009816
I       16.14032603      11.63906944       6.65650547       29      -0.00000602       0.00037577       0.00025730
Cs      13.91772580      12.87376119       9.64298735       30       0.00018288      -0.00000658       0.00011431
Cs      23.13433730      17.60133105      13.62189810       31      -0.00039848      -0.00015476       0.00010743
K       18.52561886      15.23702026      11.63245389       32       0.00043428       0.00034750       0.00017778
In      27.68817411      10.24589167       7.79158344       33      -0.00039194       0.00023563       0.00017659
I       15.61600245      13.81266041      13.04938714       34      -0.00016243      -0.00023414      -0.00032852
I       21.43582826      16.66231429      10.21590150       35      -0.00025674      -0.00017940       0.00043316
I       19.21500693      12.58378594       9.39174424       36      -0.00010893      -0.00036108      -0.00010988
I       17.83702302      17.89106372      13.87318306       37      -0.00014183      -0.00021512      -0.00002651
I       16.27276169      16.14995060       9.06459067       38      -0.00006295      -0.00017204      -0.00010701
I       20.77890101      14.32426939      14.20067371       39      -0.00024174       0.00059518      -0.00018858
Cs      13.83746317       2.78575675       1.91703077       40      -0.00020195      -0.00002620       0.00014650
Cs      23.05340616       7.51333711       5.89636727       41      -0.00001648      -0.00015486       0.00000323
K       18.44541939       5.14940742       3.90699830       42      -0.00031060      -0.00018658      -0.00039673
In       9.20223301       0.05263562       0.02193501       43       0.00058755      -0.00054968      -0.00038523
I       15.53518149       3.72411360       5.32343553       44       0.00028010       0.00024410      -0.00033209
I       21.35534576       6.57430258       2.49035561       45       0.00021261       0.00013557      -0.00031789
I       19.13414822       2.49563174       1.66579545       46       0.00021623       0.00010566       0.00023516
I       17.75619576       7.80304866       6.14732839       47       0.00008096       0.00022727       0.00019666
I       16.19222821       6.06166560       1.33850150       48      -0.00000506       0.00014266       0.00022245
I       20.69790000       4.23648667       6.47483829       49       0.00065512      -0.00005689       0.00007626
Cs      18.47610533       5.47125953       9.46117230       50      -0.00032698      -0.00017266      -0.00009918
Cs      27.69165574      10.19853265      13.43966133       51       0.00003693      -0.00003811       0.00024135
K       23.08351586       7.83452395      11.45054128       52       0.00024851       0.00011192       0.00011830
In      13.84089633       2.73789322       7.56583322       53       0.00012903       0.00028973      -0.00007008
I       20.17363987       6.40963703      12.86710053       54       0.00007448       0.00010634       0.00037425
I       25.99352617       9.25995034      10.03409759       55       0.00009888      -0.00014836      -0.00047126
I       23.77288653       5.18090342       9.20976857       56      -0.00024492      -0.00005733      -0.00006877
I       22.39472765      10.48855340      13.69121861       57       0.00006950      -0.00027336      -0.00000109
I       20.83082258       8.74708098       8.88249598       58      -0.00070793       0.00049750      -0.00015617
I       25.33659160       6.92180440      14.01873139       59      -0.00014871       0.00016737      -0.00028217
Cs      18.48180868      10.24105052       2.12122682       60       0.00012119      -0.00013536      -0.00006799
Cs      27.69833663      14.96862189       6.10003236       61      -0.00041570      -0.00011962       0.00005391
K       23.08978282      12.60438942       4.11054417       62       0.00013590       0.00024955       0.00003577
In      13.84712283       7.50785936       0.22589241       63       0.00024783      -0.00000245      -0.00013408
I       20.18011847      11.17971967       5.52753542       64      -0.00011302      -0.00014512      -0.00023307
I       25.99984553      14.02940097       2.69397297       65      -0.00029340      -0.00005039       0.00039944
I       23.77888536       9.95090544       1.86975260       66       0.00008416      -0.00008630       0.00017079
I       22.40093335      15.25838087       6.35125389       67      -0.00017310      -0.00060246      -0.00027077
I       20.83657381      13.51700445       1.54251530       68       0.00018405       0.00007013      -0.00003661
I       25.34288339      11.69148757       6.67860274       69       0.00001982       0.00044865      -0.00018042
Cs      23.12046606      12.92632531       9.66468731       70       0.00010059       0.00000349       0.00022534
Cs      32.33643490      17.65394797      13.64380743       71      -0.00007482      -0.00006168       0.00005973
K       27.72839899      15.28988080      11.65463061       72      -0.00007677       0.00002482      -0.00023206
In      18.48542945      10.19341674       7.76962669       73       0.00082525      -0.00039191       0.00021908
I       24.81863247      13.86508927      13.07114530       74      -0.00037711      -0.00024631       0.00011811
I       30.63813367      16.71499253      10.23778989       75       0.00016952       0.00004891      -0.00017393
I       28.41744276      12.63643839       9.41369498       76      -0.00010965      -0.00042663      -0.00015306
I       27.03946278      17.94358190      13.89492579       77      -0.00005428       0.00054608       0.00042060
I       25.47534145      16.20257021       9.08653432       78       0.00008524      -0.00019663      -0.00012706
I       29.98117429      14.37713198      14.22240807       79       0.00049927       0.00000849       0.00046128
