20
Lattice="19.737897426115055 0.0 0.0 4.934474356570317 8.546760294129687 0.0 4.934474356650076 2.848920098105232 8.057963102743097" Properties=species:S:1:pos:R:3 pbc="T T T"
Cs       4.93445610       2.84891462       2.01449103
Cs      14.80344126       8.54676562       6.04347197
K        9.86894878       5.69784018       4.02898158
In       0.00000010       0.00000015       0.00000006
I        7.40926358       3.91679930       5.87149269
I       12.32863402       7.47888097       2.18647042
I       10.23133929       2.90464306       1.87266802
I        9.50655809       8.49103716       6.18529506
I        7.22810377       7.22260259       1.87267184
I       12.50979394       4.17307813       6.18529146
Cs      14.80340482       2.84891462       2.01449103
Cs      24.67238997       8.54676562       6.04347197
K       19.73789750       5.69784018       4.02898158
In       9.86894881       0.00000015       0.00000006
I       17.27821229       3.91679930       5.87149269
I       22.19758273       7.47888097       2.18647042
I       20.10028800       2.90464306       1.87266802
I       19.37550681       8.49103716       6.18529506
I       17.09705248       7.22260259       1.87267184
I       22.37874266       4.17307813       6.18529146
