20
Lattice="18.44381428615441 0.055086422747189515 0.09250895376398734 4.645881780063392 7.986039323962139 0.03816451508872256 4.642495529574367 2.676122843838197 6.967945527773352" Properties=species:S:1:pos:R:3:spacegroup_kinds:I:1:forces:R:3 spacegroup="P 1" unit_cell=conventional occupancy="_JSON {\"0\": {\"Cs\": 1.0}, \"1\": {\"Cs\": 1.0}, \"2\": {\"K\": 1.0}, \"3\": {\"In\": 1.0}, \"4\": {\"I\": 1.0}, \"5\": {\"I\": 1.0}, \"6\": {\"I\": 1.0}, \"7\": {\"I\": 1.0}, \"8\": {\"I\": 1.0}, \"9\": {\"I\": 1.0}, \"10\": {\"Cs\": 1.0}, \"11\": {\"Cs\": 1.0}, \"12\": {\"K\": 1.0}, \"13\": {\"In\": 1.0}, \"14\": {\"I\": 1.0}, \"15\": {\"I\": 1.0}, \"16\": {\"I\": 1.0}, \"17\": {\"I\": 1.0}, \"18\": {\"I\": 1.0}, \"19\": {\"I\": 1.0}}" energy=-51.29789120429777 free_energy=-51.29789120429777 stress="5.383722472959655e-07 -7.722261136760099e-07 3.2287468795052043e-06 -7.722261136760099e-07 2.272187749039548e-07 1.0098638873859896e-06 3.2287468795052043e-06 1.0098638873859896e-06 -3.181399145830296e-06" pbc="T T T"
Cs       4.63140850       2.68965408       1.95284304        0      -0.00018738       0.00054988      -0.00012842
Cs      13.87974823       7.99857448       5.09981026        1      -0.00048731       0.00026451       0.00001304
K        9.25448652       5.34544428       3.52544666        2       0.00041303      -0.00035579       0.00042343
In      18.44371029       0.05551075       0.09224986        3       0.00007769      -0.00051500       0.00047633
I        6.99244320       3.23032752       5.23405469        4      -0.00014639      -0.00017057      -0.00039295
I       11.51859938       7.45955455       1.81926781        5      -0.00021988       0.00011668      -0.00004153
I        9.94947110       2.36522498       1.74618944        6       0.00006155      -0.00015366      -0.00015428
I        8.56072188       8.32493310       5.30606295        7       0.00008826       0.00037324       0.00019660
I        6.33571964       6.21153662       1.72765039        8      -0.00008837       0.00007774      -0.00009257
I       12.17377852       4.47785759       5.32436293        9       0.00037203       0.00007043       0.00026916
Cs      13.85329871       2.71702173       1.99914363       10      -0.00021430       0.00064857      -0.00009654
Cs      23.10161422       8.02625721       5.14595954       11      -0.00031260       0.00019099      -0.00001173
K       18.47637682       5.37294785       3.57169277       12       0.00034121      -0.00024050       0.00045920
In       9.22191002       0.02797478       0.04628117       13      -0.00011652       0.00012252      -0.00035515
I       16.21450433       3.25779571       5.28034053       14      -0.00034027       0.00006334      -0.00021108
I       20.74048542       7.48712221       1.86557452       15       0.00001473      -0.00005400      -0.00041916
I       19.17145353       2.39259774       1.79244121       16      -0.00003500       0.00004270      -0.00010955
I       17.78253043       8.35288912       5.35246613       17       0.00015173      -0.00065089      -0.00041389
I       15.55758556       6.23906870       1.77379044       18       0.00031355      -0.00017798       0.00043887
I       21.39560050       4.50557398       5.37070674       19       0.00031424      -0.00020222       0.00015024
