80
Lattice="18.104358697939986 -4.256935283075341 -0.0486636215851636 -5.365482046230374 17.806377308592687 -0.051762009672166924 0.06615559966107853 0.07090723634372392 17.657289301287033" Properties=species:S:1:pos:R:3:spacegroup_kinds:I:1:forces:R:3 spacegroup="P 1" unit_cell=conventional occupancy="_JSON {\"0\": {\"Cs\": 1.0}, \"1\": {\"Cs\": 1.0}, \"2\": {\"K\": 1.0}, \"3\": {\"In\": 1.0}, \"4\": {\"I\": 1.0}, \"5\": {\"I\": 1.0}, \"6\": {\"I\": 1.0}, \"7\": {\"I\": 1.0}, \"8\": {\"I\": 1.0}, \"9\": {\"I\": 1.0}, \"10\": {\"Cs\": 1.0}, \"11\": {\"Cs\": 1.0}, \"12\": {\"K\": 1.0}, \"13\": {\"In\": 1.0}, \"14\": {\"I\": 1.0}, \"15\": {\"I\": 1.0}, \"16\": {\"I\": 1.0}, \"17\": {\"I\": 1.0}, \"18\": {\"I\": 1.0}, \"19\": {\"I\": 1.0}, \"20\": {\"Cs\": 1.0}, \"21\": {\"Cs\": 1.0}, \"22\": {\"K\": 1.0}, \"23\": {\"In\": 1.0}, \"24\": {\"I\": 1.0}, \"25\": {\"I\": 1.0}, \"26\": {\"I\": 1.0}, \"27\": {\"I\": 1.0}, \"28\": {\"I\": 1.0}, \"29\": {\"I\": 1.0}, \"30\": {\"Cs\": 1.0}, \"31\": {\"Cs\": 1.0}, \"32\": {\"K\": 1.0}, \"33\": {\"In\": 1.0}, \"34\": {\"I\": 1.0}, \"35\": {\"I\": 1.0}, \"36\": {\"I\": 1.0}, \"37\": {\"I\": 1.0}, \"38\": {\"I\": 1.0}, \"39\": {\"I\": 1.0}, \"40\": {\"Cs\": 1.0}, \"41\": {\"Cs\": 1.0}, \"42\": {\"K\": 1.0}, \"43\": {\"In\": 1.0}, \"44\": {\"I\": 1.0}, \"45\": {\"I\": 1.0}, \"46\": {\"I\": 1.0}, \"47\": {\"I\": 1.0}, \"48\": {\"I\": 1.0}, \"49\": {\"I\": 1.0}, \"50\": {\"Cs\": 1.0}, \"51\": {\"Cs\": 1.0}, \"52\": {\"K\": 1.0}, \"53\": {\"In\": 1.0}, \"54\": {\"I\": 1.0}, \"55\": {\"I\": 1.0}, \"56\": {\"I\": 1.0}, \"57\": {\"I\": 1.0}, \"58\": {\"I\": 1.0}, \"59\": {\"I\": 1.0}, \"60\": {\"Cs\": 1.0}, \"61\": {\"Cs\": 1.0}, \"62\": {\"K\": 1.0}, \"63\": {\"In\": 1.0}, \"64\": {\"I\": 1.0}, \"65\": {\"I\": 1.0}, \"66\": {\"I\": 1.0}, \"67\": {\"I\": 1.0}, \"68\": {\"I\": 1.0}, \"69\": {\"I\": 1.0}, \"70\": {\"Cs\": 1.0}, \"71\": {\"Cs\": 1.0}, \"72\": {\"K\": 1.0}, \"73\": {\"In\": 1.0}, \"74\": {\"I\": 1.0}, \"75\": {\"I\": 1.0}, \"76\": {\"I\": 1.0}, \"77\": {\"I\": 1.0}, \"78\": {\"I\": 1.0}, \"79\": {\"I\": 1.0}}" energy=-206.35053177893482 free_energy=-206.35053177893482 stress="-1.4905984432006982e-07 2.651574297230238e-07 1.3879765803006241e-06 2.651574297230238e-07 -1.8756775104378185e-06 6.255669554064762e-08 1.3879765803006241e-06 6.255669554064762e-08 2.8132842620616554e-07" pbc="T T T"
Cs       1.90958692       5.15259917      17.64411182        0       0.00034086      -0.00027280       0.00016883
Cs       5.82133145       1.47498219      17.61750333        1       0.00005727      -0.00006889       0.00015183
K        0.62996952      -0.12681637       4.41231446        2       0.00058747       0.00019713      -0.00009422
In       0.61500318      -0.14397478      -0.00223402        3      -0.00049381      -0.00045778      -0.00005570
I        2.29747785       1.63323956       1.75144997        4      -0.00019235      -0.00003976      -0.00026805
I        5.33483090       4.88776869       7.02379018        5      -0.00033645      -0.00000220       0.00021966
I        3.01285451      -0.68223194       7.05358963        6      -0.00029909      -0.00003424       0.00032045
I        7.30226995      -1.69939565       1.74710976        7      -0.00003068      -0.00009653      -0.00029899
I       -1.36720866       6.42833556       1.74657766        8       0.00015001       0.00029373      -0.00012365
I       -0.05392281       2.22141509       7.05347824        9       0.00021625      -0.00014032       0.00014842
Cs       1.87672275       5.11722759       8.81578871       10       0.00007405      -0.00027310      -0.00019600
Cs       5.78815141       1.43958605       8.78950789       11       0.00006494      -0.00003891      -0.00013265
K        0.66413708      -0.09280585      13.24091400       12       0.00005969       0.00068875      -0.00002237
In       0.64798505      -0.10859675       8.82639007       13      -0.00009648      -0.00007402      -0.00004843
I        2.33058207       1.66829389      10.58026766       14      -0.00010587       0.00029537      -0.00030981
I        5.36787248       4.92326982      15.85252072       15      -0.00029086      -0.00019186      -0.00001088
I        3.04600408      -0.64725833      15.88243903       16       0.00006735       0.00008894       0.00018773
I        7.33505447      -1.66405974      10.57595016       17       0.00021234      -0.00011139      -0.00022064
I       -1.33410245       6.46342012      10.57488005       18       0.00011951       0.00058353       0.00009823
I       -0.02042400       2.25656983      15.88157441       19       0.00014907      -0.00026721       0.00040845
Cs      -0.77265910      14.05566379      17.61842266       20       0.00008250       0.00015814      -0.00007806
Cs       3.13841705      10.37758227      17.59162408       21       0.00037813       0.00024303      -0.00002477
K       -2.05145223       8.77753950       4.38746293       22       0.00014067      -0.00050082      -0.00004623
In      -2.06826063       8.75822261      -0.02677176       23       0.00027548       0.00033028       0.00007679
I       -0.38492002      10.53598558       1.72574705       24      -0.00004146      -0.00009982       0.00045879
I        2.65154393      13.79123677       6.99777532       25      -0.00010154       0.00006981       0.00011685
I        0.33004873       8.22036966       7.02919930       26      -0.00030002       0.00008908      -0.00012746
I        4.61979965       7.20341361       1.72099406       27      -0.00039555       0.00015182      -0.00013385
I       -4.04901219      15.33237551       1.71928634       28      -0.00014762       0.00007356       0.00008299
I       -2.73575951      11.12437271       7.02886509       29      -0.00032424      -0.00031429      -0.00021265
Cs      -0.80569378      14.02043137       8.79015865       30       0.00008404       0.00004005      -0.00035573
Cs       3.10597779      10.34284830       8.76300344       31      -0.00026100      -0.00014118      -0.00004462
K       -2.01817422       8.81206183      13.21577559       32      -0.00022653      -0.00027818       0.00016971
In      -2.03521543       8.79379228       8.80204895       33       0.00065952       0.00013545      -0.00062771
I       -0.35193076      10.57124103      10.55475917       34       0.00005946       0.00002620       0.00028554
I        2.68463570      13.82639984      15.82657184       35       0.00028124       0.00025057       0.00006298
I        0.36279198       8.25500164      15.85782359       36       0.00012267       0.00044466      -0.00062246
I        4.65244262       7.23906355      10.54940257       37      -0.00009226       0.00024822       0.00016592
I       -4.01583732      15.36753284      10.54753602       38      -0.00022606      -0.00025339       0.00028824
I       -2.70291941      11.15940893      15.85711591       39       0.00007484      -0.00031686      -0.00027850
Cs      10.96230692       3.02422943      17.61907386       40      -0.00021624      -0.00006031       0.00017645
Cs      14.87358309      -0.65382605      17.59217925       41       0.00011785       0.00012975       0.00015833
K        9.68374352      -2.25410023       4.38846353       42      -0.00021281      -0.00065538      -0.00048149
In       9.66707058      -2.27333318      -0.02604560       43      -0.00068098      -0.00005805       0.00059108
I       11.35014253      -0.49565872       1.72663060       44      -0.00000482       0.00024481       0.00024517
I       14.38665781       2.75979027       6.99980444       45      -0.00024656       0.00000074      -0.00031664
I       12.06452118      -2.81109301       7.02926689       46       0.00041934       0.00002737       0.00047040
I       16.35386304      -3.82784420       1.72162731       47       0.00024721      -0.00002821       0.00002645
I        7.68639650       4.30042364       1.72127768       48       0.00017830      -0.00076356      -0.00028160
I        8.99794003       0.09241848       7.02978271       49       0.00002945       0.00029500       0.00004763
Cs      10.92913425       2.98849967       8.79111297       50      -0.00028024      -0.00000525      -0.00019502
Cs      14.83999053      -0.68940727       8.76403330       51       0.00012941       0.00017843      -0.00000406
K        9.71687125      -2.21937836      13.21733425       52      -0.00038391      -0.00032614      -0.00030562
In       9.69980686      -2.23768844       8.80258227       53      -0.00014061      -0.00008499       0.00028597
I       11.38266869      -0.46028090      10.55575526       54       0.00034380       0.00043902      -0.00015049
I       14.41958091       2.79497278      15.82855027       55      -0.00014077       0.00018665      -0.00061250
I       12.09787142      -2.77574655      15.85829613       56       0.00035450      -0.00024303      -0.00020730
I       16.38720387      -3.79259651      10.55063271       57       0.00007896      -0.00000245       0.00001222
I        7.71920536       4.33613893      10.54994794       58       0.00019702      -0.00071650      -0.00004294
I        9.03114065       0.12786604      15.85836184       59       0.00024637      -0.00032023       0.00001195
Cs       8.27914367      11.92669943      17.59275185       60      -0.00002971       0.00012518       0.00012401
Cs      12.19168658       8.25036477      17.56633348       61      -0.00065415      -0.00030531       0.00014671
K        7.00086266       6.64694005       4.36223088       62       0.00022398       0.00042698       0.00022012
In       6.98469696       6.63013206      -0.05202452       63      -0.00004061       0.00017395      -0.00018050
I        8.66753842       8.40760633       1.70095383       64      -0.00002841       0.00013501      -0.00001831
I       11.70355707      11.66331436       6.97295994       65       0.00021527      -0.00018916       0.00001117
I        9.38257259       6.09208048       7.00383889       66      -0.00000541      -0.00004047       0.00014725
I       13.67133424       5.07596164       1.69700085       67      -0.00016707      -0.00022904       0.00016208
I        5.00325998      13.20314432       1.69557469       68      -0.00017544       0.00049798      -0.00037591
I        6.31582223       8.99512084       7.00322476       69      -0.00031384       0.00065195      -0.00014001
Cs       8.24622361      11.89170109       8.76415050       70      -0.00007037       0.00008575       0.00006339
Cs      12.15812327       8.21479238       8.73764787       71      -0.00043511      -0.00033821       0.00018619
K        7.03353933       6.68253084      13.19080992       72       0.00023941       0.00048265       0.00026270
In       7.01753527       6.66586677       8.77662855       73       0.00027261      -0.00041833      -0.00013335
I        8.70014596       8.44352673      10.52976891       74       0.00010605      -0.00013360      -0.00019215
I       11.73679723      11.69847219      15.80156746       75       0.00025093       0.00012842       0.00032449
I        9.41572095       6.12791267      15.83219893       76      -0.00004483      -0.00022290       0.00016630
I       13.70392465       5.11084237      10.52556115       77       0.00060942       0.00019995       0.00040210
I        5.03665368      13.23902553      10.52401159       78      -0.00027885      -0.00009051       0.00001237
I        6.34843407       9.03045617      15.83181154       79      -0.00000462       0.00038729       0.00030539
