80
Lattice="21.677086875509655 0.0 0.0 -1.670823777304553 18.523125399268995 0.0 0.0 0.0 17.657437118237404" Properties=species:S:1:pos:R:3 pbc="T T T"
Cs       3.97603486       6.17437601      -0.00002748
Cs       7.86735330       3.08718844      -0.00002748
K        0.92013325       0.00000088       4.41436320
In       0.92013884       0.00000088       0.00001745
I        3.54296429       2.42838588       1.76634824
I        8.30044660       6.83317857       7.06239792
I        2.84186991      -0.00000000       7.06238412
I        7.99667352      -0.00000000       1.76633444
I        0.30376021       6.83319043       1.76634144
I        0.70108152       2.42839774       7.06239113
Cs       3.97603486       6.17437601       8.82869108
Cs       7.86735330       3.08718844       8.82869108
K        0.92013325       0.00000088      13.24308176
In       0.92013884       0.00000088       8.82873601
I        3.54296429       2.42838588      10.59506679
I        8.30044660       6.83317857      15.89111648
I        2.84186991      -0.00000000      15.89110268
I        7.99667352      -0.00000000      10.59505299
I        0.30376021       6.83319043      10.59506000
I        0.70108152       2.42839774      15.89110969
Cs       3.14062297      15.43593871      -0.00002748
Cs       7.03194142      12.34875114      -0.00002748
K        0.08472136       9.26156358       4.41436320
In       0.08472695       9.26156358       0.00001745
I        2.70755240      11.68994858       1.76634824
I        7.46503471      16.09474127       7.06239792
I        2.00645802       9.26156270       7.06238412
I        7.16126164       9.26156270       1.76633444
I       -0.53165168      16.09475313       1.76634144
I       -0.13433037      11.68996044       7.06239113
Cs       3.14062297      15.43593871       8.82869108
Cs       7.03194142      12.34875114       8.82869108
K        0.08472136       9.26156358      13.24308176
In       0.08472695       9.26156358       8.82873601
I        2.70755240      11.68994858      10.59506679
I        7.46503471      16.09474127      15.89111648
I        2.00645802       9.26156270      15.89110268
I        7.16126164       9.26156270      10.59505299
I       -0.53165168      16.09475313      10.59506000
I       -0.13433037      11.68996044      15.89110969
Cs      14.81457830       6.17437601      -0.00002748
Cs      18.70589674       3.08718844      -0.00002748
K       11.75867669       0.00000088       4.41436320
In      11.75868228       0.00000088       0.00001745
I       14.38150773       2.42838588       1.76634824
I       19.13899003       6.83317857       7.06239792
I       13.68041335      -0.00000000       7.06238412
I       18.83521696      -0.00000000       1.76633444
I       11.14230365       6.83319043       1.76634144
I       11.53962496       2.42839774       7.06239113
Cs      14.81457830       6.17437601       8.82869108
Cs      18.70589674       3.08718844       8.82869108
K       11.75867669       0.00000088      13.24308176
In      11.75868228       0.00000088       8.82873601
I       14.38150773       2.42838588      10.59506679
I       19.13899003       6.83317857      15.89111648
I       13.68041335      -0.00000000      15.89110268
I       18.83521696      -0.00000000      10.59505299
I       11.14230365       6.83319043      10.59506000
I       11.53962496       2.42839774      15.89110969
Cs      13.97916641      15.43593871      -0.00002748
Cs      17.87048485      12.34875114      -0.00002748
K       10.92326480       9.26156358       4.41436320
In      10.92327039       9.26156358       0.00001745
I       13.54609584      11.68994858       1.76634824
I       18.30357815      16.09474127       7.06239792
I       12.84500146       9.26156270       7.06238412
I       17.99980507       9.26156270       1.76633444
I       10.30689176      16.09475313       1.76634144
I       10.70421307      11.68996044       7.06239113
Cs      13.97916641      15.43593871       8.82869108
Cs      17.87048485      12.34875114       8.82869108
K       10.92326480       9.26156358      13.24308176
In      10.92327039       9.26156358       8.82873601
I       13.54609584      11.68994858      10.59506679
I       18.30357815      16.09474127      15.89111648
I       12.84500146       9.26156270      15.89110268
I       17.99980507       9.26156270      10.59505299
I       10.30689176      16.09475313      10.59506000
I       10.70421307      11.68996044      15.89110969
