80
Lattice="20.511149752323995 2.8951500903083605 0.82944529972687 -4.198097018358932 18.699083793343252 -0.7016666738580233 -4.7207928416922345 -4.361143726214214 10.95717090415869" Properties=species:S:1:pos:R:3:spacegroup_kinds:I:1:forces:R:3 spacegroup="P 1" unit_cell=conventional occupancy="_JSON {\"0\": {\"Cs\": 1.0}, \"1\": {\"Cs\": 1.0}, \"2\": {\"Cs\": 1.0}, \"3\": {\"Cs\": 1.0}, \"4\": {\"Pb\": 1.0}, \"5\": {\"Pb\": 1.0}, \"6\": {\"Pb\": 1.0}, \"7\": {\"Pb\": 1.0}, \"8\": {\"I\": 1.0}, \"9\": {\"I\": 1.0}, \"10\": {\"I\": 1.0}, \"11\": {\"I\": 1.0}, \"12\": {\"I\": 1.0}, \"13\": {\"I\": 1.0}, \"14\": {\"I\": 1.0}, \"15\": {\"I\": 1.0}, \"16\": {\"I\": 1.0}, \"17\": {\"I\": 1.0}, \"18\": {\"I\": 1.0}, \"19\": {\"I\": 1.0}, \"20\": {\"Cs\": 1.0}, \"21\": {\"Cs\": 1.0}, \"22\": {\"Cs\": 1.0}, \"23\": {\"Cs\": 1.0}, \"24\": {\"Pb\": 1.0}, \"25\": {\"Pb\": 1.0}, \"26\": {\"Pb\": 1.0}, \"27\": {\"Pb\": 1.0}, \"28\": {\"I\": 1.0}, \"29\": {\"I\": 1.0}, \"30\": {\"I\": 1.0}, \"31\": {\"I\": 1.0}, \"32\": {\"I\": 1.0}, \"33\": {\"I\": 1.0}, \"34\": {\"I\": 1.0}, \"35\": {\"I\": 1.0}, \"36\": {\"I\": 1.0}, \"37\": {\"I\": 1.0}, \"38\": {\"I\": 1.0}, \"39\": {\"I\": 1.0}, \"40\": {\"Cs\": 1.0}, \"41\": {\"Cs\": 1.0}, \"42\": {\"Cs\": 1.0}, \"43\": {\"Cs\": 1.0}, \"44\": {\"Pb\": 1.0}, \"45\": {\"Pb\": 1.0}, \"46\": {\"Pb\": 1.0}, \"47\": {\"Pb\": 1.0}, \"48\": {\"I\": 1.0}, \"49\": {\"I\": 1.0}, \"50\": {\"I\": 1.0}, \"51\": {\"I\": 1.0}, \"52\": {\"I\": 1.0}, \"53\": {\"I\": 1.0}, \"54\": {\"I\": 1.0}, \"55\": {\"I\": 1.0}, \"56\": {\"I\": 1.0}, \"57\": {\"I\": 1.0}, \"58\": {\"I\": 1.0}, \"59\": {\"I\": 1.0}, \"60\": {\"Cs\": 1.0}, \"61\": {\"Cs\": 1.0}, \"62\": {\"Cs\": 1.0}, \"63\": {\"Cs\": 1.0}, \"64\": {\"Pb\": 1.0}, \"65\": {\"Pb\": 1.0}, \"66\": {\"Pb\": 1.0}, \"67\": {\"Pb\": 1.0}, \"68\": {\"I\": 1.0}, \"69\": {\"I\": 1.0}, \"70\": {\"I\": 1.0}, \"71\": {\"I\": 1.0}, \"72\": {\"I\": 1.0}, \"73\": {\"I\": 1.0}, \"74\": {\"I\": 1.0}, \"75\": {\"I\": 1.0}, \"76\": {\"I\": 1.0}, \"77\": {\"I\": 1.0}, \"78\": {\"I\": 1.0}, \"79\": {\"I\": 1.0}}" energy=-223.00379747237804 free_energy=-223.00379747237804 stress="1.6584822461156228e-06 1.2962167367743388e-06 8.333156744879127e-08 1.2962167367743388e-06 9.334625880319148e-07 3.3276598990793117e-07 8.333156744879127e-08 3.3276598990793117e-07 -1.1179065298002687e-06" pbc="T T T"
Cs       0.75752633       9.66469267       1.42778031        0       0.00006426      -0.00020840      -0.00014063
Cs      -1.21424457       4.86112667       1.77966148        1       0.00003477       0.00022840       0.00018471
Cs       4.70694700      -0.93802146       8.50411417        2      -0.00011732       0.00014136      -0.00004588
Cs       8.00407241       5.03214025       7.39616957        3      -0.00029525      -0.00008315      -0.00022898
Pb      -7.23228640      -4.95806026      12.97265237        4       0.00046156      -0.00042385      -0.00011847
Pb       3.90631627       4.89444308      -0.33053896        5      -0.00024664      -0.00024807       0.00029321
Pb      -0.36554157      -1.10167702       6.23899047        6      -0.00013619       0.00016732      -0.00000132
Pb       2.56335145       3.06791395       5.47164651        7       0.00058346      -0.00040419      -0.00002150
I       -2.29794164       8.11998943      -0.11385574        8      -0.00037997       0.00011598       0.00044318
I        6.89823858       3.43496385       0.68835116        9       0.00042532      -0.00026498       0.00007289
I        8.24410346      -1.50439832       4.70830360       10      -0.00006412      -0.00040018       0.00005699
I        6.62209920       2.47254071       9.87917223       11       0.00011340      -0.00007226       0.00010929
I       -0.72630395       3.70845074      11.24364813       12       0.00024256      -0.00022329       0.00025046
I        2.56257288       4.25514736       2.48482175       13      -0.00002956      -0.00011118       0.00007286
I        0.01554180       6.61279963       5.43992904       14      -0.00023401       0.00014452       0.00002935
I       -0.54413408       1.32697770       3.96498262       15      -0.00043808       0.00019928      -0.00000531
I       -3.42340793       6.90312301       8.68537744       16      -0.00015281      -0.00039864       0.00033540
I        4.84842333       1.14422808       5.02223488       17      -0.00048253       0.00034134       0.00003248
I        4.13568550       5.07692583       6.98200044       18      -0.00000389       0.00026671       0.00023385
I        1.11999777       1.35800199       7.98588190       19       0.00001589      -0.00009978       0.00009043
Cs      -1.34128159      19.13855125       1.03813966       20       0.00018525      -0.00034989      -0.00004148
Cs      -3.29859029      14.21024773       1.41853924       21       0.00030373      -0.00007409      -0.00005478
Cs       2.61491359       8.42589517       8.15523683       22      -0.00012027       0.00023127      -0.00008675
Cs       5.89372326      14.37696499       7.02271277       23       0.00012315      -0.00016887       0.00015110
Pb      -9.35689900       4.37961564      12.62882188       24       0.00045314      -0.00036368      -0.00048890
Pb       1.80267362      14.20729768      -0.68066628       25      -0.00022147      -0.00017477       0.00002419
Pb      -2.48979164       8.24762405       5.90834690       26       0.00011991       0.00007898      -0.00025323
Pb       0.47142939      12.37753244       5.11904356       27       0.00018323      -0.00017609       0.00011112
I       -4.35953733      17.48386912      -0.45692836       28      -0.00014932       0.00026009       0.00035630
I        4.82056543      12.78810758       0.33112303       29       0.00009592       0.00012204       0.00011010
I        6.16801032       7.84504470       4.34061062       30      -0.00033682       0.00024319      -0.00007170
I        4.51611585      11.85922175       9.55508175       31      -0.00010794       0.00007219       0.00015790
I       -2.87272883      13.02908483      10.94002380       32       0.00019793       0.00024234      -0.00028882
I        0.45315631      13.48729912       2.10440081       33      -0.00018248       0.00013427       0.00011189
I       -2.06798256      15.93988807       5.10007486       34       0.00012948       0.00025982       0.00032441
I       -2.65949850      10.65671401       3.62771809       35      -0.00001204       0.00004332      -0.00010702
I       -1.34036418      -2.41566850       9.00553977       36      -0.00016565      -0.00017092      -0.00003117
I        2.77779376      10.47553725       4.67787931       37       0.00015889      -0.00037006      -0.00017737
I        2.02552291      14.41065889       6.61722423       38      -0.00002937      -0.00056667      -0.00006841
I       -0.98032979      10.70158372       7.64596344       39      -0.00015103       0.00037237      -0.00009975
Cs      11.01680298      11.23064008       1.80660606       40      -0.00021076      -0.00001532       0.00002436
Cs       9.05572579       6.30774496       2.18509441       41      -0.00016774      -0.00046463      -0.00052406
Cs      14.96932649       0.52478033       8.91887625       42       0.00002031      -0.00001533      -0.00015663
Cs      -2.26369189       3.57888243       6.95585880       43       0.00000332       0.00025431       0.00021330
Pb       2.99486217      -3.52224870      13.39460617       44       0.00007188       0.00031211      -0.00071647
Pb      14.15738508       6.30518495       0.08476039       45      -0.00005269       0.00044452      -0.00035893
Pb       9.86343434       0.34704977       6.67304953       46       0.00003301       0.00028250       0.00060002
Pb      12.82587652       4.47439190       5.88337216       47       0.00004683      -0.00010313       0.00000679
I        7.99639357       9.58196896       0.31054116       48      -0.00042798       0.00039441      -0.00014998
I       17.17487556       4.88566598       1.09513596       49       0.00022905       0.00021947       0.00023340
I       18.52252421      -0.05642251       5.10606695       50       0.00029557       0.00006674      -0.00011532
I       16.87116012       3.95712927      10.31903916       51      -0.00011330       0.00028339       0.00002737
I        9.48610045       5.12772284      11.70222560       52      -0.00026895      -0.00051112       0.00007184
I       12.80730377       5.58684847       2.86984573       53       0.00010360      -0.00022874       0.00025701
I       10.28511820       8.04211277       5.86706186       54       0.00006599       0.00002325      -0.00012023
I        9.69303286       2.75627693       4.39340427       55       0.00032877      -0.00015664      -0.00047741
I        6.81499673       8.38036870       9.07273838       56      -0.00010625       0.00031499      -0.00046853
I       15.13208139       2.57254066       5.44101711       57       0.00001721      -0.00007726       0.00000691
I       14.37922473       6.50757733       7.38200217       58      -0.00004930      -0.00014258      -0.00025831
I       11.37443566       2.79972620       8.41103441       59       0.00022028       0.00005515      -0.00009417
Cs       8.91202307      20.46221439       1.48961836       60       0.00009915       0.00018160      -0.00003647
Cs       6.94113694      15.65885943       1.84610798       61       0.00018519      -0.00017391       0.00010900
Cs      12.86316419       9.85749395       8.57065829       62       0.00031525      -0.00007659      -0.00013774
Cs      -4.35357475      12.93245705       6.62774967       63       0.00032549      -0.00016542      -0.00020008
Pb       0.92480501       5.83890986      13.03733582       64       0.00020005      -0.00021138      -0.00013416
Pb      12.06162714      15.68925316      -0.26501663       65       0.00027910      -0.00022408       0.00015741
Pb       7.78757721       9.69630188       6.30486118       66       0.00011567       0.00012629       0.00023383
Pb      10.72155328      13.86018126       5.53626060       67      -0.00008640       0.00006259      -0.00008971
I        5.85609409      18.91503469      -0.04836261       68      -0.00042642       0.00028734      -0.00024393
I       15.05557925      14.23142743       0.75396926       69      -0.00029407       0.00021030      -0.00023350
I       16.40378818       9.29076874       4.77149641       70       0.00017044       0.00018974       0.00032277
I       14.77857750      13.26873449       9.94274285       71       0.00009171      -0.00018003       0.00000148
I        7.42895272      14.50379435      11.31079211       72       0.00008785       0.00012367       0.00010632
I       10.71790343      15.04576809       2.54896457       73      -0.00033792       0.00045438       0.00010521
I        8.17024789      17.41118740       5.50188892       74      -0.00015258       0.00014801       0.00005670
I        7.61144175      12.12359115       4.03069993       75      -0.00005184       0.00005462       0.00011793
I        8.93036471      -0.99820364       9.45056236       76      -0.00015630      -0.00037052       0.00023613
I       13.00898993      11.93910217       5.08834913       77      -0.00010210       0.00045250       0.00008364
I       12.29015078      15.87370977       7.04459727       78      -0.00013561       0.00010942      -0.00001671
I        9.27539601      12.15454086       8.05150530       79      -0.00000057      -0.00024643       0.00034030
