20
Lattice="18.58201370748981 0.7746890344664634 -0.014381040919746705 -4.9808046537079305 7.852376884053135 0.0020578281962098013 0.005771705193111466 0.001106476625248182 8.828703972837992" Properties=species:S:1:pos:R:3:spacegroup_kinds:I:1:forces:R:3 spacegroup="P 1" unit_cell=conventional occupancy="_JSON {\"0\": {\"Cs\": 1.0}, \"1\": {\"Cs\": 1.0}, \"2\": {\"K\": 1.0}, \"3\": {\"In\": 1.0}, \"4\": {\"I\": 1.0}, \"5\": {\"I\": 1.0}, \"6\": {\"I\": 1.0}, \"7\": {\"I\": 1.0}, \"8\": {\"I\": 1.0}, \"9\": {\"I\": 1.0}, \"10\": {\"Cs\": 1.0}, \"11\": {\"Cs\": 1.0}, \"12\": {\"K\": 1.0}, \"13\": {\"In\": 1.0}, \"14\": {\"I\": 1.0}, \"15\": {\"I\": 1.0}, \"16\": {\"I\": 1.0}, \"17\": {\"I\": 1.0}, \"18\": {\"I\": 1.0}, \"19\": {\"I\": 1.0}}" energy=-51.58763338358032 free_energy=-51.58763338358032 stress="-2.289390502192475e-06 1.1839661137042548e-06 -2.5680174762628484e-06 1.1839661137042548e-06 4.674375824410624e-07 -2.50804249025617e-07 -2.5680174762628484e-06 -2.50804249025617e-07 -7.149599614926904e-07" pbc="T T T"
Cs       4.79669280       2.77028064       8.81784568        0      -0.00029808       0.00063025      -0.00006353
Cs       0.03326154       5.25856265       0.00525015        1       0.00027909      -0.00056630       0.00045764
K       -4.72095481       7.74696918       4.41616915        2       0.00005028      -0.00004484       0.00021272
In      -4.72372641       7.74642738       0.00176681        3      -0.00020340      -0.00025833       0.00040733
I        2.13229878       8.03738214       1.76286938        4      -0.00029072      -0.00056319       0.00006111
I       -2.28274694       7.84392770       7.06257225        5      -0.00052988       0.00044703      -0.00049882
I        1.39200552       2.05300984       1.76469910        6       0.00032741      -0.00005984       0.00019083
I        3.43767206       5.97579966       7.05856994        7       0.00027550       0.00043457      -0.00034304
I        5.87050897       6.07276831       1.76076244        8       0.00025393       0.00000695      -0.00032394
I       -1.04076571       1.95603743       7.06256966        9       0.00013585      -0.00002632      -0.00010029
Cs      14.08769966       3.15762516       8.81065516       10      -0.00029809       0.00063025      -0.00006353
Cs       9.32426839       5.64590717      -0.00194037       11       0.00027909      -0.00056629       0.00045764
K        4.57005205       8.13431370       4.40897863       12       0.00005029      -0.00004484       0.00021272
In       4.56728043       8.13377190      -0.00542371       13      -0.00020334      -0.00025830       0.00040732
I       11.42330563       8.42472666       1.75567886       14      -0.00029070      -0.00056319       0.00006110
I        7.00825992       8.23127222       7.05538172       15      -0.00052990       0.00044703      -0.00049881
I       10.68301238       2.44035436       1.75750858       16       0.00032740      -0.00005985       0.00019082
I       12.72867891       6.36314417       7.05137942       17       0.00027551       0.00043459      -0.00034303
I       -3.42049789       5.68542379       1.76795296       18       0.00025393       0.00000695      -0.00032394
I        8.25024114       2.34338195       7.05537914       19       0.00013584      -0.00002632      -0.00010030
