10
Lattice="9.242131191128623 -0.9485643212516551 -0.3787296110842517 -3.7721068820909225 8.453372542800427 0.8945604121538341 0.278420394848538 -0.8054552289773983 8.78610055904689" Properties=species:S:1:pos:R:3:spacegroup_kinds:I:1:forces:R:3 spacegroup="P 1" unit_cell=conventional occupancy="_JSON {\"0\": {\"Cs\": 1.0}, \"1\": {\"Cs\": 1.0}, \"2\": {\"K\": 1.0}, \"3\": {\"In\": 1.0}, \"4\": {\"I\": 1.0}, \"5\": {\"I\": 1.0}, \"6\": {\"I\": 1.0}, \"7\": {\"I\": 1.0}, \"8\": {\"I\": 1.0}, \"9\": {\"I\": 1.0}}" energy=-25.793812630874065 free_energy=-25.793812630874065 stress="4.415697779351977e-06 2.9643511293526524e-06 1.651709284921763e-06 2.9643511293526524e-06 1.376094692521809e-05 1.5088879698872811e-06 1.651709284921763e-06 1.5088879698872811e-06 -7.78354956808013e-06" pbc="T T T"
Cs       2.12237169       3.72182598       0.30875664        0       0.00004607       0.00022092      -0.00017420
Cs      -1.93903167       6.05646804       9.45142772        1       0.00000401      -0.00048360      -0.00017489
K        6.59876393       0.18817084       4.24348799        2       0.00012252      -0.00001819      -0.00040815
In       6.45951278       0.59086075      -0.14964444        3       0.00046710       0.00020958       0.00024076
I        5.54590169       2.65495502       1.84299697        4       0.00019709      -0.00036145      -0.00036885
I        3.87942703       6.17497376       7.53847195        5       0.00028804      -0.00057768      -0.00007798
I       -1.10807031       2.84980724       7.39060355        6       0.00007405       0.00027541       0.00038437
I        1.29149457       6.92817088       2.36923264        7      -0.00003353       0.00023186       0.00026251
I       -0.30546181       1.10747611       1.88544824        8      -0.00058233       0.00050292       0.00003340
I        4.26129731       0.21709726       6.97985057        9      -0.00058302       0.00000023       0.00028303
