10
Lattice="9.237893931612149 0.04498340268513946 0.1468492698421938 4.5176207625005755 7.4654224351258085 0.0036875793618613866 4.438129803921886 2.9656184449130434 7.462932374342133" Properties=species:S:1:pos:R:3:spacegroup_kinds:I:1:forces:R:3 spacegroup="P 1" unit_cell=conventional occupancy="_JSON {\"0\": {\"Cs\": 1.0}, \"1\": {\"Cs\": 1.0}, \"2\": {\"K\": 1.0}, \"3\": {\"In\": 1.0}, \"4\": {\"I\": 1.0}, \"5\": {\"I\": 1.0}, \"6\": {\"I\": 1.0}, \"7\": {\"I\": 1.0}, \"8\": {\"I\": 1.0}, \"9\": {\"I\": 1.0}}" energy=-25.648944220972016 free_energy=-25.648944220972016 stress="-3.0021879838326948e-06 1.9299478082027296e-07 -5.536592670933605e-07 1.9299478082027296e-07 -1.7955804981371742e-06 1.4347781976352396e-06 -5.536592670933605e-07 1.4347781976352396e-06 -3.415908072419204e-06" pbc="T T T"
Cs       4.52886075       2.79205703       1.82626256        0       0.00012774      -0.00001882      -0.00020043
Cs      13.66454393       7.68455684       5.78737635        1       0.00001431      -0.00031295       0.00006340
K        9.09687173       5.23734521       3.80691780        2      -0.00002396       0.00036738      -0.00008719
In       9.23788314       0.04480551       0.14683892        3       0.00003516       0.00018403      -0.00001872
I        6.11939489       3.95491191       5.22045981        4       0.00004429       0.00019334      -0.00024302
I       12.07421803       6.52093012       2.39301192        5       0.00003839      -0.00004757       0.00014235
I        9.87241286       2.48655046       1.72577584        6      -0.00009443       0.00025640      -0.00000070
I        8.32133219       7.98960639       5.88705333        7       0.00000090      -0.00038075       0.00035734
I        6.90334473       6.11058461       1.16917589        8      -0.00035133      -0.00057669       0.00010463
I       11.29043147       4.36574334       6.44458771        9       0.00020891       0.00033563      -0.00011765
