10
Lattice="8.074594401592522 0.0 0.0 4.03729720083026 6.992803877015199 0.0 4.037297200895517 2.330934625722463 6.592878902244352" Properties=species:S:1:pos:R:3 pbc="T T T"
Cs       4.03723950       2.33091732       1.64822232
Cs      12.11194916       6.99282073       4.94465630
K        8.07459435       4.66186903       3.29643932
In       0.00000012       0.00000038       0.00000015
I        6.48694098       2.60383332       4.06840069
I        9.66224777       6.71990444       2.52447792
I        9.22058184       2.97724158       1.53214061
I        6.92860626       6.34649612       5.06073794
I        5.91405936       5.90947531       1.53215269
I       10.23512983       3.41426386       5.06072655
