20
Lattice="11.093825128138478 0.0 0.0 -1.1724372936773757 12.60076518075347 0.0 -2.511928459696964 -1.1201900501525808 4.799928310618005" Properties=species:S:1:pos:R:3:oxi_states:R:1 pbc="T T T"
Cs       1.22463861       2.58984038       2.39996416       1.00000000
Pb      -0.00000000      -0.00000000       0.00000000       2.00000000
I       -1.25596423      -0.56009503       2.39996416      -1.00000000
I        2.77345628       0.00000000      -0.00000000      -1.00000000
I       -0.29310932       3.15019130       0.00000000      -1.00000000
Cs       0.63841997       8.89022297       2.39996416       1.00000000
Pb      -0.58621865       6.30038259       0.00000000       2.00000000
I       -1.84218288       5.74028757       2.39996416      -1.00000000
I        2.18723764       6.30038259      -0.00000000      -1.00000000
I       -0.87932797       9.45057389       0.00000000      -1.00000000
Cs       6.77155118       2.58984038       2.39996416       1.00000000
Pb       5.54691256      -0.00000000       0.00000000       2.00000000
I        4.29094833      -0.56009503       2.39996416      -1.00000000
I        8.32036885       0.00000000      -0.00000000      -1.00000000
I        5.25380324       3.15019130       0.00000000      -1.00000000
Cs       6.18533253       8.89022297       2.39996416       1.00000000
Pb       4.96069392       6.30038259       0.00000000       2.00000000
I        3.70472969       5.74028757       2.39996416      -1.00000000
I        7.73415020       6.30038259      -0.00000000      -1.00000000
I        4.66758459       9.45057389       0.00000000      -1.00000000
