20
Lattice="12.39848657772035 0.2534717508378704 3.1876601166219873 -0.6384272788529082 12.690165715920589 1.4726337427238547 -1.4664235502303264 -0.7913490869366089 6.184728795242092" Properties=species:S:1:pos:R:3:spacegroup_kinds:I:1:forces:R:3 spacegroup="P 1" unit_cell=conventional occupancy="_JSON {\"0\": {\"Cs\": 1.0}, \"1\": {\"Pb\": 1.0}, \"2\": {\"I\": 1.0}, \"3\": {\"I\": 1.0}, \"4\": {\"I\": 1.0}, \"5\": {\"Cs\": 1.0}, \"6\": {\"Pb\": 1.0}, \"7\": {\"I\": 1.0}, \"8\": {\"I\": 1.0}, \"9\": {\"I\": 1.0}, \"10\": {\"Cs\": 1.0}, \"11\": {\"Pb\": 1.0}, \"12\": {\"I\": 1.0}, \"13\": {\"I\": 1.0}, \"14\": {\"I\": 1.0}, \"15\": {\"Cs\": 1.0}, \"16\": {\"Pb\": 1.0}, \"17\": {\"I\": 1.0}, \"18\": {\"I\": 1.0}, \"19\": {\"I\": 1.0}}" energy=-55.93736575753593 free_energy=-55.93736575753593 stress="-7.801650506576563e-06 -3.7057873657118973e-06 -6.030957004926484e-06 -3.7057873657118973e-06 1.2663986950865376e-06 1.4116831992029007e-06 -6.030957004926484e-06 1.4116831992029007e-06 7.034550021131839e-06" pbc="T T T"
Cs       2.03533575       2.86919031       3.93395678        0       0.00032735      -0.00005600      -0.00022730
Pb       0.00181283      -0.00067406       0.00244829        1       0.00028753       0.00024877      -0.00006484
I       -0.60377065      -0.39517352       3.16820825        2      -0.00003084      -0.00045004       0.00000030
I        3.10223723       0.04390476       0.94523416        3      -0.00015085       0.00026352       0.00017889
I       12.27673802       3.41643500       3.65271258        4      -0.00036497       0.00001989       0.00013589
Cs       1.71612022       9.21427045       4.67027085        5       0.00033482      -0.00003485      -0.00022174
Pb      -0.31736951       6.34442760       0.73880621        6       0.00014952       0.00015178      -0.00015137
I       11.47549886       6.20337912       7.09217447        7      -0.00002999      -0.00044550       0.00003531
I        2.78301044       6.38898526       1.68153922        8      -0.00009187       0.00026861       0.00019435
I       -0.44096228       9.50804586       1.20136912        9      -0.00036528       0.00003576       0.00013800
Cs       8.23457785       2.99592338       5.52778460       10       0.00033135      -0.00003403      -0.00022270
Pb       6.20109884       0.12607471       1.59632670       11       0.00007758       0.00018784      -0.00016940
I        5.59546782      -0.26843903       4.76202687       12      -0.00002258      -0.00044970       0.00004005
I        9.30146798       0.17063910       2.53905269       13      -0.00009809       0.00026434       0.00019410
I        6.07749335       3.28969809       2.05888126       14      -0.00035804       0.00003969       0.00013889
Cs       7.91536611       9.34100934       6.26410437       15       0.00032409      -0.00005724      -0.00022829
Pb       5.88186087       6.47115544       2.33261939       16       0.00020963       0.00020532      -0.00011134
I        5.27625663       6.07664400       5.49834770       17      -0.00002987      -0.00044878       0.00002272
I        8.98226322       6.51572232       3.27537772       18      -0.00014185       0.00026747       0.00018121
I        5.75827980       9.63478166       2.79519833       19      -0.00035764       0.00002315       0.00013727
