40
Lattice="18.416059963372405 -0.12284781982473096 -2.6232758656500192 -8.871294949703797 16.069350370214238 3.0071194479574683 1.237117046471355 -0.9424106180155398 8.690804540137119" Properties=species:S:1:pos:R:3:spacegroup_kinds:I:1:forces:R:3 spacegroup="P 1" unit_cell=conventional occupancy="_JSON {\"0\": {\"Cs\": 1.0}, \"1\": {\"Cs\": 1.0}, \"2\": {\"K\": 1.0}, \"3\": {\"In\": 1.0}, \"4\": {\"I\": 1.0}, \"5\": {\"I\": 1.0}, \"6\": {\"I\": 1.0}, \"7\": {\"I\": 1.0}, \"8\": {\"I\": 1.0}, \"9\": {\"I\": 1.0}, \"10\": {\"Cs\": 1.0}, \"11\": {\"Cs\": 1.0}, \"12\": {\"K\": 1.0}, \"13\": {\"In\": 1.0}, \"14\": {\"I\": 1.0}, \"15\": {\"I\": 1.0}, \"16\": {\"I\": 1.0}, \"17\": {\"I\": 1.0}, \"18\": {\"I\": 1.0}, \"19\": {\"I\": 1.0}, \"20\": {\"Cs\": 1.0}, \"21\": {\"Cs\": 1.0}, \"22\": {\"K\": 1.0}, \"23\": {\"In\": 1.0}, \"24\": {\"I\": 1.0}, \"25\": {\"I\": 1.0}, \"26\": {\"I\": 1.0}, \"27\": {\"I\": 1.0}, \"28\": {\"I\": 1.0}, \"29\": {\"I\": 1.0}, \"30\": {\"Cs\": 1.0}, \"31\": {\"Cs\": 1.0}, \"32\": {\"K\": 1.0}, \"33\": {\"In\": 1.0}, \"34\": {\"I\": 1.0}, \"35\": {\"I\": 1.0}, \"36\": {\"I\": 1.0}, \"37\": {\"I\": 1.0}, \"38\": {\"I\": 1.0}, \"39\": {\"I\": 1.0}}" energy=-103.17523276961897 free_energy=-103.17523276961897 stress="6.2214622917158176e-06 -1.1381089215237257e-05 3.168437176404011e-06 -1.1381089215237257e-05 -8.560795196472981e-06 4.316928619942468e-06 3.168437176404011e-06 4.316928619942468e-06 5.21096859918234e-07" pbc="T T T"
Cs       6.43262618       1.69636546       8.20832837        0       0.00045698      -0.00005864       0.00053644
Cs       0.65478770       5.33278744       0.51942909        1       0.00017465      -0.00027653       0.00029973
K        1.15886224      -0.47333941       4.26879623        2      -0.00062506       0.00057668      -0.00003025
In       0.53927836      -0.00086103      -0.07584185        3      -0.00016562      -0.00010613      -0.00033179
I        7.58105001      -0.21550955       0.69764135        4       0.00028760      -0.00001655       0.00000780
I       -0.49325282       7.24426297       8.03254275        5       0.00032891       0.00005237      -0.00005073
I        2.05513668       1.89187836       1.70836645        6       0.00014283      -0.00016919      -0.00001718
I        5.03311578       5.13731781       7.02192733        7      -0.00033571      -0.00027785      -0.00029567
I        6.70340411       5.66624952       1.46162254        8      -0.00002636       0.00022787      -0.00002325
I        0.38505070       1.36204230       7.26794376        9      -0.00024130       0.00004873      -0.00009193
Cs       1.99697870       9.73104067       9.71188812       10       0.00045702      -0.00005883       0.00053626
Cs      -3.78085978      13.36746264       2.02298883       11       0.00017476      -0.00027665       0.00029968
K       -3.27678527       7.56133580       5.77235590       12      -0.00062464       0.00057639      -0.00002975
In      -3.89636948       8.03381439       1.42771850       13      -0.00016346      -0.00010747      -0.00033540
I        3.14540244       7.81916565       2.20120117       14       0.00028824      -0.00001655       0.00000723
I       -4.92890048      15.27893820       9.53610270       15       0.00033018       0.00005231      -0.00005202
I       -2.38051080       9.92655347       3.21192610       16       0.00014300      -0.00016866      -0.00001668
I        0.59746832      13.17199298       8.52548703       17      -0.00033574      -0.00027770      -0.00029549
I        2.26775665      13.70092468       2.96518226       18      -0.00002645       0.00022803      -0.00002326
I       -4.05059676       9.39671746       8.77150347       19      -0.00024145       0.00004897      -0.00009193
Cs      15.64065615       1.63494159       6.89669047       20       0.00045710      -0.00005903       0.00053627
Cs       9.86281768       5.27136353      -0.79220884       21       0.00017468      -0.00027645       0.00029967
K       10.36689217      -0.53476330       2.95715823       22      -0.00062448       0.00057637      -0.00002959
In       9.74730784      -0.06228467      -1.38747898       23      -0.00016258      -0.00010748      -0.00033644
I       16.78907974      -0.27693341      -0.61399628       24       0.00028933      -0.00001658       0.00000608
I        8.71477714       7.18283907       6.72090484       25       0.00032908       0.00005234      -0.00005086
I       11.26316666       1.83045438       0.39672843       26       0.00014298      -0.00016867      -0.00001662
I       14.24114577       5.07589388       5.71028938       27      -0.00033573      -0.00027769      -0.00029556
I       -2.50462586       5.72767340       2.77326046       28      -0.00002642       0.00022807      -0.00002325
I        9.59308070       1.30061837       5.95630582       29      -0.00024148       0.00004893      -0.00009194
Cs      11.20500868       9.66961677       8.40025018       30       0.00045699      -0.00005891       0.00053632
Cs       5.42717022      13.30603868       0.71135086       31       0.00017464      -0.00027626       0.00029985
K        5.93124472       7.49991188       4.46071797       32      -0.00062470       0.00057647      -0.00002977
In       5.31166054       7.97239042       0.11608050       33      -0.00016378      -0.00010700      -0.00033499
I       12.35343245       7.75774174       0.88956322       34       0.00028806      -0.00001653       0.00000737
I        4.27912976      15.21751424       8.22446446       35       0.00032845       0.00005234      -0.00005029
I        6.82751918       9.86512958       1.90028818       36       0.00014301      -0.00016882      -0.00001679
I        9.80549830      13.11056914       7.21384918       37      -0.00033591      -0.00027823      -0.00029607
I       -6.94027336      13.76234862       4.27682020       38      -0.00002626       0.00022781      -0.00002324
I        5.15743322       9.33529357       7.45986555       39      -0.00024139       0.00004876      -0.00009194
