10
Lattice="9.14648508461353 -0.7992226210347637 -0.71935643784852 5.392638351871427 6.806405829770392 1.2633015079290568 5.335218087891125 0.6847033734403981 7.512765404234616" Properties=species:S:1:pos:R:3:spacegroup_kinds:I:1:forces:R:3 spacegroup="P 1" unit_cell=conventional occupancy="_JSON {\"0\": {\"Cs\": 1.0}, \"1\": {\"Cs\": 1.0}, \"2\": {\"K\": 1.0}, \"3\": {\"In\": 1.0}, \"4\": {\"I\": 1.0}, \"5\": {\"I\": 1.0}, \"6\": {\"I\": 1.0}, \"7\": {\"I\": 1.0}, \"8\": {\"I\": 1.0}, \"9\": {\"I\": 1.0}}" energy=-25.64893399931522 free_energy=-25.64893399931522 stress="-3.295394706695461e-06 -1.1370766199272737e-06 7.017354948611475e-07 -1.1370766199272737e-06 -2.5592115638678366e-06 -2.9835028676584773e-06 7.017354948611475e-07 -2.9835028676584773e-06 6.249555624139898e-06" pbc="T T T"
Cs       4.99330223       1.86222480       1.99872441        0       0.00000910      -0.00033709      -0.00038827
Cs      14.88078400       4.82998328       6.05860880        1       0.00027883       0.00014991      -0.00036991
K        9.93716501       3.34597812       4.02877651        2       0.00000770       0.00022930      -0.00052069
In       9.14663994      -0.79909641      -0.71938965        3      -0.00020969      -0.00035280      -0.00015159
I        6.97932945       1.95295921       5.37785082        4      -0.00036965      -0.00002042       0.00024880
I       12.89522534       4.73896174       2.67852428        5       0.00010122      -0.00002569       0.00039681
I       10.21308449       1.13874939       1.27531550        6      -0.00006337       0.00009788      -0.00030726
I        9.66123539       5.55306467       6.78157244        7      -0.00004294      -0.00004317      -0.00002343
I        7.64409125       4.96460860       1.87709399        8      -0.00013282      -0.00011125       0.00053377
I       12.23016402       1.72683189       6.17876242        9       0.00042162       0.00041333       0.00058177
