5
Lattice="6.387060369535307 0.0 0.0 0.0 6.387060369535306 0.0 0.0 0.0 6.387060369535306" Properties=species:S:1:pos:R:3:spacegroup_kinds:I:1:forces:R:3 spacegroup="P 1" unit_cell=conventional occupancy="_JSON {\"0\": {\"Cs\": 1.0}, \"1\": {\"Pb\": 1.0}, \"2\": {\"I\": 1.0}, \"3\": {\"I\": 1.0}, \"4\": {\"I\": 1.0}}" energy=-13.980742427266373 free_energy=-13.980742427266373 stress="-1.7495223498269612e-07 -3.2984001774465753e-13 -9.950081416894141e-18 -3.2984001774465753e-13 -1.74952235075077e-07 6.467140143351222e-18 -9.950081416894141e-18 6.467140143351222e-18 -1.7495102732787656e-07" pbc="T T T"
Cs       3.19356369       3.19349668       3.19353018        0       0.00000132      -0.00000132      -0.00000000
Pb       0.00000000       0.00000000       0.00000000        1       0.00000137      -0.00000137      -0.00000000
I        0.00000000       0.00000000       3.19353018        2      -0.00000214       0.00000214      -0.00000000
I        3.19353018       0.00000000       0.00000000        3       0.00000158       0.00000214       0.00000000
I        0.00000000       3.19353018       0.00000000        4      -0.00000214      -0.00000158       0.00000000
