40
Lattice="17.202288983806085 0.4333845402091032 1.018137224387638 -8.945863737273898 14.69810001374468 -1.041625688153147 -0.5242072863375268 0.29926682423664 8.729359679465793" Properties=species:S:1:pos:R:3:spacegroup_kinds:I:1:forces:R:3 spacegroup="P 1" unit_cell=conventional occupancy="_JSON {\"0\": {\"Cs\": 1.0}, \"1\": {\"Cs\": 1.0}, \"2\": {\"K\": 1.0}, \"3\": {\"In\": 1.0}, \"4\": {\"I\": 1.0}, \"5\": {\"I\": 1.0}, \"6\": {\"I\": 1.0}, \"7\": {\"I\": 1.0}, \"8\": {\"I\": 1.0}, \"9\": {\"I\": 1.0}, \"10\": {\"Cs\": 1.0}, \"11\": {\"Cs\": 1.0}, \"12\": {\"K\": 1.0}, \"13\": {\"In\": 1.0}, \"14\": {\"I\": 1.0}, \"15\": {\"I\": 1.0}, \"16\": {\"I\": 1.0}, \"17\": {\"I\": 1.0}, \"18\": {\"I\": 1.0}, \"19\": {\"I\": 1.0}, \"20\": {\"Cs\": 1.0}, \"21\": {\"Cs\": 1.0}, \"22\": {\"K\": 1.0}, \"23\": {\"In\": 1.0}, \"24\": {\"I\": 1.0}, \"25\": {\"I\": 1.0}, \"26\": {\"I\": 1.0}, \"27\": {\"I\": 1.0}, \"28\": {\"I\": 1.0}, \"29\": {\"I\": 1.0}, \"30\": {\"Cs\": 1.0}, \"31\": {\"Cs\": 1.0}, \"32\": {\"K\": 1.0}, \"33\": {\"In\": 1.0}, \"34\": {\"I\": 1.0}, \"35\": {\"I\": 1.0}, \"36\": {\"I\": 1.0}, \"37\": {\"I\": 1.0}, \"38\": {\"I\": 1.0}, \"39\": {\"I\": 1.0}}" energy=-103.10311648717627 free_energy=-103.10311648717627 stress="-3.8123134038062714e-07 9.553009130248343e-08 3.6676015978211537e-07 9.553009130248343e-08 -2.7050756665614186e-07 -4.2108161469734225e-07 3.6676015978211537e-07 -4.2108161469734225e-07 -2.384485467291308e-07" pbc="T T T"
Cs       3.55566377       2.75252076       1.35608177        0      -0.00013872      -0.00002380       0.00012504
Cs      -1.17710210       5.34562012       7.27946337        1       0.00033261      -0.00010196      -0.00000189
K       16.32832381       0.69852831       5.34008168        2      -0.00027427      -0.00004051       0.00053184
In      16.59001902       0.54849384       0.97497388        3       0.00017571       0.00012512      -0.00008452
I       16.12837699       3.00717701       2.61115605        4      -0.00009122       0.00045060       0.00038592
I        3.45063350       5.52223307       7.04183608        5       0.00011257       0.00027055       0.00011579
I        0.86506813       1.86889894       7.00848754        6      -0.00051042      -0.00037621       0.00036859
I        1.51287031       6.22998774       1.62673327        7      -0.00037090      -0.00055129       0.00005985
I       -2.93648409       6.63793697       1.34384652        8       0.00042342       0.00010042       0.00038085
I        5.31414189       1.45770610       7.29305572        9       0.00019879      -0.00030029       0.00035240
Cs      -0.91551355      10.10013244       0.83663491       10      -0.00053222       0.00016904      -0.00022221
Cs      -5.64973547      12.69292016       6.75903940       11      -0.00014315       0.00008715       0.00003550
K       11.85321113       8.04678198       4.82094373       12       0.00046025      -0.00010315      -0.00015851
In      12.11619827       7.89668414       0.45586923       13       0.00033212       0.00002670      -0.00010948
I       11.65395523      10.35546545       2.09213504       14       0.00001849       0.00008895       0.00008737
I       -1.02018187      12.87105210       6.52111902       15      -0.00005193      -0.00026267      -0.00042880
I       -3.60899307       9.21739622       6.48980104       16       0.00059257       0.00011268      -0.00018331
I       -2.95889759      13.57577633       1.10591483       17       0.00033285       0.00026424      -0.00039194
I        1.53799387      -0.71002109       1.86277791       18      -0.00029019      -0.00017368       0.00022563
I        0.84316859       8.80942237       6.77244649       19      -0.00056334       0.00007450      -0.00056624
Cs      12.15784395       2.96845463       1.86403153       20       0.00046721      -0.00036834       0.00018505
Cs       7.42069511       5.56005608       7.78976936       21       0.00025928      -0.00022124      -0.00027718
K        7.72638338       0.48161581       4.83393132       22       0.00006306       0.00001706      -0.00021511
In       7.98836439       0.33223157       0.46958695       23      -0.00010080      -0.00010293       0.00011765
I        7.52650162       2.79070346       2.10588074       24      -0.00029948      -0.00012418       0.00009711
I       12.05595196       5.73769140       7.54878776       25      -0.00047315       0.00024187       0.00006714
I        9.46498236       2.08598641       7.52039109       26       0.00019956      -0.00033862       0.00012876
I       10.11497532       6.44230779       2.13335620       27      -0.00029980      -0.00007673       0.00078672
I        5.66499238       6.85471570       1.85505618       28       0.00031582      -0.00028988      -0.00001504
I       13.91550336       1.67303500       7.79892456       29       0.00013643      -0.00017197       0.00039340
Cs       7.68511120      10.31766660       1.34450036       30       0.00009548       0.00007499      -0.00009086
Cs       2.95086448      12.90876520       7.26794142       31      -0.00032804       0.00016479       0.00033231
K        3.25411090       7.83133175       4.31357375       32      -0.00024939       0.00010074      -0.00015546
In       3.51599940       7.68224087      -0.05062419       33      -0.00059418      -0.00000130       0.00002219
I        3.05535422      10.14120220       1.58581105       34       0.00050271      -0.00045590      -0.00059344
I        7.58179261      13.08701900       7.02706828       35       0.00042632      -0.00011698       0.00009056
I        4.99488014       9.43291018       7.00065465       36      -0.00033729       0.00034374      -0.00048584
I        5.64310614      13.79250897       1.61211905       37       0.00018534       0.00060855      -0.00014651
I       10.13886796      -0.49382548       2.37475344       38      -0.00056743       0.00041453      -0.00051290
I        9.44134629       9.02054865       7.27998540       39       0.00058530       0.00046539      -0.00025048
