10
Lattice="9.273533868733507 -0.04516456243904072 0.6796994046987779 -4.52987025064806 8.01750664021537 -1.297397526603279 -0.6366259766905933 1.0559220662802067 8.74187599072052" Properties=species:S:1:pos:R:3:spacegroup_kinds:I:1:forces:R:3 spacegroup="P 1" unit_cell=conventional occupancy="_JSON {\"0\": {\"Cs\": 1.0}, \"1\": {\"Cs\": 1.0}, \"2\": {\"K\": 1.0}, \"3\": {\"In\": 1.0}, \"4\": {\"I\": 1.0}, \"5\": {\"I\": 1.0}, \"6\": {\"I\": 1.0}, \"7\": {\"I\": 1.0}, \"8\": {\"I\": 1.0}, \"9\": {\"I\": 1.0}}" energy=-25.793814288000775 free_energy=-25.793814288000775 stress="-3.781630154121217e-06 -3.7381120367487397e-06 6.089856010784667e-07 -3.7381120367487397e-06 1.4642383088296412e-06 1.8267112624092003e-06 6.089856010784667e-07 1.8267112624092003e-06 -3.3081118877594296e-06" pbc="T T T"
Cs       3.85071841       3.37992606      -0.15924290        0      -0.00037261      -0.00014139      -0.00048275
Cs      -1.39257734       7.13132952       7.98537942        1      -0.00000193      -0.00012408      -0.00000978
K       -1.14271868       1.26975462       4.22132109        2      -0.00020298      -0.00024379       0.00013285
In       8.44892986       0.69613677       0.52998971        3       0.00003852       0.00000387       0.00004063
I        7.11650959       2.99951266       1.93906369        4       0.00013184      -0.00009317      -0.00015796
I        4.61472244       7.46621586       6.56562118        5       0.00021679       0.00014567       0.00027261
I       -0.10733999       3.68707759       6.67906147        6       0.00020905      -0.00011355       0.00013526
I        2.56562562       6.82381971       1.14604381        7      -0.00056075       0.00046665       0.00028413
I        1.47971917       0.96103333       1.77559930        8       0.00054380      -0.00012641      -0.00029673
I        5.50767595       1.53246573       7.34698653        9      -0.00000172       0.00022620       0.00008175
