40
Lattice="12.197190699465983 -3.04496678945267 -2.393227094586084 2.981241957396682 12.42026082374596 -0.6299272678601261 2.6567977515167605 -0.010842444160105777 12.546374648229303" Properties=species:S:1:pos:R:3:spacegroup_kinds:I:1:forces:R:3 spacegroup="P 1" unit_cell=conventional occupancy="_JSON {\"0\": {\"Cs\": 1.0}, \"1\": {\"Pb\": 1.0}, \"2\": {\"I\": 1.0}, \"3\": {\"I\": 1.0}, \"4\": {\"I\": 1.0}, \"5\": {\"Cs\": 1.0}, \"6\": {\"Pb\": 1.0}, \"7\": {\"I\": 1.0}, \"8\": {\"I\": 1.0}, \"9\": {\"I\": 1.0}, \"10\": {\"Cs\": 1.0}, \"11\": {\"Pb\": 1.0}, \"12\": {\"I\": 1.0}, \"13\": {\"I\": 1.0}, \"14\": {\"I\": 1.0}, \"15\": {\"Cs\": 1.0}, \"16\": {\"Pb\": 1.0}, \"17\": {\"I\": 1.0}, \"18\": {\"I\": 1.0}, \"19\": {\"I\": 1.0}, \"20\": {\"Cs\": 1.0}, \"21\": {\"Pb\": 1.0}, \"22\": {\"I\": 1.0}, \"23\": {\"I\": 1.0}, \"24\": {\"I\": 1.0}, \"25\": {\"Cs\": 1.0}, \"26\": {\"Pb\": 1.0}, \"27\": {\"I\": 1.0}, \"28\": {\"I\": 1.0}, \"29\": {\"I\": 1.0}, \"30\": {\"Cs\": 1.0}, \"31\": {\"Pb\": 1.0}, \"32\": {\"I\": 1.0}, \"33\": {\"I\": 1.0}, \"34\": {\"I\": 1.0}, \"35\": {\"Cs\": 1.0}, \"36\": {\"Pb\": 1.0}, \"37\": {\"I\": 1.0}, \"38\": {\"I\": 1.0}, \"39\": {\"I\": 1.0}}" energy=-111.87533584496236 free_energy=-111.87533584496236 stress="-5.788039279475201e-06 1.3169733477121888e-05 5.662299513833713e-07 1.3169733477121888e-05 4.197650214641689e-06 -1.2155102267640875e-05 5.662299513833713e-07 -1.2155102267640875e-05 1.3196070420385935e-05" pbc="T T T"
Cs       4.19971971       2.40883070       2.09649389        0      -0.00001857      -0.00040272       0.00020622
Pb      -0.01779875       0.01929318       0.00335483        1       0.00015914       0.00017471      -0.00034761
I       12.97853162      -3.06112498       0.77036895        2      -0.00019843       0.00008761      -0.00019874
I        3.08449281      -0.74868397      -0.45717647        3       0.00012478      -0.00007228       0.00020773
I       12.96213668       0.07631948      -2.41755847        4      -0.00006872       0.00021005       0.00012667
Cs       5.52811860       2.40340953       8.36968110        5      -0.00001949      -0.00040261       0.00020480
Pb       1.31059692       0.01387532       6.27654243        6       0.00017053       0.00017049      -0.00034501
I       14.30693133      -3.06654650       7.04355328        7      -0.00019650       0.00008723      -0.00018770
I        4.41289230      -0.75410527       5.81601105        8       0.00011623      -0.00007074       0.00020833
I       14.29053688       0.07089535       3.85562889        9      -0.00006979       0.00021302       0.00012597
Cs       5.69034074       8.61896124       1.78153024       10      -0.00001908      -0.00040430       0.00020623
Pb      13.67000988       3.18446073      -2.70483390       11       0.00016171       0.00015998      -0.00035167
I       14.46915287       3.14900475       0.45540521       12      -0.00019691       0.00008924      -0.00019814
I        4.57511618       5.46144456      -0.77214150       13       0.00011630      -0.00006781       0.00020998
I       14.45275868       6.28644700      -2.73252262       14      -0.00006547       0.00022580       0.00012627
Cs       7.01873961       8.61354008       8.05471717       15      -0.00001961      -0.00040434       0.00020532
Pb      14.99840566       3.17904479       3.56835190       16       0.00017135       0.00014682      -0.00034255
I       15.79755156       3.14358419       6.72859127       17      -0.00019557       0.00008839      -0.00019130
I        5.90351561       5.45602342       5.50104553       18       0.00011123      -0.00006781       0.00021062
I        3.58396905       9.32598712       5.93389228       19      -0.00006464       0.00023943       0.00012481
Cs      10.29831532       0.88634712       0.89988073       20      -0.00001983      -0.00040259       0.00020450
Pb       6.08079334      -1.50318822      -1.19325847       21       0.00017478       0.00017200      -0.00034571
I        6.87993707      -1.53864199       1.96697970       22      -0.00019680       0.00008755      -0.00018887
I        9.18309059      -2.27116905      -1.65379122       23       0.00011239      -0.00006849       0.00020957
I        6.86354123       1.59880359      -1.22094503       24      -0.00007081       0.00020538       0.00012673
Cs      11.62671390       0.88092617       7.17306706       25      -0.00001804      -0.00040281       0.00020644
Pb       7.40919443      -1.50860902       5.07992929       26       0.00016043       0.00017101      -0.00034848
I        8.20833519      -1.54406259       8.24016945       27      -0.00019862       0.00008715      -0.00019686
I       10.51148582      -2.27658743       4.61939834       28       0.00012536      -0.00007358       0.00020710
I        8.19194189       1.59337717       5.05224256       29      -0.00006782       0.00021966       0.00012592
Cs      11.78893626       7.09647769       0.58491693       30      -0.00001982      -0.00040413       0.00020461
Pb       7.57141187       4.70694745      -1.50822188       31       0.00017433       0.00015078      -0.00034462
I        8.37055730       4.67148856       1.65201839       32      -0.00019632       0.00008885      -0.00019447
I       10.67371304       3.93896030      -1.96875623       33       0.00010909      -0.00006633       0.00021159
I        8.35416460       7.80892741      -1.53590899       34      -0.00006475       0.00023663       0.00012541
Cs      13.11733489       7.09105679       6.85810321       35      -0.00001845      -0.00040460       0.00020691
Pb       8.89981188       4.70152614       4.76496702       36       0.00016385       0.00015275      -0.00035003
I        9.69895635       4.66606728       7.92520561       37      -0.00019679       0.00008870      -0.00019554
I       12.00211005       3.93354060       4.30443265       38       0.00011500      -0.00006844       0.00020981
I        9.68256358       7.80350586       4.73727853       39      -0.00006569       0.00023031       0.00012573
