80
Lattice="16.99714938495116 0.8565590193236069 0.36114935018633487 -9.351264783202906 14.15399580806071 -1.4134208463864109 3.3036411124893394 -0.5128219155921138 16.693305537431932" Properties=species:S:1:pos:R:3:spacegroup_kinds:I:1:forces:R:3 spacegroup="P 1" unit_cell=conventional occupancy="_JSON {\"0\": {\"Cs\": 1.0}, \"1\": {\"Cs\": 1.0}, \"2\": {\"K\": 1.0}, \"3\": {\"In\": 1.0}, \"4\": {\"I\": 1.0}, \"5\": {\"I\": 1.0}, \"6\": {\"I\": 1.0}, \"7\": {\"I\": 1.0}, \"8\": {\"I\": 1.0}, \"9\": {\"I\": 1.0}, \"10\": {\"Cs\": 1.0}, \"11\": {\"Cs\": 1.0}, \"12\": {\"K\": 1.0}, \"13\": {\"In\": 1.0}, \"14\": {\"I\": 1.0}, \"15\": {\"I\": 1.0}, \"16\": {\"I\": 1.0}, \"17\": {\"I\": 1.0}, \"18\": {\"I\": 1.0}, \"19\": {\"I\": 1.0}, \"20\": {\"Cs\": 1.0}, \"21\": {\"Cs\": 1.0}, \"22\": {\"K\": 1.0}, \"23\": {\"In\": 1.0}, \"24\": {\"I\": 1.0}, \"25\": {\"I\": 1.0}, \"26\": {\"I\": 1.0}, \"27\": {\"I\": 1.0}, \"28\": {\"I\": 1.0}, \"29\": {\"I\": 1.0}, \"30\": {\"Cs\": 1.0}, \"31\": {\"Cs\": 1.0}, \"32\": {\"K\": 1.0}, \"33\": {\"In\": 1.0}, \"34\": {\"I\": 1.0}, \"35\": {\"I\": 1.0}, \"36\": {\"I\": 1.0}, \"37\": {\"I\": 1.0}, \"38\": {\"I\": 1.0}, \"39\": {\"I\": 1.0}, \"40\": {\"Cs\": 1.0}, \"41\": {\"Cs\": 1.0}, \"42\": {\"K\": 1.0}, \"43\": {\"In\": 1.0}, \"44\": {\"I\": 1.0}, \"45\": {\"I\": 1.0}, \"46\": {\"I\": 1.0}, \"47\": {\"I\": 1.0}, \"48\": {\"I\": 1.0}, \"49\": {\"I\": 1.0}, \"50\": {\"Cs\": 1.0}, \"51\": {\"Cs\": 1.0}, \"52\": {\"K\": 1.0}, \"53\": {\"In\": 1.0}, \"54\": {\"I\": 1.0}, \"55\": {\"I\": 1.0}, \"56\": {\"I\": 1.0}, \"57\": {\"I\": 1.0}, \"58\": {\"I\": 1.0}, \"59\": {\"I\": 1.0}, \"60\": {\"Cs\": 1.0}, \"61\": {\"Cs\": 1.0}, \"62\": {\"K\": 1.0}, \"63\": {\"In\": 1.0}, \"64\": {\"I\": 1.0}, \"65\": {\"I\": 1.0}, \"66\": {\"I\": 1.0}, \"67\": {\"I\": 1.0}, \"68\": {\"I\": 1.0}, \"69\": {\"I\": 1.0}, \"70\": {\"Cs\": 1.0}, \"71\": {\"Cs\": 1.0}, \"72\": {\"K\": 1.0}, \"73\": {\"In\": 1.0}, \"74\": {\"I\": 1.0}, \"75\": {\"I\": 1.0}, \"76\": {\"I\": 1.0}, \"77\": {\"I\": 1.0}, \"78\": {\"I\": 1.0}, \"79\": {\"I\": 1.0}}" energy=-205.76058940224402 free_energy=-205.76058940224402 stress="4.490893243741433e-08 -1.715061173952008e-07 2.3597538775818956e-07 -1.715061173952008e-07 3.3023408028539604e-07 -2.6094159822817827e-07 2.3597538775818956e-07 -2.6094159822817827e-07 2.3445559225618289e-07" pbc="T T T"
Cs       7.90135539       2.49882335       6.42453944        0       0.00000058       0.00000886      -0.00004344
Cs       2.27260238       5.02047948       1.49306683        1       0.00004801      -0.00004498      -0.00000664
K        3.17553809       0.00700830       4.22190902        2      -0.00000664      -0.00004841      -0.00018757
In       2.34960952       0.13523173       0.04848944        3      -0.00008145      -0.00003334       0.00001331
I        9.01908875       1.65104550       2.45040050        4       0.00008792      -0.00016461      -0.00017022
I        1.15491934       5.86840804       5.46733188        5       0.00016762      -0.00011718      -0.00002993
I        4.67071164       1.39545623       1.37654586        6       0.00003849       0.00012805       0.00011891
I        5.50331903       6.12385163       6.54094561        7      -0.00011136      -0.00020580       0.00014551
I        6.60059612       5.18433197       1.11098047        8      -0.00007400      -0.00017939       0.00003221
I        3.57343772       2.33492735       6.80661947        9       0.00014222       0.00030712      -0.00004957
Cs       9.55317124       2.24241689      14.77118654       10      -0.00002737       0.00002676       0.00002135
Cs       3.92442492       4.76406834       9.83970138       11       0.00002313       0.00000564      -0.00001471
K        4.82737472      -0.24937930      12.56840858       12      -0.00005177      -0.00003348       0.00029528
In       4.00154988      -0.12119538       8.39514515       13      -0.00007763      -0.00019403       0.00026525
I       10.67094702       1.39445784      10.79684400       14      -0.00011819       0.00010237       0.00018738
I        2.80680835       5.61192497      13.81392539       15      -0.00014393       0.00009362      -0.00007868
I        6.32255291       1.13922124       9.72332212       16      -0.00007753      -0.00013573      -0.00019991
I        7.15508778       5.86726967      14.88767857       17       0.00024315       0.00022119      -0.00007590
I        8.25240299       4.92788319       9.45764256       18      -0.00005409       0.00000159      -0.00005247
I        5.22535635       2.07867728      15.15319016       19      -0.00007019      -0.00025918       0.00008895
Cs       3.22573476       9.57587201       5.71783703       20      -0.00002806      -0.00000202      -0.00006425
Cs      -2.40302153      12.09746324       0.78635480       21       0.00002647       0.00000354       0.00000041
K       -1.50006077       7.08399704       3.51525414       22      -0.00012531       0.00002218      -0.00017500
In      -2.32597789       7.21221682      -0.65821680       23      -0.00025711       0.00012378      -0.00006449
I        4.34349450       8.72792555       1.74350447       24      -0.00010456       0.00004652       0.00010312
I        5.83060680      -1.20869007       6.17386295       25      -0.00004321       0.00009536       0.00027020
I       -0.00495369       8.47236358       0.66991149       26       0.00024835       0.00032070      -0.00000745
I        0.82764967      13.20080757       5.83432506       27       0.00004889      -0.00008870      -0.00005952
I        1.92499295      12.26134417       0.40420788       28      -0.00021392      -0.00009139       0.00008590
I       -1.10213880       9.41198589       6.09986406       29       0.00002687       0.00002699       0.00009960
Cs       4.87753363       9.31942399      14.06447856       30       0.00002883      -0.00000063       0.00001661
Cs      -0.75120895      11.84105099       9.13296670       31       0.00003660      -0.00002883      -0.00000121
K        0.15170871       6.82756756      11.86169455       32       0.00010205       0.00007475       0.00020545
In      -0.67417295       6.95576878       7.68849711       33       0.00012120       0.00023192      -0.00001259
I        5.99526709       8.47156092      10.09029242       34       0.00010764      -0.00011875      -0.00009328
I        7.48238277      -1.46495977      14.52073536       35       0.00006945      -0.00009911      -0.00025089
I        1.64696799       8.21625518       9.01652648       36      -0.00029770      -0.00027894       0.00000414
I        2.47949110      12.94435765      14.18088012       37       0.00005392       0.00007451       0.00004685
I        3.57672095      12.00478471       8.75091499       38       0.00007447       0.00036936      -0.00010431
I        0.54969438       9.15566773      14.44655827       39       0.00004220      -0.00027405      -0.00006139
Cs      16.39993394       2.92710674       6.60511460       40      -0.00001806       0.00001165      -0.00004082
Cs      10.77118192       5.44872052       1.67362343       41       0.00003397       0.00003415       0.00004234
K       11.67414362       0.43528261       4.40255193       42      -0.00012344      -0.00003655      -0.00024472
In      10.84815234       0.56352247       0.22905333       43       0.00009542      -0.00013994       0.00011138
I        0.52055639       1.22265369       2.26972352       44      -0.00010159       0.00005423      -0.00000251
I        9.65354068       6.29666269       5.64780542       45      -0.00000513      -0.00004323       0.00012778
I       13.16926293       1.82363648       1.55716004       46       0.00014119       0.00027532       0.00005374
I       -2.99528042       5.69549881       6.36039943       47       0.00000498      -0.00006657       0.00008933
I       -1.89796797       4.75610497       0.93035702       48      -0.00013510      -0.00031853       0.00012101
I       12.07202200       2.76321185       6.98720715       49       0.00009367       0.00031685      -0.00009531
Cs      18.05174253       2.67072968      14.95177893       50       0.00002094      -0.00003977      -0.00001066
Cs      12.42299465       5.19234251      10.02028913       51       0.00004372      -0.00000789      -0.00004371
K       13.32590963       0.17889038      12.74896822       52       0.00011521      -0.00003530       0.00018130
In      12.50010416       0.30709178       8.57572555       53       0.00003998      -0.00024419       0.00029849
I        2.17233256       0.96615893      10.61639453       54       0.00003678       0.00006321      -0.00003259
I       11.30531316       6.04031972      13.99460278       55       0.00014545      -0.00016506      -0.00024840
I       14.82116197       1.56757619       9.90388543       56      -0.00024648      -0.00030291      -0.00015210
I       -1.34346936       5.43908785      14.70704247       57       0.00015795       0.00008955      -0.00000193
I       -0.24618826       4.49954976       9.27704655       58       0.00000910       0.00011520       0.00000110
I       13.72392824       2.50690291      15.33384799       59      -0.00004959      -0.00002795      -0.00012795
Cs      11.72430682      10.00415312       5.89841787       60       0.00000388      -0.00001641      -0.00008008
Cs       6.09554324      12.52576173       0.96695373       61       0.00005502      -0.00005314      -0.00004544
K        6.99847716       7.51225243       3.69580164       62       0.00001958       0.00005079      -0.00023586
In       6.17258757       7.64048243      -0.47762924       63      -0.00022476       0.00024934      -0.00009482
I       -4.15512566       8.29970236       1.56304579       64       0.00008291      -0.00010021      -0.00008738
I       14.32914071      -0.78038436       6.35454925       65       0.00012693      -0.00000077       0.00009311
I        8.49365089       8.90073523       0.85042091       66       0.00007094       0.00013060       0.00011508
I       -7.67090356      12.77260362       5.65374352       67      -0.00000733      -0.00019193      -0.00004353
I       -6.57361356      11.83301326       0.22367089       68      -0.00008281       0.00001381       0.00003654
I        7.39643665       9.84022594       6.28045471       69       0.00002925       0.00018915       0.00001241
Cs      13.37611440       9.74768085      14.24503582       70      -0.00001934       0.00004873       0.00004320
Cs       7.74736845      12.26931944       9.31353060       71       0.00001689       0.00000826       0.00004232
K        8.65032291       7.25582165      12.04236971       72      -0.00005650       0.00012645       0.00007187
In       7.82439168       7.38406117       7.86905908       73       0.00016496       0.00015779       0.00007129
I       -2.50326978       8.04324734       9.90962223       74      -0.00006078      -0.00001206       0.00005259
I       15.98103249      -1.03676726      14.70120835       75      -0.00021543       0.00009845      -0.00006331
I       10.14551418       8.64446281       9.19708282       76      -0.00018688      -0.00016468       0.00005114
I       -6.01910332      12.51598346      14.00040034       77       0.00021789       0.00026647      -0.00011092
I       -4.92185314      11.57655601       8.57038016       78       0.00006079       0.00019074      -0.00017841
I        9.04828817       9.58398051      14.62705270       79      -0.00002819      -0.00040991       0.00012748
