20
Lattice="19.737897426115055 0.0 0.0 4.934474356570317 8.546760294129687 0.0 4.934474356650076 2.848920098105232 8.057963102743097" Properties=species:S:1:pos:R:3 pbc="T T T"
Cs       4.93441666       2.84890280       2.01449323
Cs      14.80348062       8.54677715       6.04346958
K        9.86894869       5.69783999       4.02898144
In       0.00000014       0.00000039       0.00000015
I        7.80112955       3.36258044       5.19299654
I       11.93676787       8.03309924       2.86496630
I       11.01493617       3.45876487       1.87262898
I        8.72296060       7.93691475       6.18533379
I        7.22824793       7.22267010       1.87264106
I       12.50964993       4.17301099       6.18532239
Cs      14.80336537       2.84890280       2.01449323
Cs      24.67242933       8.54677715       6.04346958
K       19.73789740       5.69783999       4.02898144
In       9.86894885       0.00000039       0.00000015
I       17.67007826       3.36258044       5.19299654
I       21.80571659       8.03309924       2.86496630
I       20.88388488       3.45876487       1.87262898
I       18.59190931       7.93691475       6.18533379
I       17.09719664       7.22267010       1.87264106
I       22.37859864       4.17301099       6.18532239
