80
Lattice="17.139566399641264 -0.4078016212230902 -2.9698601175565384 -8.325353850503758 15.257150495065133 0.8005271399201667 -5.719947814540763 -4.1017885646802 18.530024282593757" Properties=species:S:1:pos:R:3:spacegroup_kinds:I:1:forces:R:3 spacegroup="P 1" unit_cell=conventional occupancy="_JSON {\"0\": {\"Cs\": 1.0}, \"1\": {\"Cs\": 1.0}, \"2\": {\"K\": 1.0}, \"3\": {\"In\": 1.0}, \"4\": {\"I\": 1.0}, \"5\": {\"I\": 1.0}, \"6\": {\"I\": 1.0}, \"7\": {\"I\": 1.0}, \"8\": {\"I\": 1.0}, \"9\": {\"I\": 1.0}, \"10\": {\"Cs\": 1.0}, \"11\": {\"Cs\": 1.0}, \"12\": {\"K\": 1.0}, \"13\": {\"In\": 1.0}, \"14\": {\"I\": 1.0}, \"15\": {\"I\": 1.0}, \"16\": {\"I\": 1.0}, \"17\": {\"I\": 1.0}, \"18\": {\"I\": 1.0}, \"19\": {\"I\": 1.0}, \"20\": {\"Cs\": 1.0}, \"21\": {\"Cs\": 1.0}, \"22\": {\"K\": 1.0}, \"23\": {\"In\": 1.0}, \"24\": {\"I\": 1.0}, \"25\": {\"I\": 1.0}, \"26\": {\"I\": 1.0}, \"27\": {\"I\": 1.0}, \"28\": {\"I\": 1.0}, \"29\": {\"I\": 1.0}, \"30\": {\"Cs\": 1.0}, \"31\": {\"Cs\": 1.0}, \"32\": {\"K\": 1.0}, \"33\": {\"In\": 1.0}, \"34\": {\"I\": 1.0}, \"35\": {\"I\": 1.0}, \"36\": {\"I\": 1.0}, \"37\": {\"I\": 1.0}, \"38\": {\"I\": 1.0}, \"39\": {\"I\": 1.0}, \"40\": {\"Cs\": 1.0}, \"41\": {\"Cs\": 1.0}, \"42\": {\"K\": 1.0}, \"43\": {\"In\": 1.0}, \"44\": {\"I\": 1.0}, \"45\": {\"I\": 1.0}, \"46\": {\"I\": 1.0}, \"47\": {\"I\": 1.0}, \"48\": {\"I\": 1.0}, \"49\": {\"I\": 1.0}, \"50\": {\"Cs\": 1.0}, \"51\": {\"Cs\": 1.0}, \"52\": {\"K\": 1.0}, \"53\": {\"In\": 1.0}, \"54\": {\"I\": 1.0}, \"55\": {\"I\": 1.0}, \"56\": {\"I\": 1.0}, \"57\": {\"I\": 1.0}, \"58\": {\"I\": 1.0}, \"59\": {\"I\": 1.0}, \"60\": {\"Cs\": 1.0}, \"61\": {\"Cs\": 1.0}, \"62\": {\"K\": 1.0}, \"63\": {\"In\": 1.0}, \"64\": {\"I\": 1.0}, \"65\": {\"I\": 1.0}, \"66\": {\"I\": 1.0}, \"67\": {\"I\": 1.0}, \"68\": {\"I\": 1.0}, \"69\": {\"I\": 1.0}, \"70\": {\"Cs\": 1.0}, \"71\": {\"Cs\": 1.0}, \"72\": {\"K\": 1.0}, \"73\": {\"In\": 1.0}, \"74\": {\"I\": 1.0}, \"75\": {\"I\": 1.0}, \"76\": {\"I\": 1.0}, \"77\": {\"I\": 1.0}, \"78\": {\"I\": 1.0}, \"79\": {\"I\": 1.0}}" energy=-205.03854238471015 free_energy=-205.03854238471015 stress="-3.7562278703249365e-06 3.7876685092668118e-06 -2.2191849278262797e-06 3.7876685092668118e-06 2.772015058851145e-06 -6.894784703684869e-06 -2.2191849278262797e-06 -6.894784703684869e-06 -4.51658233994141e-06" pbc="T T T"
Cs       3.99525980       0.48778017       9.14158270        0       0.00011056       0.00002803       0.00010464
Cs       2.21724644       5.05186407      -1.75974383        1      -0.00026124       0.00027803       0.00005837
K       -1.27894064      -2.15014115       4.55452657        2       0.00025959       0.00007060       0.00004215
In       2.33225535       0.08279792      -0.40079780        3       0.00025987      -0.00004416      -0.00027208
I        8.92650061      -0.79844687       0.25974405        4       0.00045226      -0.00003087      -0.00030740
I       -2.73957247       6.36684032       7.12680209        5      -0.00001527      -0.00012256      -0.00000482
I        3.11334961       2.53349129       1.13192226        6      -0.00002725      -0.00029914      -0.00034673
I        3.13556492       3.01446611       6.24510587        7      -0.00024135      -0.00030052      -0.00003314
I        8.83063303       5.95378020      -0.01145577        8       0.00043835      -0.00024971       0.00030126
I       -2.62968000      -0.44946296       7.39820155        9      -0.00036497       0.00011937      -0.00004849
Cs       1.13505524      -1.56295212      18.40655324       10       0.00029747       0.00005947       0.00004954
Cs      -0.64304255       3.00140299       7.50520696       11      -0.00007353       0.00004098      -0.00026325
K       -4.13863207      -4.20088515      13.81963629       12      -0.00010061      -0.00005928       0.00007009
In      -0.52802363      -1.96790848       8.86405370       13       0.00075603      -0.00031768      -0.00018564
I        6.06703805      -2.84960671       9.52488053       14      -0.00006861      -0.00011553      -0.00007833
I       -5.59946764       4.31567584      16.39195846       15       0.00017575      -0.00000216      -0.00027459
I        0.25301831       0.48279142      10.39634199       16       0.00008616       0.00005301       0.00008483
I        0.27572755       0.96337659      15.50996008       17      -0.00033592      -0.00008009      -0.00011846
I        5.97078526       3.90280852       9.25355700       18       0.00033579       0.00002191       0.00012121
I       -5.48926833      -2.50008439      16.66360911       19      -0.00036639      -0.00034698      -0.00029758
Cs      -0.16749084       8.11617106       9.54202816       20       0.00030503       0.00022270      -0.00012697
Cs      -1.94547069      12.68120815      -1.36048225       21      -0.00036547      -0.00032652       0.00016857
K       -5.44186397       5.47829599       4.95457917       22       0.00035081       0.00027717       0.00008730
In      -1.83056566       7.71164268      -0.00095561       23       0.00004410       0.00022308       0.00071136
I        4.76423864       6.82968189       0.66003962       24      -0.00001947       0.00003777      -0.00013198
I        1.42337769      -1.26192199       6.72684956       25      -0.00057243       0.00006568      -0.00019688
I       -1.04994026      10.16271973       1.53121093       26       0.00018988      -0.00027105      -0.00012346
I       -1.02717536      10.64288971       6.64534167       27      -0.00002092       0.00029242       0.00011626
I        4.66771829      13.58224244       0.38908177       28       0.00033131       0.00002443      -0.00000132
I       -6.79245301       7.17882934       7.79850295       29      -0.00034749       0.00039862      -0.00005299
Cs      -3.02770921       6.06546541      18.80687093       30       0.00029176      -0.00014685       0.00003753
Cs      -4.80550953      10.63008334       7.90502059       31      -0.00033163      -0.00021164       0.00008114
K        8.83800414       3.01957729      11.24973113       32       0.00011057       0.00028538       0.00027126
In      -4.69045987       5.66058244       9.26413915       33       0.00030267       0.00002518       0.00030970
I        1.90449382       4.77899398       9.92513520       34      -0.00016765      -0.00013772       0.00009403
I       -1.43665505      -3.31273331      15.99181465       35      -0.00030234       0.00009744      -0.00004101
I       -3.90954201       8.11125844      10.79641263       36       0.00006213       0.00020074       0.00016686
I       -3.88697106       8.59204262      15.91018520       37      -0.00012830      -0.00013947       0.00021408
I        1.80820128      11.53147784       9.65376762       38       0.00017129      -0.00005406       0.00010376
I       -9.65244751       5.12833677      17.06316446       39       0.00015551      -0.00015407       0.00008442
Cs      12.56490146       0.28374838       7.65653319       40       0.00023239      -0.00003028       0.00006708
Cs      10.78701246       4.84837075      -3.24497760       41      -0.00027551       0.00003793      -0.00029686
K        7.29044620      -2.35379565       3.06950917       42       0.00020863       0.00003408       0.00024574
In      10.90190005      -0.12093735      -1.88585821       43       0.00009367      -0.00004331      -0.00018198
I        0.35725717      -0.59510452       1.74462198       44      -0.00044699      -0.00004206       0.00022092
I        5.83018448       6.16285494       5.64192588       45      -0.00001227       0.00006146      -0.00026415
I       11.68316704       2.32997720      -0.35400740       46       0.00000151      -0.00013084       0.00046589
I       -5.43383270       3.21824802       7.72996934       47      -0.00032738      -0.00062285      -0.00021721
I        0.26084521       6.15787053       1.47415562       48      -0.00015090       0.00023846      -0.00061892
I        5.93994695      -0.65308646       5.91347571       49       0.00022922      -0.00030009       0.00008088
Cs       9.70522605      -1.76726975      16.92151277       50       0.00023616       0.00025468       0.00020897
Cs       7.92706995       2.79753292       6.01991352       51      -0.00028710      -0.00005646      -0.00011738
K        4.43079385      -4.40507428      12.33453500       52       0.00021224       0.00032653       0.00004153
In       8.04197647      -2.17179835       7.37915087       53      -0.00025749      -0.00029859      -0.00048863
I       -2.50298291      -2.64584457      11.00963720       54      -0.00012656       0.00001318      -0.00007329
I        2.97029666       4.11189138      14.90709575       55      -0.00039532      -0.00007158      -0.00043203
I        8.82293293       0.27890421       8.91139001       56       0.00018509       0.00008863      -0.00000410
I       -8.29400869       1.16739438      16.99510384       57      -0.00016318      -0.00039787      -0.00017489
I       -2.59906633       4.10654900      10.73877516       58      -0.00002490       0.00033309      -0.00016560
I        3.08028160      -2.70421007      15.17830883       59      -0.00045288       0.00016073      -0.00001503
Cs       8.40237320       7.91223634       8.05694391       60       0.00025196       0.00014495      -0.00006631
Cs       6.62430580      12.47689878      -2.84496303       61      -0.00028699      -0.00016786       0.00015361
K        3.12785550       5.27462865       3.46992262       62       0.00017503       0.00021980       0.00014200
In       6.73916651       7.50749332      -1.48571395       63      -0.00005821       0.00050926       0.00007091
I       -3.80547756       7.03397060       2.14484364       64      -0.00016586      -0.00018498       0.00006764
I        9.99283253      -1.46576101       5.24154312       65      -0.00022317       0.00008312       0.00003483
I        7.52025057       9.95819597       0.04680526       66      -0.00011109       0.00010413      -0.00017936
I       -9.59666680      10.84673474       8.13023182       67      -0.00027907       0.00000742       0.00000955
I       -3.90200933      13.78584280       1.87364374       68       0.00069568      -0.00006191       0.00029526
I        1.77710573       6.97528788       6.31384874       69       0.00037071      -0.00009426       0.00002917
Cs       5.54214989       5.86120524      17.32154678       70       0.00034222       0.00011247       0.00027625
Cs       3.76414372      10.42613590       6.41979573       71      -0.00021152      -0.00025559       0.00012515
K        0.26793875       3.22368598      12.73460275       72       0.00035642       0.00017019       0.00046468
In       3.87938215       5.45674842       7.77931041       73      -0.00041739       0.00027255       0.00000540
I       -6.66540933       4.98277535      11.40995321       74      -0.00002452      -0.00013015      -0.00002078
I        7.13308382      -3.51661749      14.50674957       75      -0.00020829      -0.00027491      -0.00010412
I        4.66045471       7.90748971       9.31151965       76      -0.00004045       0.00015185       0.00003155
I      -12.45660153       8.79559158      17.39528807       77      -0.00035563       0.00081204      -0.00026739
I       -6.76186815      11.73547846      11.13891350       78       0.00035335      -0.00026499       0.00018764
I       -1.08261489       4.92440543      15.57865243       79      -0.00001769      -0.00011992       0.00009015
