80
Lattice="17.86645831523101 2.076365737786178 4.2068360156096976 6.491914505001374 16.618746281134605 4.250851028711888 5.101929868383196 3.986782078923234 16.180271060572068" Properties=species:S:1:pos:R:3:spacegroup_kinds:I:1:forces:R:3 spacegroup="P 1" unit_cell=conventional occupancy="_JSON {\"0\": {\"Cs\": 1.0}, \"1\": {\"Cs\": 1.0}, \"2\": {\"K\": 1.0}, \"3\": {\"In\": 1.0}, \"4\": {\"I\": 1.0}, \"5\": {\"I\": 1.0}, \"6\": {\"I\": 1.0}, \"7\": {\"I\": 1.0}, \"8\": {\"I\": 1.0}, \"9\": {\"I\": 1.0}, \"10\": {\"Cs\": 1.0}, \"11\": {\"Cs\": 1.0}, \"12\": {\"K\": 1.0}, \"13\": {\"In\": 1.0}, \"14\": {\"I\": 1.0}, \"15\": {\"I\": 1.0}, \"16\": {\"I\": 1.0}, \"17\": {\"I\": 1.0}, \"18\": {\"I\": 1.0}, \"19\": {\"I\": 1.0}, \"20\": {\"Cs\": 1.0}, \"21\": {\"Cs\": 1.0}, \"22\": {\"K\": 1.0}, \"23\": {\"In\": 1.0}, \"24\": {\"I\": 1.0}, \"25\": {\"I\": 1.0}, \"26\": {\"I\": 1.0}, \"27\": {\"I\": 1.0}, \"28\": {\"I\": 1.0}, \"29\": {\"I\": 1.0}, \"30\": {\"Cs\": 1.0}, \"31\": {\"Cs\": 1.0}, \"32\": {\"K\": 1.0}, \"33\": {\"In\": 1.0}, \"34\": {\"I\": 1.0}, \"35\": {\"I\": 1.0}, \"36\": {\"I\": 1.0}, \"37\": {\"I\": 1.0}, \"38\": {\"I\": 1.0}, \"39\": {\"I\": 1.0}, \"40\": {\"Cs\": 1.0}, \"41\": {\"Cs\": 1.0}, \"42\": {\"K\": 1.0}, \"43\": {\"In\": 1.0}, \"44\": {\"I\": 1.0}, \"45\": {\"I\": 1.0}, \"46\": {\"I\": 1.0}, \"47\": {\"I\": 1.0}, \"48\": {\"I\": 1.0}, \"49\": {\"I\": 1.0}, \"50\": {\"Cs\": 1.0}, \"51\": {\"Cs\": 1.0}, \"52\": {\"K\": 1.0}, \"53\": {\"In\": 1.0}, \"54\": {\"I\": 1.0}, \"55\": {\"I\": 1.0}, \"56\": {\"I\": 1.0}, \"57\": {\"I\": 1.0}, \"58\": {\"I\": 1.0}, \"59\": {\"I\": 1.0}, \"60\": {\"Cs\": 1.0}, \"61\": {\"Cs\": 1.0}, \"62\": {\"K\": 1.0}, \"63\": {\"In\": 1.0}, \"64\": {\"I\": 1.0}, \"65\": {\"I\": 1.0}, \"66\": {\"I\": 1.0}, \"67\": {\"I\": 1.0}, \"68\": {\"I\": 1.0}, \"69\": {\"I\": 1.0}, \"70\": {\"Cs\": 1.0}, \"71\": {\"Cs\": 1.0}, \"72\": {\"K\": 1.0}, \"73\": {\"In\": 1.0}, \"74\": {\"I\": 1.0}, \"75\": {\"I\": 1.0}, \"76\": {\"I\": 1.0}, \"77\": {\"I\": 1.0}, \"78\": {\"I\": 1.0}, \"79\": {\"I\": 1.0}}" energy=-205.19142728878975 free_energy=-205.19142728878975 stress="-1.2131090490707571e-05 7.330017298260751e-07 -1.235606338636882e-05 7.330017298260751e-07 -1.0893946392146332e-05 2.4403277827087747e-06 -1.235606338636882e-05 2.4403277827087747e-06 -9.627731523246401e-06" pbc="T T T"
Cs       3.62503226       2.79016417       3.25512307        0       0.00000522      -0.00035977      -0.00003129
Cs      11.10413743       8.55145569       9.06474029        1       0.00056987      -0.00012927      -0.00033243
K        7.36562241       5.67060017       6.15928876        2      -0.00025422      -0.00023238      -0.00001550
In       0.00019311      -0.00024195      -0.00005798        3       0.00004975       0.00040779      -0.00020113
I        5.14518737       3.07628418       7.09570516        4      -0.00027197       0.00040591       0.00000738
I        9.58504579       8.26484390       5.22245814        5      -0.00026310      -0.00054698       0.00058154
I        8.87814734       3.14160243       4.20651603        6      -0.00003923       0.00036087       0.00011380
I        5.85244448       8.19841803       8.11260068        7      -0.00067724       0.00044720       0.00015854
I        4.72568637       6.49187006       3.95345410        8       0.00040977       0.00046617      -0.00038967
I       10.00463777       4.84912780       8.36558415        9      -0.00026437      -0.00052022       0.00036458
Cs       6.17583201       4.78341739      11.34507669       10       0.00025573      -0.00023067       0.00006958
Cs      13.65540425      10.54504220      17.15513872       11       0.00026447      -0.00031161      -0.00049586
K        9.91651276       7.66392970      14.24933215       12      -0.00014149      -0.00007082       0.00014844
In       2.55111530       1.99327382       8.09011633       13       0.00010859       0.00010941      -0.00023369
I        7.69617399       5.06975655      15.18592921       14      -0.00032199       0.00019427      -0.00004214
I       12.13599553      10.25826812      13.31260069       15      -0.00025639      -0.00046560       0.00069450
I       11.42908562       5.13502803      12.29669454       16      -0.00008699       0.00025303       0.00001116
I        8.40296343      10.19193135      16.20273868       17       0.00010312       0.00006381      -0.00020828
I        7.27667779       8.48530907      12.04357438       18       0.00035484       0.00039045      -0.00019613
I       12.55566773       6.84244591      16.45578270       19      -0.00041356      -0.00011710       0.00011832
Cs       6.87107041      11.09952153       5.38059190       20      -0.00008473      -0.00047179      -0.00013389
Cs      14.35010279      16.86087904      11.19018062       21       0.00062925      -0.00015703      -0.00035926
K       10.61136127      13.97982142       8.28444512       22      -0.00005085       0.00006395       0.00037549
In       3.24627602       8.30921651       2.12510936       23      -0.00060083      -0.00027491       0.00069762
I        8.39104612      11.38561948       9.22117142       24      -0.00003575       0.00055401      -0.00014247
I       12.83082976      16.57425038       7.34786736       25       0.00000598      -0.00050882       0.00053972
I       12.12385360      11.45091803       6.33189310       26       0.00028428       0.00058194       0.00029012
I        9.09816616      16.50807170      10.23819084       27      -0.00019213      -0.00038984      -0.00048200
I        7.97170301      14.80132078       6.07886509       28       0.00037127       0.00028076      -0.00013394
I       13.25054344      13.15829126      10.49095869       29      -0.00040581       0.00008261       0.00011704
Cs       9.42187400      13.09285249      13.47064844       30       0.00015988      -0.00031534      -0.00000066
Cs      16.90119087      18.85432749      19.28042453       31       0.00037969      -0.00025284      -0.00048580
K       13.16228629      15.97316824      16.37454339       32       0.00008128       0.00011788       0.00043143
In       5.79705550      10.30269932      10.21545103       33       0.00006313      -0.00042218       0.00003956
I       10.94219345      13.37919648      17.31147701       34      -0.00027025       0.00010712      -0.00028818
I       15.38171233      18.56754834      15.43796905       35       0.00030188      -0.00029761       0.00043193
I       14.67490858      13.44445287      14.42214582       36       0.00027863       0.00023531      -0.00013190
I       11.64910237      18.50127061      18.32812437       37      -0.00011552       0.00010544       0.00001772
I       10.52273461      16.79465117      14.16902619       38       0.00019944       0.00044593      -0.00027980
I       15.80158032      15.15173426      18.58115582       39      -0.00042184      -0.00009612       0.00008042
Cs      12.55816554       3.82819767       5.35840009       40       0.00011020      -0.00018081       0.00008901
Cs      20.03718751       9.58963926      11.16809202       41       0.00085341      -0.00014511      -0.00037382
K       16.29883425       6.70872198       8.26258275       42      -0.00024294      -0.00003846       0.00028141
In       8.93344689       1.03784254       2.10326463       43      -0.00032107       0.00060173       0.00007440
I       14.07829442       4.11449100       9.19917314       44      -0.00001413       0.00040988      -0.00016020
I       18.51813046       9.30304622       7.32593791       45       0.00012043      -0.00031308       0.00032164
I       17.81127908       4.17996620       6.31004860       46       0.00017259      -0.00012551      -0.00024075
I       14.78532020       9.23674451      10.21606139       47      -0.00002973      -0.00004086      -0.00005881
I       13.65915795       7.53022434       6.05706238       48       0.00014967       0.00012443      -0.00065183
I       18.93782727       5.88716924      10.46895371       49      -0.00029718      -0.00011119       0.00042165
Cs      15.10904738       5.82163861      13.44852302       50       0.00015246      -0.00022451       0.00004246
Cs      22.58847724      11.58308744      19.25845063       51       0.00042632      -0.00015334      -0.00039431
K       18.84978634       8.70209251      16.35266102       52      -0.00019523      -0.00006189       0.00033906
In      11.48432392       3.03127605      10.19348706       53      -0.00012018       0.00052212      -0.00000121
I       16.62931745       6.10790197      17.28935321       54       0.00003583       0.00028942      -0.00028084
I       21.06919098      11.29646499      15.41608964       55      -0.00011532      -0.00034113       0.00044651
I       20.36239292       6.17327103      14.40017967       56      -0.00005266       0.00019171      -0.00010144
I       17.33609157      11.23013227      18.30605608       57       0.00040188      -0.00007156       0.00005094
I       16.21007145       9.52353397      14.14714900       58       0.00016660       0.00044122      -0.00054765
I       21.48898138       7.88054023      18.55920291       59      -0.00061453       0.00001722       0.00001987
Cs      15.80417230      12.13765317       7.48391319       60      -0.00000770      -0.00035608      -0.00001368
Cs      23.28332423      17.89903436      13.29358068       61       0.00057115      -0.00003386      -0.00032490
K       19.54481269      15.01816289      10.38812684       62      -0.00028781      -0.00027249       0.00001558
In      12.17948605       9.34722788       4.22872680       63      -0.00032063       0.00040724      -0.00014285
I       17.32433373      12.42383162      11.32458151       64      -0.00013166       0.00048992      -0.00009595
I       21.76408474      17.61231724       9.45123122       65       0.00000239      -0.00027611       0.00056219
I       21.05711857      12.48908575       8.43525807       66       0.00027846       0.00062444       0.00028028
I       18.03161122      17.54613767      12.34150819       67      -0.00050750      -0.00012994      -0.00017432
I       16.90503040      15.83962870       8.18238677       68       0.00032354      -0.00001659      -0.00032343
I       22.18375921      14.19655854      12.59433947       69      -0.00024072      -0.00021607       0.00038347
Cs      18.35509709      14.13098001      15.57400990       70       0.00004175      -0.00017992       0.00008569
Cs      25.83436355      19.89249583      21.38378066       71       0.00054812      -0.00020730      -0.00038041
K       22.09587065      17.01155793      18.47827021       72      -0.00041078      -0.00015295       0.00008818
In      14.73035625      11.34080195      12.31886308       73      -0.00007755      -0.00016877       0.00009489
I       19.87529736      14.41731570      19.41481419       74      -0.00005679       0.00021031      -0.00025219
I       24.31506733      19.60576069      17.54140530       75      -0.00004150      -0.00018472       0.00064176
I       23.60832154      14.48269664      16.52569911       76       0.00000630       0.00011286      -0.00034799
I       20.58218410      19.53949986      20.43148633       77       0.00001754      -0.00001217       0.00004575
I       19.45605908      17.83298624      16.27255537       78       0.00016950       0.00013326      -0.00031398
I       24.73467930      16.18992687      20.68451178       79      -0.00017038      -0.00006427       0.00019092
