10
Lattice="17.42631188600527 -8.390196962599648 3.224978926592718 17.93628272406702 -0.32379467903290465 3.902369711796907 8.337360866166163 -10.52389869962002 5.1241880479551964" Properties=species:S:1:pos:R:3:spacegroup_kinds:I:1:forces:R:3 spacegroup="P 1" unit_cell=conventional occupancy="_JSON {\"0\": {\"Cs\": 1.0}, \"1\": {\"Cs\": 1.0}, \"2\": {\"K\": 1.0}, \"3\": {\"In\": 1.0}, \"4\": {\"I\": 1.0}, \"5\": {\"I\": 1.0}, \"6\": {\"I\": 1.0}, \"7\": {\"I\": 1.0}, \"8\": {\"I\": 1.0}, \"9\": {\"I\": 1.0}}" energy=-25.355790415489828 free_energy=-25.355790415489828 stress="2.8846396388305774e-07 -7.38562280746368e-07 4.078919093189567e-07 -7.38562280746368e-07 -9.526602220371641e-07 1.029307653702801e-07 4.078919093189567e-07 1.029307653702801e-07 2.1734596602053354e-06" pbc="T T T"
Cs       8.73108762       0.19490383       3.22829840        0       0.00011936       0.00003632      -0.00001368
Cs      36.78152155     -14.93615666       8.70301817        1      -0.00001895       0.00001354       0.00009048
K       23.08409033     -12.49182416       7.56382168        2      -0.00018736       0.00009603      -0.00010365
In      14.10728657      -6.40359767       4.49179263        3      -0.00018196      -0.00003388       0.00038171
I       39.81920290     -16.27589050      10.83017131        4       0.00002641      -0.00011139       0.00003405
I        8.70083186      -3.81079259       2.88805243        5       0.00008901       0.00003763      -0.00002157
I       24.57070853     -14.93515569       9.73298189        6       0.00002497       0.00025960      -0.00010414
I       21.34329790     -11.49957681       4.24992130        7       0.00021901      -0.00019442      -0.00021971
I       29.33123496     -16.84000679       7.13464466        8      -0.00010524      -0.00001921       0.00002644
I        7.63670625       2.00496222      -0.51732065        9       0.00001475      -0.00008423      -0.00006994
