5
Lattice="6.386988638028802 -2.2295905753491712e-10 2.7821618645586654e-17 -2.2295908144966836e-10 6.386988638028792 -4.056290027928526e-17 4.938286796354815e-17 -4.0704774776958655e-17 6.386988637998974" Properties=species:S:1:pos:R:3:spacegroup_kinds:I:1:forces:R:3 spacegroup="P 1" unit_cell=conventional occupancy="_JSON {\"0\": {\"Cs\": 1.0}, \"1\": {\"Pb\": 1.0}, \"2\": {\"I\": 1.0}, \"3\": {\"I\": 1.0}, \"4\": {\"I\": 1.0}}" energy=-13.980742410942392 free_energy=-13.980742410942392 stress="-3.538540532896973e-06 -1.9239944937079157e-12 2.9479137711044866e-19 -1.9239944937079157e-12 -3.538540533211866e-06 -6.970560264815945e-18 2.9479137711044866e-19 -6.970560264815945e-18 -3.5385405918671547e-06" pbc="T T T"
Cs       3.19352492       3.19346372       3.19349432        0       0.00000095      -0.00000095      -0.00000000
Pb       0.00000095      -0.00000095      -0.00000000        1       0.00000069      -0.00000069      -0.00000000
I        0.00000256      -0.00000256       3.19349432        2      -0.00000224       0.00000224      -0.00000000
I        3.19349487      -0.00000256      -0.00000000        3       0.00000285       0.00000224       0.00000000
I        0.00000256       3.19349376      -0.00000000        4      -0.00000224      -0.00000285       0.00000000
