5
Lattice="5.748354332581776 0.0 0.0 0.0 5.748354332581775 0.0 0.0 0.0 5.748354332581775" Properties=species:S:1:pos:R:3:oxi_states:R:1 pbc="T T T"
Cs       2.87421067       2.87414366       2.87417717       1.00000000
Pb      -0.00000000      -0.00000000       0.00000000       2.00000000
I        0.00000000      -0.00000000       2.87417717      -1.00000000
I        2.87417717       0.00000000      -0.00000000      -1.00000000
I       -0.00000000       2.87417717       0.00000000      -1.00000000
