40
Lattice="10.7777574080743 0.0 0.0 -5.473407983922922 13.562964008641133 0.0 -1.5157580346314539 -0.6910400656260239 10.778189981074124" Properties=species:S:1:pos:R:3:oxi_states:R:1 pbc="T T T"
Cs       0.94746046       3.21766837       2.69454749       1.00000000
Pb      -0.00000000      -0.00000000       0.00000000       2.00000000
I       -0.37893951      -0.17276002       2.69454750      -1.00000000
I        2.69443935       0.00000000      -0.00000000      -1.00000000
I       -1.36835200       3.39074100       0.00000000      -1.00000000
Cs       0.18958145       2.87214833       8.08364249       1.00000000
Pb      -0.75787902      -0.34552003       5.38909499       2.00000000
I       -1.13681853      -0.51828005       8.08364249      -1.00000000
I        1.93656033      -0.34552003       5.38909499      -1.00000000
I       -2.12623101       3.04522097       5.38909499      -1.00000000
Cs      -1.78924353       9.99915037       2.69454749       1.00000000
Pb      -2.73670399       6.78148200       0.00000000       2.00000000
I       -3.11564350       6.60872199       2.69454750      -1.00000000
I       -0.04226464       6.78148200      -0.00000000      -1.00000000
I       -4.10505599      10.17222301       0.00000000      -1.00000000
Cs      -2.54712255       9.65363034       8.08364249       1.00000000
Pb      -3.49458301       6.43596197       5.38909499       2.00000000
I       -3.87352252       6.26320196       8.08364249      -1.00000000
I       -0.80014366       6.43596197       5.38909499      -1.00000000
I       -4.86293501       9.82670297       5.38909499      -1.00000000
Cs       6.33633917       3.21766837       2.69454749       1.00000000
Pb       5.38887870      -0.00000000       0.00000000       2.00000000
I        5.00993920      -0.17276002       2.69454750      -1.00000000
I        8.08331806       0.00000000      -0.00000000      -1.00000000
I        4.02052671       3.39074100       0.00000000      -1.00000000
Cs       5.57846015       2.87214833       8.08364249       1.00000000
Pb       4.63099969      -0.34552003       5.38909499       2.00000000
I        4.25206018      -0.51828005       8.08364249      -1.00000000
I        7.32543904      -0.34552003       5.38909499      -1.00000000
I        3.26264769       3.04522097       5.38909499      -1.00000000
Cs       3.59963518       9.99915037       2.69454749       1.00000000
Pb       2.65217471       6.78148200       0.00000000       2.00000000
I        2.27323520       6.60872199       2.69454750      -1.00000000
I        5.34661406       6.78148200      -0.00000000      -1.00000000
I        1.28382272      10.17222301       0.00000000      -1.00000000
Cs       2.84175616       9.65363034       8.08364249       1.00000000
Pb       1.89429569       6.43596197       5.38909499       2.00000000
I        1.51535619       6.26320196       8.08364249      -1.00000000
I        4.58873505       6.43596197       5.38909499      -1.00000000
I        0.52594370       9.82670297       5.38909499      -1.00000000
