20
Lattice="21.43964916017624 0.0 0.0 -5.363805680721436 9.290383960936099 0.0 0.0 1.726593204351259 8.261694797915277" Properties=species:S:1:pos:R:3 pbc="T T T"
Cs       5.15580025       3.19219421       0.02629766
Cs      -0.20540983       8.00458639       8.23537849
K       -0.20281081       0.95320114       4.13084750
In      -0.20281544       0.08990383       0.00000779
I       -1.59118287       2.88155598       1.65268900
I        6.54157125       8.31523940       6.60900937
I        1.21947829       3.89657234       6.60901339
I        3.73090934       7.30019741       1.65269301
I       -2.75595722       9.70489610       1.65268934
I        7.70634996       1.49188488       6.60900972
Cs      15.87562483       3.19219421       0.02629766
Cs      10.51441475       8.00458639       8.23537849
K       10.51701377       0.95320114       4.13084750
In      10.51700914       0.08990383       0.00000779
I        9.12864171       2.88155598       1.65268900
I       17.26139583       8.31523940       6.60900937
I       11.93930287       3.89657234       6.60901339
I       14.45073392       7.30019741       1.65269301
I        7.96386736       9.70489610       1.65268934
I       18.42617454       1.49188488       6.60900972
