20
Lattice="18.590293279858052 0.010841901556600851 -0.00027837913932644593 -4.651963089562492 8.015159185893767 -0.7888685640638968 0.003702852326812754 0.8647404121495219 8.78659135216523" Properties=species:S:1:pos:R:3:spacegroup_kinds:I:1:forces:R:3 spacegroup="P 1" unit_cell=conventional occupancy="_JSON {\"0\": {\"Cs\": 1.0}, \"1\": {\"Cs\": 1.0}, \"2\": {\"K\": 1.0}, \"3\": {\"In\": 1.0}, \"4\": {\"I\": 1.0}, \"5\": {\"I\": 1.0}, \"6\": {\"I\": 1.0}, \"7\": {\"I\": 1.0}, \"8\": {\"I\": 1.0}, \"9\": {\"I\": 1.0}, \"10\": {\"Cs\": 1.0}, \"11\": {\"Cs\": 1.0}, \"12\": {\"K\": 1.0}, \"13\": {\"In\": 1.0}, \"14\": {\"I\": 1.0}, \"15\": {\"I\": 1.0}, \"16\": {\"I\": 1.0}, \"17\": {\"I\": 1.0}, \"18\": {\"I\": 1.0}, \"19\": {\"I\": 1.0}}" energy=-51.587628016096076 free_energy=-51.587628016096076 stress="-9.783840600496278e-06 7.279527706069241e-07 4.020040045563852e-06 7.279527706069241e-07 1.0845054698932297e-05 -2.2619891422150468e-07 4.020040045563852e-06 -2.2619891422150468e-07 3.356711448442517e-06" pbc="T T T"
Cs       4.47018114       2.75378059      -0.27405626        0       0.00001104      -0.00009096      -0.00005810
Cs      -0.17507591       6.28643546       8.25641245        1       0.00003159       0.00024619      -0.00009012
K       18.41627679       0.52072688       4.38544867        2       0.00007187       0.00004268      -0.00018888
In      18.41430410       0.08830084      -0.00787748        3       0.00047132      -0.00003740       0.00000517
I       17.19317579       2.36130434       1.54361140        4      -0.00012992      -0.00012953       0.00021216
I        5.69227602       6.68998952       6.43822341        5       0.00007577      -0.00017411       0.00028250
I        1.04312007       2.87236987       6.81371864        6       0.00008928       0.00024054      -0.00003492
I        3.25206102       6.16783075       1.16875576        7      -0.00010243      -0.00001607      -0.00018859
I        2.26293299       0.25396329       1.74917521        8      -0.00036445      -0.00010515       0.00005560
I        6.68428984       0.77117706       7.02194222        9      -0.00015405       0.00002383       0.00000513
Cs      13.76532778       2.75920154      -0.27419545       10       0.00001104      -0.00009096      -0.00005810
Cs       9.12007073       6.29185641       8.25627326       11       0.00003159       0.00024620      -0.00009012
K        9.12113015       0.51530593       4.38558786       12       0.00007187       0.00004267      -0.00018889
In       9.11915746       0.08287989      -0.00773830       13       0.00047131      -0.00003743       0.00000525
I        7.89802915       2.35588339       1.54375059       14      -0.00012992      -0.00012954       0.00021216
I       14.98742266       6.69541047       6.43808422       15       0.00007576      -0.00017411       0.00028251
I       10.33826671       2.87779082       6.81357945       16       0.00008929       0.00024056      -0.00003494
I       12.54720766       6.17325170       1.16861656       17      -0.00010244      -0.00001609      -0.00018856
I       11.55807963       0.25938424       1.74903602       18      -0.00036446      -0.00010515       0.00005559
I       15.97943648       0.77659801       7.02180303       19      -0.00015404       0.00002383       0.00000514
