20
Lattice="18.681346226044017 0.0 0.0 7.176679087617854 5.011553173701798 0.0 5.404944791219893 4.220511798038982 4.683590773210973" Properties=species:S:1:pos:R:3 pbc="T T T"
Cs       5.48040335       2.30796475       1.17093669
Cs      16.44189338       6.92409884       3.51265317
K       10.96114828       4.61603156       2.34179474
In       0.00000031       0.00000086       0.00000038
I        9.67251128       2.02121343       0.99850903
I       12.24978522       7.21084900       3.68508052
I       14.19741646       3.09702219       2.68064607
I        7.72487730       6.13504061       2.00294266
I        9.67041861       3.39675935      -0.50399625
I       12.25187868       5.83530853       5.18758882
Cs      14.82107646       2.30796475       1.17093669
Cs      25.78256649       6.92409884       3.51265317
K       20.30182139       4.61603156       2.34179474
In       9.34067342       0.00000086       0.00000038
I       19.01318440       2.02121343       0.99850903
I       21.59045833       7.21084900       3.68508052
I       23.53808957       3.09702219       2.68064607
I       17.06555041       6.13504061       2.00294266
I       19.01109173       3.39675935      -0.50399625
I       21.59255179       5.83530853       5.18758882
