20
Lattice="22.40037714073423 -4.916131282545925 -8.924892802906465 7.456566748161268 6.341530297985929 -1.7797587693228816 3.6480028847133332 6.760314790465229 6.590853473093526" Properties=species:S:1:pos:R:3:spacegroup_kinds:I:1:forces:R:3 spacegroup="P 1" unit_cell=conventional occupancy="_JSON {\"0\": {\"Cs\": 1.0}, \"1\": {\"Cs\": 1.0}, \"2\": {\"K\": 1.0}, \"3\": {\"In\": 1.0}, \"4\": {\"I\": 1.0}, \"5\": {\"I\": 1.0}, \"6\": {\"I\": 1.0}, \"7\": {\"I\": 1.0}, \"8\": {\"I\": 1.0}, \"9\": {\"I\": 1.0}, \"10\": {\"Cs\": 1.0}, \"11\": {\"Cs\": 1.0}, \"12\": {\"K\": 1.0}, \"13\": {\"In\": 1.0}, \"14\": {\"I\": 1.0}, \"15\": {\"I\": 1.0}, \"16\": {\"I\": 1.0}, \"17\": {\"I\": 1.0}, \"18\": {\"I\": 1.0}, \"19\": {\"I\": 1.0}}" energy=-51.30701487760303 free_energy=-51.30701487760303 stress="1.1517649481439279e-05 4.94307855798083e-06 -6.178544603700765e-06 4.94307855798083e-06 -1.5827426201228033e-05 -1.0340933602800927e-05 -6.178544603700765e-06 -1.0340933602800927e-05 -1.5046887132406689e-05" pbc="T T T"
Cs       4.88843436       3.85220553       2.23893878        0       0.00010074      -0.00023037       0.00040658
Cs      17.41597351       6.79128971      -1.89017223        1       0.00020637       0.00039074      -0.00040490
K       11.15241849       5.32194291       0.17438642        2      -0.00005726       0.00001156      -0.00001180
In      22.40036545      -4.91649487      -8.92477053        3       0.00015636       0.00034663      -0.00028663
I        7.95939326       3.90442310      -0.08879403        4      -0.00011427       0.00007911      -0.00039847
I       14.34543213       6.73935743       0.43778156        5       0.00017135      -0.00017292      -0.00003097
I       13.32824807       2.57627894       0.19027102        6       0.00014307       0.00008376       0.00021884
I       31.37661520       3.15136141      -8.76651688        7       0.00028973      -0.00002253      -0.00001884
I       13.65380146      12.56827823       3.31774334        8      -0.00023017      -0.00020094       0.00005144
I        8.65119973      -1.92412361      -2.96907728        9      -0.00003069      -0.00039014       0.00010191
Cs      16.08865623       1.39350610      -2.22317719       10       0.00043736       0.00031487      -0.00006170
Cs      28.61608772       4.33393626      -6.35328267       11      -0.00014696      -0.00002360       0.00003098
K       22.35271535       2.86418983      -4.28826293       12      -0.00012319      -0.00021212       0.00011717
In      11.20034456      -2.45799200      -4.46253160       13      -0.00027949      -0.00000413       0.00001784
I       19.15975196       1.44691456      -4.55121843       14      -0.00036586      -0.00004559      -0.00027282
I       25.54562498       4.28074004      -4.02498069       15       0.00019980       0.00023642       0.00045763
I        2.12793254       5.03426258       4.65277618       16       0.00003830      -0.00019326       0.00000113
I       20.17672037       5.60994508      -4.30442362       17       0.00010537      -0.00022425       0.00022634
I       24.85416351      10.10992044      -1.14481217       18      -0.00037727       0.00001471       0.00015438
I       19.85120276      -4.38272452      -7.43140664       19      -0.00012331       0.00024205      -0.00029813
