20
Lattice="16.981324658574366 2.3123816650891507 -1.8148544048739201 -5.322016746622393 6.7779145100477445 -0.22330410052099178 0.8006308514347089 0.9139589934109812 8.665279125747745" Properties=species:S:1:pos:R:3:spacegroup_kinds:I:1:forces:R:3 spacegroup="P 1" unit_cell=conventional occupancy="_JSON {\"0\": {\"Cs\": 1.0}, \"1\": {\"Cs\": 1.0}, \"2\": {\"K\": 1.0}, \"3\": {\"In\": 1.0}, \"4\": {\"I\": 1.0}, \"5\": {\"I\": 1.0}, \"6\": {\"I\": 1.0}, \"7\": {\"I\": 1.0}, \"8\": {\"I\": 1.0}, \"9\": {\"I\": 1.0}, \"10\": {\"Cs\": 1.0}, \"11\": {\"Cs\": 1.0}, \"12\": {\"K\": 1.0}, \"13\": {\"In\": 1.0}, \"14\": {\"I\": 1.0}, \"15\": {\"I\": 1.0}, \"16\": {\"I\": 1.0}, \"17\": {\"I\": 1.0}, \"18\": {\"I\": 1.0}, \"19\": {\"I\": 1.0}}" energy=-51.5515595202368 free_energy=-51.5515595202368 stress="-3.645557214537475e-06 -4.570343215733032e-06 1.533233156312664e-06 -4.570343215733032e-06 -1.1203017812793043e-06 -8.61695231869232e-07 1.533233156312664e-06 -8.61695231869232e-07 -3.078485552075766e-06" pbc="T T T"
Cs       5.73505144       4.20589978       9.10765379        0      -0.00017226       0.00016230       0.00000555
Cs       0.10230611       4.90735987      -1.77377624        1      -0.00000755       0.00006087      -0.00026801
K        1.33343172       0.59012354       4.23236301        2       0.00064250      -0.00041188      -0.00015209
In       0.93448400       0.13264257      -0.10038322        3      -0.00020754      -0.00002552      -0.00046937
I        7.51600943       0.24146587       1.03975539        4       0.00023934      -0.00006861       0.00059801
I        3.64339004       2.09416923       6.51658378        5      -0.00005309      -0.00009329       0.00016507
I        1.04392440       2.72940202       1.37651886        6      -0.00021610       0.00012334      -0.00010824
I        4.79417652       6.38405152       5.95702024        7       0.00003165       0.00017343       0.00033423
I        6.38070582       7.06522454       0.42580381        8      -0.00026435      -0.00013177       0.00001023
I       -0.54300910       2.04837347       6.90844123        9       0.00000537       0.00020690      -0.00011453
Cs      14.22571383       5.36209066       8.20022656       10      -0.00017278       0.00016212       0.00000561
Cs       8.59296840       6.06355069      -2.68120344       11      -0.00000706       0.00006094      -0.00026795
K        9.82409397       1.74631419       3.32493595       12       0.00064294      -0.00041091      -0.00015267
In       9.42514597       1.28883245      -1.00781026       13      -0.00020466      -0.00001931      -0.00046971
I       16.00667156       1.39765644       0.13232842       14       0.00024099      -0.00006738       0.00059656
I       12.13405237       3.25036005       5.60915658       15      -0.00005391      -0.00009382       0.00016582
I        9.53458680       3.88559323       0.46909166       16      -0.00021634       0.00012089      -0.00010895
I       13.28483874       7.54024185       5.04959307       17       0.00003199       0.00017638       0.00033494
I       -2.10995655       5.90903363       1.33323108       18      -0.00026403      -0.00013142       0.00000994
I        7.94765328       3.20456432       6.00101401       19       0.00000488       0.00020674      -0.00011444
