20
Lattice="16.10521237490322 0.0 0.0 2.7641138523085225 7.642061179418928 0.0 1.4864002670626375 1.9619022142080595 8.764515088978412" Properties=species:S:1:pos:R:3 pbc="T T T"
Cs       3.07572047       2.40097296       2.19114933
Cs       9.22739978       7.20298992       6.57336542
K        6.15156011       4.80198135       4.38225738
In       0.00000014       0.00000029       0.00000013
I        4.24120852       2.45259851       5.90589086
I        8.06191166       7.15136404       2.85862389
I        8.78454470       2.19767383       2.99756972
I        3.51857432       7.40628895       5.76694457
I        4.78173736       5.45854042       1.07610546
I        7.52138295       4.14542437       7.68841064
Cs      11.12832665       2.40097296       2.19114933
Cs      17.28000596       7.20298992       6.57336542
K       14.20416630       4.80198135       4.38225738
In       8.05260633       0.00000029       0.00000013
I       12.29381471       2.45259851       5.90589086
I       16.11451785       7.15136404       2.85862389
I       16.83715089       2.19767383       2.99756972
I       11.57118051       7.40628895       5.76694457
I       12.83434354       5.45854042       1.07610546
I       15.57398913       4.14542437       7.68841064
