20
Lattice="17.403135084309096 0.9014182314045271 1.9547539657606674 3.436825226558114 8.020885187805888 0.5470142346170617 2.8999553771968283 2.454883426390237 7.849455840692404" Properties=species:S:1:pos:R:3:spacegroup_kinds:I:1:forces:R:3 spacegroup="P 1" unit_cell=conventional occupancy="_JSON {\"0\": {\"Cs\": 1.0}, \"1\": {\"Cs\": 1.0}, \"2\": {\"K\": 1.0}, \"3\": {\"In\": 1.0}, \"4\": {\"I\": 1.0}, \"5\": {\"I\": 1.0}, \"6\": {\"I\": 1.0}, \"7\": {\"I\": 1.0}, \"8\": {\"I\": 1.0}, \"9\": {\"I\": 1.0}, \"10\": {\"Cs\": 1.0}, \"11\": {\"Cs\": 1.0}, \"12\": {\"K\": 1.0}, \"13\": {\"In\": 1.0}, \"14\": {\"I\": 1.0}, \"15\": {\"I\": 1.0}, \"16\": {\"I\": 1.0}, \"17\": {\"I\": 1.0}, \"18\": {\"I\": 1.0}, \"19\": {\"I\": 1.0}}" energy=-51.29786018309624 free_energy=-51.29786018309624 stress="-7.33116198170095e-06 2.2339598113063537e-06 2.662907312749272e-06 2.2339598113063537e-06 3.1090866349267455e-06 -3.2948881605588336e-06 2.662907312749272e-06 -3.2948881605588336e-06 4.9975904263757125e-06" pbc="T T T"
Cs       3.61652650       2.64020256       2.25693474        0      -0.00003385       0.00033496       0.00003783
Cs      11.42195089       8.28538903       7.11673533        1      -0.00018610       0.00021965       0.00013480
K        7.51845554       5.46387805       4.68660998        2       0.00057521      -0.00060137       0.00034313
In      -0.00023977       0.00018753       0.00024698        3       0.00006812      -0.00009260      -0.00038036
I        4.65268558       4.44115669       6.49047339        4       0.00001916       0.00010589       0.00020747
I       10.38542296       6.48508876       2.88284303        5      -0.00003843       0.00008603       0.00033363
I        8.30283605       2.32916327       3.24850331        6      -0.00048999      -0.00009955      -0.00027026
I        6.73698408       8.59763568       6.12596651        7      -0.00055587       0.00000314      -0.00014890
I        5.80508961       6.84202205       1.91465307        8       0.00026032       0.00000774      -0.00006548
I        9.23288461       4.08442670       7.45935390        9       0.00015923       0.00005054      -0.00022446
Cs      12.31809123       3.09091373       3.23431266       10      -0.00000975       0.00031454       0.00002033
Cs      20.12352113       8.73609619       8.09411136       11      -0.00020961       0.00023963       0.00015227
K       16.22002284       5.91458737       5.66398693       12       0.00057642      -0.00060241       0.00034313
In       8.70126442       0.45089439       0.97760590       13       0.00051943      -0.00012343      -0.00031798
I       13.35426407       4.89187474       7.46784899       14      -0.00006242       0.00004027       0.00025624
I       19.08698011       6.93578969       3.86022124       15       0.00004014       0.00014824       0.00028658
I       17.00440265       2.77987502       4.22588224       16      -0.00047660      -0.00012493      -0.00029212
I       15.43855239       9.04834099       7.10334091       17      -0.00056973       0.00003311      -0.00012284
I       14.50668256       7.29272380       2.89204310       18       0.00008789       0.00008992      -0.00016151
I       17.93442813       4.53514297       8.43671853       19       0.00032643      -0.00002936      -0.00013151
