20
Lattice="17.384194950207206 -0.49788333039773036 -0.3729543844372375 4.131243230689656 7.748073758249629 -0.20531954166397792 4.12751402331204 2.3920158153008377 7.336423825088562" Properties=species:S:1:pos:R:3:spacegroup_kinds:I:1:forces:R:3 spacegroup="P 1" unit_cell=conventional occupancy="_JSON {\"0\": {\"Cs\": 1.0}, \"1\": {\"Cs\": 1.0}, \"2\": {\"K\": 1.0}, \"3\": {\"In\": 1.0}, \"4\": {\"I\": 1.0}, \"5\": {\"I\": 1.0}, \"6\": {\"I\": 1.0}, \"7\": {\"I\": 1.0}, \"8\": {\"I\": 1.0}, \"9\": {\"I\": 1.0}, \"10\": {\"Cs\": 1.0}, \"11\": {\"Cs\": 1.0}, \"12\": {\"K\": 1.0}, \"13\": {\"In\": 1.0}, \"14\": {\"I\": 1.0}, \"15\": {\"I\": 1.0}, \"16\": {\"I\": 1.0}, \"17\": {\"I\": 1.0}, \"18\": {\"I\": 1.0}, \"19\": {\"I\": 1.0}}" energy=-51.297860365618114 free_energy=-51.297860365618114 stress="-3.3289006886522907e-06 2.821158311727009e-07 -3.1931997627483273e-06 2.821158311727009e-07 2.3050001316481404e-06 3.9856047393738416e-07 -3.1931997627483273e-06 3.9856047393738416e-07 9.206411123079864e-06" pbc="T T T"
Cs       4.08591719       2.37013970       1.68796885        0      -0.00047481       0.00024489       0.00009529
Cs      12.86613221       7.52088329       5.25571241        1      -0.00019980       0.00001688       0.00049645
K        8.47532633       4.94594183       3.47309230        2       0.00005097      -0.00036963      -0.00051146
In      17.38401139      -0.49806070      -0.37270123        3       0.00056871       0.00000294       0.00014951
I        8.70104699       1.71267060       2.05488902        4       0.00023001      -0.00005831       0.00026108
I        8.24919098       8.17904690       4.88927140        5       0.00003311      -0.00028431       0.00017420
I       11.11897457       5.67318484       1.23258116        6       0.00026691       0.00005713       0.00003188
I       23.21571392       3.71962324       5.33935258        7       0.00020381       0.00019153      -0.00030838
I        6.55725480       6.43947371       0.90537322        8      -0.00037686       0.00005212      -0.00030249
I       10.39359217       3.45155121       6.03946017        9       0.00004906      -0.00025616      -0.00024426
Cs      12.77801741       2.12117233       1.50152922       10      -0.00052393       0.00030537       0.00003260
Cs      21.55822397       7.27194620       5.06921606       11      -0.00015130      -0.00001037       0.00051508
K       17.16741326       4.69698416       3.28664745       12       0.00009610      -0.00035777      -0.00059147
In       8.69195486      -0.24929078      -0.18627116       13       0.00025125       0.00090437       0.00004684
I       17.39315924       1.46379548       1.86842543       14       0.00017034      -0.00009328       0.00037717
I       16.94129555       7.93001339       4.70275059       15       0.00006915      -0.00010062       0.00022720
I        2.42689069       5.92207691       1.41900921       16       0.00026993       0.00025064       0.00008288
I       14.52371833       3.96869476       5.52577041       17      -0.00018816      -0.00027695      -0.00004351
I       15.24926099       6.19059989       0.71892541       18       0.00002321      -0.00018544      -0.00031318
I       19.08576220       3.20257537       5.85290988       19      -0.00036771      -0.00003303      -0.00017543
