80
Lattice="23.696120135174514 -6.404547341551382 0.9514156508994457 10.08427529705663 13.915020869464755 -1.347767373020397 -2.945672005550815 13.775080817453585 9.935596763363774" Properties=species:S:1:pos:R:3:spacegroup_kinds:I:1:forces:R:3 spacegroup="P 1" unit_cell=conventional occupancy="_JSON {\"0\": {\"Cs\": 1.0}, \"1\": {\"Cs\": 1.0}, \"2\": {\"K\": 1.0}, \"3\": {\"In\": 1.0}, \"4\": {\"I\": 1.0}, \"5\": {\"I\": 1.0}, \"6\": {\"I\": 1.0}, \"7\": {\"I\": 1.0}, \"8\": {\"I\": 1.0}, \"9\": {\"I\": 1.0}, \"10\": {\"Cs\": 1.0}, \"11\": {\"Cs\": 1.0}, \"12\": {\"K\": 1.0}, \"13\": {\"In\": 1.0}, \"14\": {\"I\": 1.0}, \"15\": {\"I\": 1.0}, \"16\": {\"I\": 1.0}, \"17\": {\"I\": 1.0}, \"18\": {\"I\": 1.0}, \"19\": {\"I\": 1.0}, \"20\": {\"Cs\": 1.0}, \"21\": {\"Cs\": 1.0}, \"22\": {\"K\": 1.0}, \"23\": {\"In\": 1.0}, \"24\": {\"I\": 1.0}, \"25\": {\"I\": 1.0}, \"26\": {\"I\": 1.0}, \"27\": {\"I\": 1.0}, \"28\": {\"I\": 1.0}, \"29\": {\"I\": 1.0}, \"30\": {\"Cs\": 1.0}, \"31\": {\"Cs\": 1.0}, \"32\": {\"K\": 1.0}, \"33\": {\"In\": 1.0}, \"34\": {\"I\": 1.0}, \"35\": {\"I\": 1.0}, \"36\": {\"I\": 1.0}, \"37\": {\"I\": 1.0}, \"38\": {\"I\": 1.0}, \"39\": {\"I\": 1.0}, \"40\": {\"Cs\": 1.0}, \"41\": {\"Cs\": 1.0}, \"42\": {\"K\": 1.0}, \"43\": {\"In\": 1.0}, \"44\": {\"I\": 1.0}, \"45\": {\"I\": 1.0}, \"46\": {\"I\": 1.0}, \"47\": {\"I\": 1.0}, \"48\": {\"I\": 1.0}, \"49\": {\"I\": 1.0}, \"50\": {\"Cs\": 1.0}, \"51\": {\"Cs\": 1.0}, \"52\": {\"K\": 1.0}, \"53\": {\"In\": 1.0}, \"54\": {\"I\": 1.0}, \"55\": {\"I\": 1.0}, \"56\": {\"I\": 1.0}, \"57\": {\"I\": 1.0}, \"58\": {\"I\": 1.0}, \"59\": {\"I\": 1.0}, \"60\": {\"Cs\": 1.0}, \"61\": {\"Cs\": 1.0}, \"62\": {\"K\": 1.0}, \"63\": {\"In\": 1.0}, \"64\": {\"I\": 1.0}, \"65\": {\"I\": 1.0}, \"66\": {\"I\": 1.0}, \"67\": {\"I\": 1.0}, \"68\": {\"I\": 1.0}, \"69\": {\"I\": 1.0}, \"70\": {\"Cs\": 1.0}, \"71\": {\"Cs\": 1.0}, \"72\": {\"K\": 1.0}, \"73\": {\"In\": 1.0}, \"74\": {\"I\": 1.0}, \"75\": {\"I\": 1.0}, \"76\": {\"I\": 1.0}, \"77\": {\"I\": 1.0}, \"78\": {\"I\": 1.0}, \"79\": {\"I\": 1.0}}" energy=-206.20624246032583 free_energy=-206.20624246032583 stress="8.809162258422511e-07 -1.0433386222019269e-06 1.708295591332152e-06 -1.0433386222019269e-06 4.339972196277943e-07 -4.3310109682799497e-07 1.708295591332152e-06 -4.3310109682799497e-07 -2.2928984825025677e-07" pbc="T T T"
Cs       4.60282261       1.88017339      -1.24068698        0       0.00020635       0.00018380      -0.00001481
Cs      10.81206384       8.76259513       6.01236072        1       0.00000860      -0.00011808      -0.00011945
K        7.70910295       5.32172775       2.38497602        2       0.00006160      -0.00012308       0.00019715
In      -0.00085118      -0.00029388      -0.00149928        3       0.00003634       0.00023950       0.00009670
I        4.29238600       4.93128700       1.39172911        4       0.00026916      -0.00016117      -0.00005037
I       11.12554922       5.71277893       3.37881955        5       0.00002821       0.00007327       0.00032576
I       13.25784239      -1.62282908       2.58792740        6      -0.00002761      -0.00023862      -0.00042905
I        2.15894893      12.26663380       2.18483523        7      -0.00005399      -0.00040385      -0.00027657
I        7.57150621       5.44991622      -1.18957579        8       0.00000116      -0.00016737      -0.00002951
I        7.84697179       5.19459882       5.96011383        9       0.00043298      -0.00007009      -0.00006225
Cs       3.13263860       8.76926716       3.72547750       10      -0.00051215      -0.00018729      -0.00005637
Cs       9.34015607      15.64883531      10.98102312       11      -0.00024437      -0.00002905      -0.00001122
K        6.23589532      12.20968594       7.35366218       12       0.00019606      -0.00022981       0.00012804
In      -1.47274464       6.88661244       4.96733604       13       0.00030030       0.00016678      -0.00014808
I        2.81930525      11.81707595       6.35872524       14      -0.00044703      -0.00035175       0.00038997
I        9.65299419      12.60099935       8.34837882       15      -0.00017335      -0.00014969       0.00009447
I       11.78652331       5.26572384       7.55342857       16       0.00024346      -0.00031579       0.00000544
I        0.68581402      19.15297487       7.15359887       17      -0.00023243      -0.00005212      -0.00050201
I        6.09809872      12.33750485       3.77833976       18       0.00019217      -0.00018122       0.00013089
I        6.37370240      12.08131506      10.92894683       19       0.00034322      -0.00015146      -0.00038227
Cs       9.64646122       8.83934577      -1.91577049       20       0.00000822       0.00004020      -0.00020931
Cs      15.85612224      15.71927466       5.33641113       21      -0.00001606       0.00001552       0.00006556
K       12.74973903      12.27861671       1.71007808       22       0.00044175      -0.00007672       0.00022489
In       5.04274162       6.95822232      -0.67336306       23      -0.00022610      -0.00030826       0.00003750
I        9.33256366      11.88936207       0.71719351       24       0.00007026      -0.00007662      -0.00023933
I       16.16725813      12.66876698       2.70257510       25      -0.00028863      -0.00029926       0.00032900
I       18.30008091       5.33339992       1.91223056       26      -0.00029382      -0.00013181      -0.00019889
I        7.20219999      19.22318668       1.50813688       27       0.00002454      -0.00028425       0.00017323
I       12.61106428      12.40442472      -1.86454618       28       0.00028342      -0.00027239      -0.00038337
I       12.88862403      12.15261065       5.28436170       29       0.00010058      -0.00039544       0.00011694
Cs       8.17464871      15.72568752       3.04935243       30       0.00025371       0.00006393       0.00017264
Cs      14.38183367      22.60613821      10.30604833       31       0.00018870       0.00024052      -0.00002196
K       11.27835812      19.16590273       6.67808804       32      -0.00008747      -0.00015723       0.00030595
In       3.56952716      13.84552039       4.29525644       33      -0.00015402      -0.00015304       0.00001898
I        7.86183771      18.77257371       5.68247873       34      -0.00027212       0.00009350       0.00036609
I       14.69479492      19.55855693       7.67401206       35       0.00001801      -0.00021898      -0.00023436
I       16.82919169      12.22238819       6.87652434       36      -0.00006988      -0.00021659       0.00017556
I        5.72596430      26.11023849       6.47749995       37       0.00014148      -0.00015163       0.00012180
I       11.14067256      19.29458735       3.10300713       38       0.00042312      -0.00026242      -0.00053896
I       11.41539898      19.03683900      10.25368052       39       0.00040001      -0.00006494      -0.00006302
Cs      16.45338831      -1.32167564      -0.76879579       40       0.00018616       0.00002165       0.00015391
Cs      22.66062076       5.55870293       6.48780504       41       0.00011990       0.00023263      -0.00005262
K       19.55714317       2.11837197       2.85990309       42      -0.00028477       0.00014456       0.00007252
In      11.84822768      -3.20179923       0.47714462       43      -0.00020208      -0.00005439      -0.00005910
I       16.14053262       1.72522810       1.86431090       44      -0.00011687       0.00037622       0.00016829
I       22.97356254       2.51113005       3.85579670       45       0.00017449       0.00008149      -0.00046098
I       25.10809052      -4.82507848       3.05817918       46       0.00000685       0.00028229       0.00049765
I       14.00480826       9.06282726       2.65934771       47       0.00006482       0.00020314       0.00018916
I       19.41949043       2.24712264      -0.71523521       48      -0.00001085       0.00014513      -0.00028245
I       19.69427122       1.98933180       6.43542519       49       0.00004202       0.00029722       0.00016612
Cs      14.97950031       5.56714716       4.20156668       50       0.00010400      -0.00002238      -0.00008646
Cs      21.18918263      12.44705087      11.45376345       51       0.00002284      -0.00004399       0.00014560
K       18.08294768       9.00633000       7.82773093       52       0.00009643       0.00018192      -0.00036611
In      10.37584419       3.68599066       5.44405761       53      -0.00044424      -0.00033170       0.00003137
I       14.66557577       8.61711833       6.83471415       54       0.00031159       0.00016012      -0.00046133
I       21.50039083       9.39645691       8.81999790       55      -0.00007081       0.00005325      -0.00001642
I       23.63319038       2.06108153       8.02956025       56      -0.00020625       0.00026465       0.00008920
I       12.53534102      15.95087593       7.62551275       57      -0.00001339       0.00011313       0.00037253
I       17.94429462       9.13211478       4.25291149       58      -0.00039170       0.00019585      -0.00006961
I       18.22193658       8.88026634      11.40168383       59      -0.00041560      -0.00003338       0.00048243
Cs      21.49560100       5.63699438      -1.44038001       60      -0.00046808      -0.00023038       0.00002761
Cs      27.70320642      12.51656207       5.81513212       61      -0.00019638      -0.00008139       0.00005919
K       24.59919426       9.07739199       2.18789429       62      -0.00023115       0.00003440      -0.00038138
In      16.89023602       3.75433476      -0.19862808       63       0.00048204       0.00017582      -0.00010584
I       21.18229262       8.68493796       1.19306153       64      -0.00019312      -0.00008107       0.00010889
I       28.01610311       9.46880483       3.18256887       65       0.00002858       0.00017704      -0.00023101
I       30.14966366       2.13342366       2.38730144       66       0.00024289       0.00005823       0.00019128
I       19.04890184      16.02067682       1.98751980       67      -0.00015487       0.00041010      -0.00018880
I       24.46121187       9.20501935      -1.38757728       68      -0.00040129       0.00021108       0.00044405
I       24.73694669       8.94878049       5.76288474       69      -0.00033264       0.00028176       0.00001719
Cs      20.02015672      12.52298172       3.52889295       70       0.00021588       0.00009120      -0.00001457
Cs      26.22944717      19.40539838      10.78180638       71       0.00007902      -0.00020924      -0.00009784
K       23.12654441      15.96426760       7.15464502       72      -0.00020357       0.00018515      -0.00019273
In      15.41640855      10.64249667       4.76819169       73       0.00035832       0.00036640       0.00016779
I       19.70974300      15.57391624       6.16130893       74       0.00043810       0.00011972      -0.00024951
I       26.54291336      16.35539152       8.14831016       75       0.00020878       0.00029134       0.00021514
I       28.67514996       9.01972410       7.35763423       76       0.00004677       0.00024586      -0.00024819
I       17.57616988      22.90924501       6.95466330       77       0.00003318       0.00004742      -0.00006595
I       22.98897275      16.09264555       3.57994248       78      -0.00039516       0.00015359       0.00025214
I       23.26448097      15.83725490      10.72958692       79      -0.00010424       0.00036859       0.00027344
