80
Lattice="20.685976227123046 0.0 0.0 13.8094037406794 15.42179839524171 0.0 1.0636110724825845 12.536763290226988 9.167766078121517" Properties=species:S:1:pos:R:3 pbc="T T T"
Cs       4.44486154       3.49481601       1.14597279
Cs      13.33463394      10.48446471       3.43791018
K        8.88974781       6.98964045       2.29194152
In       0.00000010       0.00000011       0.00000003
I        4.54319275       6.42459766       3.31818172
I       13.23630292       7.55468318       1.26570131
I        9.96358529       3.34407694       1.15844620
I        7.81591018      10.63520388       3.42543676
I        7.87035119       7.29194598       0.97213760
I        9.90914453       6.68733525       3.61174562
Cs       4.97666708       9.76319766       5.72985583
Cs      13.86643947      16.75284636       8.02179321
K        9.42155334      13.25802210       6.87582456
In       0.53180564       6.26838176       4.58388307
I        5.07499829      12.69297930       7.90206476
I       13.76810845      13.82306483       5.84958434
I       10.49539082       9.61245859       5.74232924
I        8.34771572      16.90358553       8.00931980
I        8.40215672      13.56032763       5.55602064
I       10.44095006      12.95571689       8.19562866
Cs      11.34956341      11.20571521       1.14597279
Cs      20.23933581      18.19536391       3.43791018
K       15.79444968      14.70053965       2.29194152
In       6.90470197       7.71089931       0.00000003
I       11.44789462      14.13549685       3.31818172
I       20.14100479      15.26558238       1.26570131
I       16.86828716      11.05497614       1.15844620
I       14.72061205      18.34610308       3.42543676
I       14.77505306      15.00284518       0.97213760
I       16.81384640      14.39823444       3.61174562
Cs      11.88136895      17.47409685       5.72985583
Cs      20.77114134      24.46374556       8.02179321
K       16.32625521      20.96892130       6.87582456
In       7.43650751      13.97928095       4.58388307
I       11.97970016      20.40387850       7.90206476
I       20.67281033      21.53396403       5.84958434
I       17.40009269      17.32335779       5.74232924
I       15.25241759      24.61448472       8.00931980
I       15.30685859      21.27122682       5.55602064
I       17.34565193      20.66661609       8.19562866
Cs      14.78784966       3.49481601       1.14597279
Cs      23.67762205      10.48446471       3.43791018
K       19.23273592       6.98964045       2.29194152
In      10.34298821       0.00000011       0.00000003
I       14.88618086       6.42459766       3.31818172
I       23.57929103       7.55468318       1.26570131
I       20.30657340       3.34407694       1.15844620
I       18.15889830      10.63520388       3.42543676
I       18.21333930       7.29194598       0.97213760
I       20.25213264       6.68733525       3.61174562
Cs      15.31965519       9.76319766       5.72985583
Cs      24.20942759      16.75284636       8.02179321
K       19.76454146      13.25802210       6.87582456
In      10.87479375       6.26838176       4.58388307
I       15.41798640      12.69297930       7.90206476
I       24.11109657      13.82306483       5.84958434
I       20.83837894       9.61245859       5.74232924
I       18.69070383      16.90358553       8.00931980
I       18.74514484      13.56032763       5.55602064
I       20.78393818      12.95571689       8.19562866
Cs      21.69255153      11.20571521       1.14597279
Cs      30.58232392      18.19536391       3.43791018
K       26.13743779      14.70053965       2.29194152
In      17.24769008       7.71089931       0.00000003
I       21.79088274      14.13549685       3.31818172
I       30.48399290      15.26558238       1.26570131
I       27.21127527      11.05497614       1.15844620
I       25.06360017      18.34610308       3.42543676
I       25.11804117      15.00284518       0.97213760
I       27.15683451      14.39823444       3.61174562
Cs      22.22435706      17.47409685       5.72985583
Cs      31.11412946      24.46374556       8.02179321
K       26.66924333      20.96892130       6.87582456
In      17.77949562      13.97928095       4.58388307
I       22.32268827      20.40387850       7.90206476
I       31.01579844      21.53396403       5.84958434
I       27.74308081      17.32335779       5.74232924
I       25.59540570      24.61448472       8.00931980
I       25.64984671      21.27122682       5.55602064
I       27.68864005      20.66661609       8.19562866
