80
Lattice="21.75222217507267 -1.4333217699664786 0.42182187629979023 -7.771737303203637 15.005609538063476 -0.1346507313003681 3.2543265206551966 3.3820064009238444 12.441553900430838" Properties=species:S:1:pos:R:3:spacegroup_kinds:I:1:forces:R:3 spacegroup="P 1" unit_cell=conventional occupancy="_JSON {\"0\": {\"Cs\": 1.0}, \"1\": {\"Cs\": 1.0}, \"2\": {\"Cs\": 1.0}, \"3\": {\"Cs\": 1.0}, \"4\": {\"Pb\": 1.0}, \"5\": {\"Pb\": 1.0}, \"6\": {\"Pb\": 1.0}, \"7\": {\"Pb\": 1.0}, \"8\": {\"I\": 1.0}, \"9\": {\"I\": 1.0}, \"10\": {\"I\": 1.0}, \"11\": {\"I\": 1.0}, \"12\": {\"I\": 1.0}, \"13\": {\"I\": 1.0}, \"14\": {\"I\": 1.0}, \"15\": {\"I\": 1.0}, \"16\": {\"I\": 1.0}, \"17\": {\"I\": 1.0}, \"18\": {\"I\": 1.0}, \"19\": {\"I\": 1.0}, \"20\": {\"Cs\": 1.0}, \"21\": {\"Cs\": 1.0}, \"22\": {\"Cs\": 1.0}, \"23\": {\"Cs\": 1.0}, \"24\": {\"Pb\": 1.0}, \"25\": {\"Pb\": 1.0}, \"26\": {\"Pb\": 1.0}, \"27\": {\"Pb\": 1.0}, \"28\": {\"I\": 1.0}, \"29\": {\"I\": 1.0}, \"30\": {\"I\": 1.0}, \"31\": {\"I\": 1.0}, \"32\": {\"I\": 1.0}, \"33\": {\"I\": 1.0}, \"34\": {\"I\": 1.0}, \"35\": {\"I\": 1.0}, \"36\": {\"I\": 1.0}, \"37\": {\"I\": 1.0}, \"38\": {\"I\": 1.0}, \"39\": {\"I\": 1.0}, \"40\": {\"Cs\": 1.0}, \"41\": {\"Cs\": 1.0}, \"42\": {\"Cs\": 1.0}, \"43\": {\"Cs\": 1.0}, \"44\": {\"Pb\": 1.0}, \"45\": {\"Pb\": 1.0}, \"46\": {\"Pb\": 1.0}, \"47\": {\"Pb\": 1.0}, \"48\": {\"I\": 1.0}, \"49\": {\"I\": 1.0}, \"50\": {\"I\": 1.0}, \"51\": {\"I\": 1.0}, \"52\": {\"I\": 1.0}, \"53\": {\"I\": 1.0}, \"54\": {\"I\": 1.0}, \"55\": {\"I\": 1.0}, \"56\": {\"I\": 1.0}, \"57\": {\"I\": 1.0}, \"58\": {\"I\": 1.0}, \"59\": {\"I\": 1.0}, \"60\": {\"Cs\": 1.0}, \"61\": {\"Cs\": 1.0}, \"62\": {\"Cs\": 1.0}, \"63\": {\"Cs\": 1.0}, \"64\": {\"Pb\": 1.0}, \"65\": {\"Pb\": 1.0}, \"66\": {\"Pb\": 1.0}, \"67\": {\"Pb\": 1.0}, \"68\": {\"I\": 1.0}, \"69\": {\"I\": 1.0}, \"70\": {\"I\": 1.0}, \"71\": {\"I\": 1.0}, \"72\": {\"I\": 1.0}, \"73\": {\"I\": 1.0}, \"74\": {\"I\": 1.0}, \"75\": {\"I\": 1.0}, \"76\": {\"I\": 1.0}, \"77\": {\"I\": 1.0}, \"78\": {\"I\": 1.0}, \"79\": {\"I\": 1.0}}" energy=-226.47987201286978 free_energy=-226.47987201286978 stress="-5.7005021745029355e-06 -1.8841983789654055e-06 -4.5241284301214105e-07 -1.8841983789654055e-06 3.5788949664992204e-06 6.787639397318363e-06 -4.5241284301214105e-07 6.787639397318363e-06 5.830105303558347e-06" pbc="T T T"
Cs       4.42200471       9.07099532       3.19017535        0       0.00024149       0.00007691      -0.00022805
Cs       0.92730521       5.67829869       3.11775200        1       0.00004505      -0.00006948       0.00000808
Cs       9.97165087       3.22224544       9.47862833        2       0.00014765      -0.00005970      -0.00002470
Cs      13.46709087       6.61466213       9.55044074        3      -0.00009915      -0.00008093       0.00008946
Pb       3.58187711       2.74829608      12.44709150        4       0.00011985      -0.00021976      -0.00010557
Pb       3.82245714       2.75947270       0.07749818        5       0.00011216      -0.00016672      -0.00051824
Pb       3.70240920       2.75368455       6.26224362        6      -0.00008086      -0.00011135       0.00015965
Pb       7.19771674       6.14688206       6.33387912        7      -0.00036564      -0.00012796       0.00035976
I       -0.29526194       7.01447425      -0.54266858        8      -0.00013030       0.00006265       0.00008446
I        7.08575245       2.90510228      -0.40338174        9       0.00021115      -0.00013504      -0.00011662
I       15.31516405       1.34209550       3.39335530       10       0.00017759      -0.00028099      -0.00016154
I       14.68898084       5.27818566      13.21112523       11       0.00007877      -0.00017448      -0.00027346
I        7.30853370       9.38846214      13.07165707       12      -0.00035940       0.00005379       0.00014546
I        7.93383141       5.45075880       3.25405169       13      -0.00000214       0.00021278       0.00021369
I        3.95506331       6.00167222       5.72635766       14      -0.00023413       0.00014453      -0.00023527
I        6.94461290       2.89863955       6.87054905       15      -0.00023269      -0.00066669      -0.00014655
I       -0.92090995      10.95106656       9.27499592       16      -0.00007905       0.00015416       0.00033041
I       10.43964302       6.29101672       6.94172441       17       0.00018335       0.00029327       0.00025011
I        7.45023460       9.39494935       5.79797918       18      -0.00006814       0.00029549      -0.00005951
I        6.45980199       6.84127979       9.41390743       19       0.00014082       0.00012510       0.00001398
Cs       8.30762162       1.56782811       3.25737874       20       0.00029996       0.00002589      -0.00019790
Cs      -2.95886497      13.18052121       3.05033806       21      -0.00001726       0.00006293       0.00005159
Cs       6.08570307      10.72445279       9.41139745       22       0.00016549       0.00003015      -0.00007266
Cs       9.58050677      14.11785113       9.48312991       23       0.00003650      -0.00011019       0.00006576
Pb      -0.30458324      10.25032956      12.37988441       24       0.00010179       0.00014623       0.00022768
Pb      -0.06415503      10.26171663       0.00991021       25       0.00033396      -0.00024706       0.00049813
Pb      -0.18416307      10.25590101       6.19511850       26       0.00025067      -0.00014934      -0.00040419
Pb       3.31122957      13.64909865       6.26692756       27      -0.00023594       0.00003668      -0.00061762
I       -4.18082179      14.51755014      -0.61008828       28      -0.00035083      -0.00001984       0.00022026
I        3.19939974      10.40724911      -0.47051463       29       0.00018614       0.00000365      -0.00017746
I       11.42887467       8.84471174       3.32609760       30       0.00003085      -0.00015503      -0.00006888
I       10.80327517      12.78167359      13.14379376       31       0.00033106      -0.00029133      -0.00021380
I        3.42240154      16.89099539      13.00423520       32      -0.00018235       0.00005966       0.00012068
I        4.04852045      12.95388989       3.18694698       33      -0.00029098       0.00017762       0.00000117
I        0.06866146      13.50399028       5.65888980       34       0.00023707       0.00054118       0.00002198
I        3.05833516      10.40089759       6.80332005       35       0.00002470      -0.00003373      -0.00011420
I        2.96473163       3.44826858       9.34204675       36       0.00004215       0.00011031       0.00022506
I        6.55352610      13.79356912       6.87416761       37      -0.00011580      -0.00021877       0.00048894
I        3.56400099      16.89757331       5.73037323       38       0.00020583      -0.00023860       0.00025222
I        2.57412017      14.34456720       9.34654444       39      -0.00011840       0.00009223       0.00019450
Cs      15.29786359       8.35412836       3.40101717       40       0.00013335       0.00014958      -0.00023520
Cs      11.80292597       4.96113103       3.32850301       41       0.00017236       0.00016473       0.00002317
Cs      20.84769846       2.50484536       9.68989399       42       0.00017683       0.00025441      -0.00036922
Cs       2.59052607       7.33157885       9.33943797       43       0.00007932      -0.00011942      -0.00000073
Pb      14.45750478       2.03079375      12.65817915       44      -0.00012515       0.00018696       0.00019485
Pb      14.69807217       2.04203643       0.28818086       45      -0.00001388       0.00008712       0.00036369
Pb      14.57803440       2.03635114       6.47325728       46      -0.00015723       0.00012648      -0.00027488
Pb      18.07317118       5.42933017       6.54476237       47       0.00017360       0.00004417       0.00028280
I       10.58097437       6.29807454      -0.33180781       48       0.00005767      -0.00002426       0.00007283
I       17.96162310       2.18804755      -0.19251726       49       0.00016905      -0.00039686      -0.00009994
I        4.43871042       2.05837075       3.18229249       50       0.00004154      -0.00021726       0.00022944
I        3.81322763       5.99543251      12.99985399       51      -0.00020492      -0.00013905       0.00002283
I       18.18440841       8.67142473      13.28268221       52      -0.00020996       0.00003681      -0.00001107
I       18.81039760       4.73409899       3.46531234       53      -0.00016120       0.00016976      -0.00057953
I       14.83088265       5.28449420       5.93704818       54      -0.00014624       0.00045406      -0.00005764
I       17.82054412       2.18119414       7.08132765       55      -0.00023804      -0.00011733      -0.00007549
I        9.95495756      10.23476419       9.48600714       56       0.00002956       0.00002653      -0.00023766
I       -0.43669125       7.00742884       6.73069354       57      -0.00010820      -0.00018053       0.00044436
I       18.32613765       8.67785696       6.00884505       58      -0.00035641       0.00009249      -0.00002681
I       17.33594778       6.12432910       9.62489713       59       0.00010295       0.00028482      -0.00001642
Cs      19.18456205       0.85119915       3.46810268       60      -0.00010653       0.00012327      -0.00014069
Cs       7.91757200      12.46437901       3.26133447       61       0.00001939      -0.00009166       0.00003198
Cs      16.96207089      10.00786614       9.62247999       62       0.00013611      -0.00008869      -0.00013641
Cs      -1.29525598      14.83456642       9.27222682       63       0.00023089      -0.00011181      -0.00007342
Pb      10.57207007       9.53443386      12.59082154       64       0.00003533       0.00009984       0.00003077
Pb      10.81273304       9.54568312       0.22094291       65      -0.00017151      -0.00070663       0.00033718
Pb      10.69253344       9.53984309       6.40622181       66       0.00000738      -0.00001181      -0.00036995
Pb      14.18783810      12.93296753       6.47784213       67      -0.00015143      -0.00023595      -0.00030938
I        6.69506334      13.80051841      -0.39900757       68      -0.00012196      -0.00000435       0.00005786
I       14.07614608       9.69113161      -0.26007554       69      -0.00025099       0.00008114       0.00023317
I        0.55303244       9.56146656       3.11505939       70      -0.00016855      -0.00005133      -0.00015358
I       -0.07325542      13.49758902      12.93278375       71       0.00012232       0.00019137      -0.00011330
I       14.29855134      16.17443238      13.21503153       72       0.00016035       0.00036979       0.00014899
I       14.92410376      12.23737888       3.39759322       73      -0.00001086       0.00008982       0.00042609
I       10.94522446      12.78797768       5.86982493       74       0.00008279      -0.00011617       0.00010906
I       13.93471813       9.68435694       7.01417260       75      -0.00002578       0.00006021      -0.00008994
I       13.84067285       2.73104855       9.55315385       76       0.00013459       0.00023094       0.00021090
I       -4.32231037      14.51047622       6.66382165       77      -0.00022957       0.00016797      -0.00005435
I       14.44048939      16.18117167       5.94156063       78       0.00001227      -0.00020199       0.00007409
I       13.44965195      13.62727289       9.55757834       79       0.00013979       0.00017459      -0.00015531
