80
Lattice="18.04722225229937 0.0 0.0 -5.3906671752501065 15.140246694287649 0.0 2.846615201692192 3.9255468203251738 9.893977349329024" Properties=species:S:1:pos:R:3 pbc="T T T"
Cs       4.22876969       9.08131265       2.47349425
Cs       1.55796745       5.29681125       2.47349425
Cs       8.42110339       4.65234036       7.42048292
Cs      11.09207369       8.43796231       7.42048292
Pb       1.73745778       1.11939448      -0.00000551
Pb       3.16413877       3.78506167       0.00000000
Pb       3.16076538       3.08216789       4.94699400
Pb       6.32495466       6.86694108       4.94700970
I        1.71834739       6.57290683       0.41087777
I        4.08544236       2.78780019       0.41140688
I       10.68298659       2.17233420       2.47349425
I       10.93156215       7.16131310       9.48240636
I        8.56448021      10.94632980       9.48293548
I        6.35212803       5.95682223       2.47349425
I        2.90502668       8.20936444       4.53611073
I        5.27212165       4.42425780       4.53558161
I        1.96677699      11.56245428       7.42048292
I        9.74488286       5.52485549       5.35855948
I        7.37780092       9.30987219       5.35803037
I        6.29767905       7.77681897       7.42048292
Cs       1.53343610      16.65143600       2.47349425
Cs      -1.13736614      12.86693460       2.47349425
Cs       5.72576980      12.22246370       7.42048292
Cs       8.39674011      16.00808565       7.42048292
Pb      -0.95787581       8.68951782      -0.00000551
Pb       0.46880518      11.35518502       0.00000000
Pb       0.46543179      10.65229123       4.94699400
Pb       3.62962108      14.43706443       4.94700970
I       -0.97698620      14.14303018       0.41087777
I        1.39010878      10.35792353       0.41140688
I        7.98765300       9.74245754       2.47349425
I        8.23622856      14.73143645       9.48240636
I        5.86914662      18.51645315       9.48293548
I        3.65679444      13.52694558       2.47349425
I        0.20969310      15.77948779       4.53611073
I        2.57678807      11.99438115       4.53558161
I       -0.72855659      19.13257763       7.42048292
I        7.04954927      13.09497883       5.35855948
I        4.68246733      16.87999554       5.35803037
I        3.60234546      15.34694232       7.42048292
Cs      13.25238081       9.08131265       2.47349425
Cs      10.58157857       5.29681125       2.47349425
Cs      17.44471451       4.65234036       7.42048292
Cs      20.11568482       8.43796231       7.42048292
Pb      10.76106891       1.11939448      -0.00000551
Pb      12.18774990       3.78506167       0.00000000
Pb      12.18437651       3.08216789       4.94699400
Pb      15.34856579       6.86694108       4.94700970
I       10.74195852       6.57290683       0.41087777
I       13.10905349       2.78780019       0.41140688
I       19.70659772       2.17233420       2.47349425
I       19.95517328       7.16131310       9.48240636
I       17.58809134      10.94632980       9.48293548
I       15.37573915       5.95682223       2.47349425
I       11.92863781       8.20936444       4.53611073
I       14.29573278       4.42425780       4.53558161
I       10.99038812      11.56245428       7.42048292
I       18.76849399       5.52485549       5.35855948
I       16.40141204       9.30987219       5.35803037
I       15.32129018       7.77681897       7.42048292
Cs      10.55704723      16.65143600       2.47349425
Cs       7.88624499      12.86693460       2.47349425
Cs      14.74938092      12.22246370       7.42048292
Cs      17.42035123      16.00808565       7.42048292
Pb       8.06573532       8.68951782      -0.00000551
Pb       9.49241631      11.35518502       0.00000000
Pb       9.48904292      10.65229123       4.94699400
Pb      12.65323220      14.43706443       4.94700970
I        8.04662493      14.14303018       0.41087777
I       10.41371990      10.35792353       0.41140688
I       17.01126413       9.74245754       2.47349425
I       17.25983969      14.73143645       9.48240636
I       14.89275775      18.51645315       9.48293548
I       12.68040556      13.52694558       2.47349425
I        9.23330422      15.77948779       4.53611073
I       11.60039919      11.99438115       4.53558161
I        8.29505453      19.13257763       7.42048292
I       16.07316040      13.09497883       5.35855948
I       13.70607846      16.87999554       5.35803037
I       12.62595659      15.34694232       7.42048292
