160
Lattice="14.44354681380187 0.0 0.0 -1.1184300359133315 16.138974230649385 0.0 4.176515352344003 6.131527420669678 26.43470990188675" Properties=species:S:1:pos:R:3 pbc="T T T"
Cs       5.26021425       8.61464135       3.30433875
Cs       2.32372528       4.58049123       3.30433875
Cs       7.17126946       3.33414551       9.91301622
Cs      10.10781954       7.36948250       9.91301622
Pb       1.84028786       0.40720975       0.00000350
Pb       3.33127919       4.03474356       0.00000000
Pb       2.88441670       1.94009161       6.60867400
Pb       6.21571426       5.97452962       6.60869063
I        2.93381808       6.17396480       0.54904425
I        4.02929116       2.13917361       0.54960467
I        8.96713732       1.24990721       3.30433875
I        9.49765034       5.77544918      12.66769068
I        8.40218200       9.81014511      12.66825111
I        6.30001328       5.28404318       3.30433875
I        3.80435799       7.45200137       6.05963325
I        4.89983107       3.41721018       6.05907283
I        3.46418710      10.70008123       9.91301622
I        8.62711043       4.49741262       7.15834177
I        7.53164209       8.53210855       7.15778134
I        6.13132695       6.66473009       9.91301622
Cs       7.34847192      11.68040506      16.52169370
Cs       4.41198296       7.64625494      16.52169370
Cs       9.25952713       6.39990922      23.13037118
Cs      12.19607722      10.43524621      23.13037118
Pb       3.92854554       3.47297347      13.21735845
Pb       5.41953687       7.10050727      13.21735495
Pb       4.97267437       5.00585532      19.82602895
Pb       8.30397194       9.04029333      19.82604558
I        5.02207576       9.23972851      13.76639920
I        6.11754884       5.20493732      13.76695962
I       11.05539499       4.31567092      16.52169370
I       11.58590801       8.84121289      25.88504563
I       10.49043967      12.87590882      25.88560606
I        8.38827096       8.34980689      16.52169370
I        5.89261567      10.51776508      19.27698820
I        6.98808875       6.48297389      19.27642778
I        5.55244478      13.76584494      23.13037118
I       10.71536810       7.56317633      20.37569672
I        9.61989976      11.59787226      20.37513629
I        8.21958463       9.73049380      23.13037118
Cs       4.70099923      16.68412847       3.30433875
Cs       1.76451027      12.64997834       3.30433875
Cs       6.61205444      11.40363262       9.91301622
Cs       9.54860453      15.43896961       9.91301622
Pb       1.28107284       8.47669687       0.00000350
Pb       2.77206418      12.10423067       0.00000000
Pb       2.32520168      10.00957873       6.60867400
Pb       5.65649925      14.04401673       6.60869063
I        2.37460306      14.24345192       0.54904425
I        3.47007614      10.20866073       0.54960467
I        8.40792230       9.31939432       3.30433875
I        8.93843532      13.84493630      12.66769068
I        7.84296698      17.87963222      12.66825111
I        5.74079826      13.35353030       3.30433875
I        3.24514297      15.52148848       6.05963325
I        4.34061605      11.48669729       6.05907283
I        2.90497208      18.76956835       9.91301622
I        8.06789541      12.56689974       7.15834177
I        6.97242707      16.60159566       7.15778134
I        5.57211193      14.73421721       9.91301622
Cs       6.78925690      19.74989218      16.52169370
Cs       3.85276794      15.71574205      16.52169370
Cs       8.70031212      14.46939633      23.13037118
Cs      11.63686220      18.50473332      23.13037118
Pb       3.36933052      11.54246058      13.21735845
Pb       4.86032185      15.16999438      13.21735495
Pb       4.41345936      13.07534244      19.82602895
Pb       7.74475692      17.10978044      19.82604558
I        4.46286074      17.30921563      13.76639920
I        5.55833382      13.27442444      13.76695962
I       10.49617997      12.38515804      16.52169370
I       11.02669299      16.91070001      25.88504563
I        9.93122466      20.94539594      25.88560606
I        7.82905594      16.41929401      16.52169370
I        5.33340065      18.58725219      19.27698820
I        6.42887373      14.55246100      19.27642778
I        4.99322976      21.83533206      23.13037118
I       10.15615309      15.63266345      20.37569672
I        9.06068475      19.66735937      20.37513629
I        7.66036961      17.79998092      23.13037118
Cs      12.48198765       8.61464135       3.30433875
Cs       9.54549869       4.58049123       3.30433875
Cs      14.39304287       3.33414551       9.91301622
Cs      17.32959295       7.36948250       9.91301622
Pb       9.06206127       0.40720975       0.00000350
Pb      10.55305260       4.03474356       0.00000000
Pb      10.10619010       1.94009161       6.60867400
Pb      13.43748767       5.97452962       6.60869063
I       10.15559149       6.17396480       0.54904425
I       11.25106457       2.13917361       0.54960467
I       16.18891072       1.24990721       3.30433875
I       16.71942374       5.77544918      12.66769068
I       15.62395540       9.81014511      12.66825111
I       13.52178669       5.28404318       3.30433875
I       11.02613140       7.45200137       6.05963325
I       12.12160448       3.41721018       6.05907283
I       10.68596051      10.70008123       9.91301622
I       15.84888383       4.49741262       7.15834177
I       14.75341549       8.53210855       7.15778134
I       13.35310036       6.66473009       9.91301622
Cs      14.57024533      11.68040506      16.52169370
Cs      11.63375637       7.64625494      16.52169370
Cs      16.48130054       6.39990922      23.13037118
Cs      19.41785063      10.43524621      23.13037118
Pb      11.15031894       3.47297347      13.21735845
Pb      12.64131028       7.10050727      13.21735495
Pb      12.19444778       5.00585532      19.82602895
Pb      15.52574535       9.04029333      19.82604558
I       12.24384916       9.23972851      13.76639920
I       13.33932224       5.20493732      13.76695962
I       18.27716840       4.31567092      16.52169370
I       18.80768142       8.84121289      25.88504563
I       17.71221308      12.87590882      25.88560606
I       15.61004436       8.34980689      16.52169370
I       13.11438907      10.51776508      19.27698820
I       14.20986215       6.48297389      19.27642778
I       12.77421818      13.76584494      23.13037118
I       17.93714151       7.56317633      20.37569672
I       16.84167317      11.59787226      20.37513629
I       15.44135803       9.73049380      23.13037118
Cs      11.92277264      16.68412847       3.30433875
Cs       8.98628367      12.64997834       3.30433875
Cs      13.83382785      11.40363262       9.91301622
Cs      16.77037793      15.43896961       9.91301622
Pb       8.50284625       8.47669687       0.00000350
Pb       9.99383758      12.10423067       0.00000000
Pb       9.54697509      10.00957873       6.60867400
Pb      12.87827265      14.04401673       6.60869063
I        9.59637647      14.24345192       0.54904425
I       10.69184955      10.20866073       0.54960467
I       15.62969571       9.31939432       3.30433875
I       16.16020873      13.84493630      12.66769068
I       15.06474039      17.87963222      12.66825111
I       12.96257167      13.35353030       3.30433875
I       10.46691638      15.52148848       6.05963325
I       11.56238946      11.48669729       6.05907283
I       10.12674549      18.76956835       9.91301622
I       15.28966882      12.56689974       7.15834177
I       14.19420048      16.60159566       7.15778134
I       12.79388534      14.73421721       9.91301622
Cs      14.01103031      19.74989218      16.52169370
Cs      11.07454135      15.71574205      16.52169370
Cs      15.92208552      14.46939633      23.13037118
Cs      18.85863561      18.50473332      23.13037118
Pb      10.59110392      11.54246058      13.21735845
Pb      12.08209526      15.16999438      13.21735495
Pb      11.63523276      13.07534244      19.82602895
Pb      14.96653033      17.10978044      19.82604558
I       11.68463415      17.30921563      13.76639920
I       12.78010723      13.27442444      13.76695962
I       17.71795338      12.38515804      16.52169370
I       18.24846640      16.91070001      25.88504563
I       17.15299806      20.94539594      25.88560606
I       15.05082935      16.41929401      16.52169370
I       12.55517406      18.58725219      19.27698820
I       13.65064713      14.55246100      19.27642778
I       12.21500317      21.83533206      23.13037118
I       17.37792649      15.63266345      20.37569672
I       16.28245815      19.66735937      20.37513629
I       14.88214302      17.79998092      23.13037118
