20
Lattice="40.37689587651684 5.33180535368058 6.798774239486377 -14.480081530482293 4.404759090200699 -3.9622494739113368 12.88172855634239 13.432698725323956 4.078926278862404" Properties=species:S:1:pos:R:3:spacegroup_kinds:I:1:forces:R:3 spacegroup="P 1" unit_cell=conventional occupancy="_JSON {\"0\": {\"Cs\": 1.0}, \"1\": {\"Cs\": 1.0}, \"2\": {\"K\": 1.0}, \"3\": {\"In\": 1.0}, \"4\": {\"I\": 1.0}, \"5\": {\"I\": 1.0}, \"6\": {\"I\": 1.0}, \"7\": {\"I\": 1.0}, \"8\": {\"I\": 1.0}, \"9\": {\"I\": 1.0}, \"10\": {\"Cs\": 1.0}, \"11\": {\"Cs\": 1.0}, \"12\": {\"K\": 1.0}, \"13\": {\"In\": 1.0}, \"14\": {\"I\": 1.0}, \"15\": {\"I\": 1.0}, \"16\": {\"I\": 1.0}, \"17\": {\"I\": 1.0}, \"18\": {\"I\": 1.0}, \"19\": {\"I\": 1.0}}" energy=-51.140078424131325 free_energy=-51.140078424131325 stress="1.4550101141863139e-06 -4.6131410974007955e-07 2.646928652530887e-07 -4.6131410974007955e-07 8.211330679554075e-07 3.6044262037240756e-07 2.646928652530887e-07 3.6044262037240756e-07 -2.683615964750709e-08" pbc="T T T"
Cs       8.35482021      16.22677568      -6.00618221        0      -0.00001037       0.00004448       0.00005755
Cs      25.55973649      15.22866260       9.22057346        1      -0.00008246       0.00020319      -0.00009322
K        3.12019021       5.29719693       2.62942793        2      -0.00006088      -0.00002228       0.00011190
In       6.56471541       3.72303054       0.15706073        3      -0.00015343       0.00011946       0.00008897
I        5.03376056       2.06732156       1.78138963        4      -0.00003530       0.00003539       0.00003090
I       17.25572223      11.27712170      16.46280862        5       0.00000874      -0.00004899       0.00000752
I        3.05596891      21.20210785     -11.99773677        6       0.00010587      -0.00012080      -0.00006248
I        4.40031190       6.52020082      10.86506628        7      -0.00002309      -0.00007816      -0.00000316
I       31.68685609      16.25632022      -6.37479296        8       0.00009383      -0.00006494      -0.00005183
I       46.57481734      16.43289251      11.99529799        9      -0.00004167       0.00002180      -0.00000618
Cs      25.83680898      21.46181567      -4.33983142       10       0.00002714       0.00006255       0.00001140
Cs      46.44091921      20.58284297      12.57230644       11      -0.00009387      -0.00013046       0.00001939
K       22.00228344       7.22951190       5.97444906       12      -0.00011219       0.00007352      -0.00003144
In      26.71286268       6.73591656       3.34089076       13      -0.00010285      -0.00001773      -0.00002346
I       23.97733460       7.09108050       2.77425412       14       0.00014240      -0.00002619       0.00002168
I       33.65094983      14.11753494      12.80176248       15       0.00012721      -0.00005981      -0.00002413
I       22.30990988      23.39830215      -6.02788110       16       0.00001543       0.00002031       0.00006140
I       25.24160637       9.13805414      16.80038121       17       0.00004467      -0.00006533       0.00002590
I       12.70023868      11.94106761      -7.85449774       18       0.00005325       0.00001921      -0.00008697
I       27.54155370      12.61457910      11.10929655       19       0.00009759       0.00003479      -0.00005373
