20
Lattice="20.33690586033107 0.0 0.0 1.9620519389095625 9.745305606504083 0.0 5.228612439209316 0.4914048006098319 6.07307487821528" Properties=species:S:1:pos:R:3 pbc="T T T"
Cs       4.33965014       2.55913915       1.51830832
Cs      13.01946701       7.67757018       4.55476584
K        8.67955853       5.11835443       3.03653695
In       0.00000025       0.00000062       0.00000028
I        8.10075721       0.84850159       2.81980561
I        9.25835974       9.38820688       3.25326835
I       12.82158511       2.59423702       3.16688406
I        4.53752950       7.64247188       2.90618904
I        5.89419769       6.01689604      -0.34432253
I       11.46491965       4.21981701       6.41739917
Cs      14.50810307       2.55913915       1.51830832
Cs      23.18791994       7.67757018       4.55476584
K       18.84801146       5.11835443       3.03653695
In      10.16845318       0.00000062       0.00000028
I       18.26921014       0.84850159       2.81980561
I       19.42681267       9.38820688       3.25326835
I       22.99003804       2.59423702       3.16688406
I       14.70598243       7.64247188       2.90618904
I       16.06265062       6.01689604      -0.34432253
I       21.63337258       4.21981701       6.41739917
