20
Lattice="19.899429859209622 0.5940545526705778 4.409053513457319 2.3980258055821366 9.109826599291685 0.5723356653324262 6.527362945534381 0.8240870230744268 7.741846619326249" Properties=species:S:1:pos:R:3:spacegroup_kinds:I:1:forces:R:3 spacegroup="P 1" unit_cell=conventional occupancy="_JSON {\"0\": {\"Cs\": 1.0}, \"1\": {\"Cs\": 1.0}, \"2\": {\"K\": 1.0}, \"3\": {\"In\": 1.0}, \"4\": {\"I\": 1.0}, \"5\": {\"I\": 1.0}, \"6\": {\"I\": 1.0}, \"7\": {\"I\": 1.0}, \"8\": {\"I\": 1.0}, \"9\": {\"I\": 1.0}, \"10\": {\"Cs\": 1.0}, \"11\": {\"Cs\": 1.0}, \"12\": {\"K\": 1.0}, \"13\": {\"In\": 1.0}, \"14\": {\"I\": 1.0}, \"15\": {\"I\": 1.0}, \"16\": {\"I\": 1.0}, \"17\": {\"I\": 1.0}, \"18\": {\"I\": 1.0}, \"19\": {\"I\": 1.0}}" energy=-48.437454620002285 free_energy=-48.437454620002285 stress="-9.572774052964067e-07 -5.266958413776252e-07 -3.654700497151804e-07 -5.266958413776252e-07 -1.707378539943429e-06 -3.3911883789084737e-07 -3.654700497151804e-07 -3.3911883789084737e-07 -1.6834729137912678e-06" pbc="T T T"
Cs       5.33877523       2.91042994       2.85567180        0       0.00003563      -0.00000752       0.00028693
Cs      13.60739136       7.23662049       7.46099033        1       0.00040151      -0.00009239       0.00005977
K        8.90860293       5.18139019       6.13743581        2      -0.00030992       0.00008624       0.00007095
In      19.95197453       0.59520584       4.31451101        3      -0.00067748      -0.00012017       0.00037618
I        9.35054115       1.32129686       5.46505631        4       0.00022680       0.00002260       0.00008100
I        9.59095919       8.83695184       4.86747478        5       0.00022043      -0.00007419       0.00004084
I       11.77778099       3.20222415       6.77561932        6       0.00013390       0.00008295      -0.00009708
I        7.21006872       7.10341461       3.61568253        7       0.00006350       0.00034849      -0.00041878
I       10.02140538       6.88070989       9.07084045        8      -0.00011545       0.00005880      -0.00025753
I        9.07985719       3.36319553       1.17997950        9      -0.00020630       0.00038189      -0.00016003
Cs      15.29019317       3.20928259       5.06154188       10       0.00010836       0.00012096      -0.00009764
Cs      23.55853840       7.53578629       9.66654176       11      -0.00015407       0.00009046      -0.00017021
K       18.85798039       5.47960395       8.34303535       12      -0.00038342       0.00025114      -0.00045365
In      10.00238576       0.29879781       2.11064355       13      -0.00039291      -0.00067569      -0.00001980
I       19.30009724       1.61919395       7.66927186       14       0.00044824       0.00011373       0.00012535
I       19.54089283       9.13455863       7.07190636       15       0.00005011       0.00005533      -0.00001377
I       21.72563493       3.49724888       8.98055549       16       0.00009583      -0.00006278       0.00013382
I       17.15908373       7.39863241       5.81989723       17      -0.00022862       0.00008972       0.00050961
I       19.97152290       7.17812703      11.27444291       18       0.00029140      -0.00005915      -0.00000255
I       19.02881923       3.66012039       3.38159882       19       0.00039245      -0.00061042       0.00000661
