10
Lattice="9.106552590885595 1.6119787959808929 0.9691664158994701 -6.077305228153926 6.981625325017082 0.883489493161929 -0.630572296543025 -1.6435572584178086 8.652052556913764" Properties=species:S:1:pos:R:3:spacegroup_kinds:I:1:forces:R:3 spacegroup="P 1" unit_cell=conventional occupancy="_JSON {\"0\": {\"Cs\": 1.0}, \"1\": {\"Cs\": 1.0}, \"2\": {\"K\": 1.0}, \"3\": {\"In\": 1.0}, \"4\": {\"I\": 1.0}, \"5\": {\"I\": 1.0}, \"6\": {\"I\": 1.0}, \"7\": {\"I\": 1.0}, \"8\": {\"I\": 1.0}, \"9\": {\"I\": 1.0}}" energy=-25.793813990152913 free_energy=-25.793813990152913 stress="-6.510153047224454e-07 7.916780632905962e-07 -8.367030129213015e-07 7.916780632905962e-07 -1.424883401273892e-06 -2.1278866747232502e-06 -8.367030129213015e-07 -2.1278866747232502e-06 4.08731604812561e-06" pbc="T T T"
Cs       6.16181804       2.26474236       9.91943489        0       0.00019422      -0.00007329       0.00018715
Cs       1.73544329       5.70982130       1.17912964        1       0.00023000      -0.00013889       0.00017970
K        2.43259738      -0.30903205       4.62340955        2       0.00092758      -0.00031883       0.00005483
In       2.74977350       0.51209248       0.29784590        3      -0.00031125       0.00007637       0.00001155
I        1.04425363       2.02663685       2.26344796        4       0.00039822      -0.00008565      -0.00018932
I        3.82324986      -2.64568618       6.98357751        5       0.00071905      -0.00000441      -0.00062282
I        4.84012225       6.53004055       3.39532155        6      -0.00027682       0.00008691       0.00003368
I       -6.04866770      -0.16793851       6.73522338        7      -0.00033961       0.00020150       0.00016910
I       -1.06225785       7.56868034       3.16305847        8      -0.00070628       0.00009779       0.00023052
I       -0.14608360      -1.20652328       6.96789482        9      -0.00083512       0.00015849      -0.00005439
