10
Lattice="13.929632783784397 0.0 0.0 -0.8547521208406855 5.085876329793587 0.0 0.44357147183946627 0.9337316754167639 6.974862381401187" Properties=species:S:1:pos:R:3:oxi_states:R:1 pbc="T T T"
Cs       3.27688664       3.00973523       3.48743119       1.00000000
Pb      -0.00000000      -0.00000000       0.00000000       2.00000000
I        0.22178574       0.46686584       3.48743119      -1.00000000
I        3.48240820       0.00000000      -0.00000000      -1.00000000
I       -0.42737606       2.54293816       0.00000000      -1.00000000
Cs      10.24170303       3.00973523       3.48743119       1.00000000
Pb       6.96481639      -0.00000000       0.00000000       2.00000000
I        7.18660213       0.46686584       3.48743119      -1.00000000
I       10.44722459       0.00000000      -0.00000000      -1.00000000
I        6.53744033       2.54293816       0.00000000      -1.00000000
