10
Lattice="10.618417156135388 0.0 0.0 -5.297865313864431 8.006922983269448 0.0 3.9698105519064644 0.14790422824195845 7.0522255055401715" Properties=species:S:1:pos:R:3 pbc="T T T"
Cs       9.79670908       2.77286948       7.04557948
Cs       0.52893322       5.29421760       0.00661028
K        1.98490528       0.07395211       3.52611275
In       0.51764540      -0.04387105       0.00000951
I        9.14574868      -0.00872665       1.41067458
I        1.17989040       8.07579904       5.64155695
I        2.71244345       2.08254467       1.41067849
I        7.61321089       5.98455040       5.64156087
I        8.01596990       5.89025043       1.41067386
I        2.30967239       2.17684111       5.64155624
