80
Lattice="17.446853361074805 -0.5504459397753223 -0.371575937835198 8.255154228608173 15.343334569388837 -0.3508364504584512 8.273994631218525 4.766041121675481 14.76040787863223" Properties=species:S:1:pos:R:3:spacegroup_kinds:I:1:forces:R:3 spacegroup="P 1" unit_cell=conventional occupancy="_JSON {\"0\": {\"Cs\": 1.0}, \"1\": {\"Cs\": 1.0}, \"2\": {\"K\": 1.0}, \"3\": {\"In\": 1.0}, \"4\": {\"I\": 1.0}, \"5\": {\"I\": 1.0}, \"6\": {\"I\": 1.0}, \"7\": {\"I\": 1.0}, \"8\": {\"I\": 1.0}, \"9\": {\"I\": 1.0}, \"10\": {\"Cs\": 1.0}, \"11\": {\"Cs\": 1.0}, \"12\": {\"K\": 1.0}, \"13\": {\"In\": 1.0}, \"14\": {\"I\": 1.0}, \"15\": {\"I\": 1.0}, \"16\": {\"I\": 1.0}, \"17\": {\"I\": 1.0}, \"18\": {\"I\": 1.0}, \"19\": {\"I\": 1.0}, \"20\": {\"Cs\": 1.0}, \"21\": {\"Cs\": 1.0}, \"22\": {\"K\": 1.0}, \"23\": {\"In\": 1.0}, \"24\": {\"I\": 1.0}, \"25\": {\"I\": 1.0}, \"26\": {\"I\": 1.0}, \"27\": {\"I\": 1.0}, \"28\": {\"I\": 1.0}, \"29\": {\"I\": 1.0}, \"30\": {\"Cs\": 1.0}, \"31\": {\"Cs\": 1.0}, \"32\": {\"K\": 1.0}, \"33\": {\"In\": 1.0}, \"34\": {\"I\": 1.0}, \"35\": {\"I\": 1.0}, \"36\": {\"I\": 1.0}, \"37\": {\"I\": 1.0}, \"38\": {\"I\": 1.0}, \"39\": {\"I\": 1.0}, \"40\": {\"Cs\": 1.0}, \"41\": {\"Cs\": 1.0}, \"42\": {\"K\": 1.0}, \"43\": {\"In\": 1.0}, \"44\": {\"I\": 1.0}, \"45\": {\"I\": 1.0}, \"46\": {\"I\": 1.0}, \"47\": {\"I\": 1.0}, \"48\": {\"I\": 1.0}, \"49\": {\"I\": 1.0}, \"50\": {\"Cs\": 1.0}, \"51\": {\"Cs\": 1.0}, \"52\": {\"K\": 1.0}, \"53\": {\"In\": 1.0}, \"54\": {\"I\": 1.0}, \"55\": {\"I\": 1.0}, \"56\": {\"I\": 1.0}, \"57\": {\"I\": 1.0}, \"58\": {\"I\": 1.0}, \"59\": {\"I\": 1.0}, \"60\": {\"Cs\": 1.0}, \"61\": {\"Cs\": 1.0}, \"62\": {\"K\": 1.0}, \"63\": {\"In\": 1.0}, \"64\": {\"I\": 1.0}, \"65\": {\"I\": 1.0}, \"66\": {\"I\": 1.0}, \"67\": {\"I\": 1.0}, \"68\": {\"I\": 1.0}, \"69\": {\"I\": 1.0}, \"70\": {\"Cs\": 1.0}, \"71\": {\"Cs\": 1.0}, \"72\": {\"K\": 1.0}, \"73\": {\"In\": 1.0}, \"74\": {\"I\": 1.0}, \"75\": {\"I\": 1.0}, \"76\": {\"I\": 1.0}, \"77\": {\"I\": 1.0}, \"78\": {\"I\": 1.0}, \"79\": {\"I\": 1.0}}" energy=-205.19157334317313 free_energy=-205.19157334317313 stress="-8.866498170254093e-07 2.5965686532179443e-07 1.8376988526105052e-07 2.5965686532179443e-07 6.77022759586169e-07 -2.7441240052241996e-07 1.8376988526105052e-07 -2.7441240052241996e-07 -4.238676377693032e-07" pbc="T T T"
Cs       4.10381126       2.34455490       1.68112208        0      -0.00020923       0.00005455       0.00009758
Cs      12.88520529       7.43327012       5.33948133        1       0.00004644       0.00008104      -0.00002394
K        8.49474936       4.88956321       3.50864536        2      -0.00016533       0.00013173       0.00012031
In      17.44696914      -0.55050719      -0.37164495        3       0.00002421       0.00051832       0.00019213
I        8.76014146       1.66300910       2.07801901        4       0.00005252      -0.00036889      -0.00002442
I        8.22785317       8.11528832       4.94207595        5       0.00005207      -0.00011376      -0.00010335
I       11.11282570       5.59060222       1.23752055        6       0.00030855       0.00011406      -0.00023760
I       23.32404602       3.63613221       5.40971693        7      -0.00001035       0.00026636      -0.00033141
I        6.52990987       6.30832215       0.93307869        8       0.00013984      -0.00004122       0.00003554
I       10.45821955       3.47126755       6.08558556        9       0.00015448      -0.00008030      -0.00009783
Cs       8.23975942       4.72887488       9.06064799       10       0.00003520      -0.00011499      -0.00004808
Cs      17.02140888       9.81559575      12.71756165       11       0.00025076       0.00040980       0.00002118
K       12.63064907       7.27308007      10.88979604       12       0.00024996       0.00012719      -0.00018593
In      21.58416807       1.83263133       7.00852105       13       0.00017163       0.00019795       0.00040451
I       12.89685621       4.04653673       9.45747264       14       0.00025229       0.00046184      -0.00018065
I       12.36553470      10.50040627      12.32053108       15       0.00006652      -0.00017374       0.00022179
I       15.25052230       7.97471801       8.61932665       16      -0.00037123       0.00004042       0.00006010
I       27.46081525       6.02044474      12.79119837       17      -0.00017916      -0.00006634      -0.00012042
I       10.66670132       8.69200307       8.31400455       18       0.00019795      -0.00015856       0.00024200
I       14.59660338       5.85608679      13.46504551       19      -0.00006942      -0.00029713       0.00002931
Cs       8.22865035      10.01708710       1.50572657       20       0.00032623      -0.00010927       0.00008143
Cs      17.01300084      15.10632486       5.16464118       21      -0.00020175       0.00025109      -0.00001250
K       12.62153459      12.56083604       3.33389781       22       0.00017231      -0.00012969      -0.00003354
In      21.57433421       7.12143416      -0.54687782       23       0.00008655      -0.00031403      -0.00068159
I       12.88767074       9.33436851       1.90286556       24      -0.00005469      -0.00016726      -0.00018266
I       12.35631074      15.78679654       4.76697888       25       0.00005290      -0.00027967      -0.00009075
I       15.23919348      13.26364079       1.06099183       26      -0.00012470      -0.00011242       0.00010479
I       27.44962163      11.30895790       5.23357347       27      -0.00066184      -0.00035774       0.00051567
I       10.65688107      13.97972294       0.75886519       28       0.00014367      -0.00024167       0.00015444
I       14.58477066      11.14156042       5.90994545       29       0.00026234      -0.00026762       0.00013475
Cs      12.36642810      12.40099525       8.88430642       30       0.00000319       0.00025707      -0.00014695
Cs      21.14996144      17.49006495      12.54353624       31       0.00000331       0.00000380      -0.00010777
K       16.75915145      14.94457737      10.71524038       32      -0.00026966      -0.00013106       0.00019639
In      25.71112260       9.50406419       6.83317388       33       0.00042983       0.00042937      -0.00035142
I       17.02427238      11.71931922       9.28120738       34       0.00012983      -0.00036061       0.00029003
I       16.49305048      18.17112400      12.14607757       35      -0.00006066       0.00018633      -0.00010511
I       19.37741430      15.64613327       8.44270260       36      -0.00005319      -0.00005853       0.00002424
I       31.58646758      13.69359913      12.61562192       37       0.00000693       0.00015148      -0.00001243
I       14.79391582      16.36337863       8.14025784       38       0.00006778      -0.00031184      -0.00014003
I       18.72199349      13.52506855      13.29126294       39      -0.00033869       0.00020575      -0.00001731
Cs      12.82719999       2.06973831       1.49434498       40      -0.00015125      -0.00005516       0.00021520
Cs      21.60848474       7.15674123       5.15379555       41       0.00022923       0.00001760       0.00000883
K       17.21718201       4.61421196       3.32279292       42       0.00018777       0.00017907      -0.00023550
In       8.72382325      -0.27502343      -0.18587301       43      -0.00012728       0.00006738       0.00009034
I       17.48295735       1.38771161       1.89211813       44       0.00011423      -0.00003264      -0.00018598
I       16.95112039       7.83954694       4.75686227       45       0.00014541       0.00001564      -0.00033301
I        2.38930124       5.86567459       1.42230820       46      -0.00018783      -0.00043900       0.00027225
I       14.59918353       3.91234832       5.59497324       47      -0.00026914      -0.00002178       0.00020721
I       15.25353685       6.03335919       0.74705041       48       0.00019225      -0.00012391      -0.00002482
I       19.18302760       3.19655783       5.89788441       49      -0.00027530       0.00000969      -0.00000702
Cs      16.96329628       4.45290533       8.87341467       50       0.00008822      -0.00009144      -0.00015548
Cs      25.74650807       9.54145346      12.53238747       51      -0.00003981       0.00009627       0.00001162
K       21.35463976       6.99796022      10.70385818       52      -0.00022685       0.00023198       0.00012450
In      12.86046640       2.10767668       7.19425090       53       0.00032504       0.00033118       0.00022844
I       21.62011094       3.77263638       9.27079456       54      -0.00000471      -0.00009825       0.00002371
I       21.08774803      10.22384767      12.13581062       55       0.00024814       0.00035242      -0.00009378
I        6.52606565       8.24978282       8.80417106       56       0.00015695       0.00001370      -0.00009977
I       18.73755391       6.29551117      12.97675960       57       0.00003761       0.00007231      -0.00006873
I       19.39069667       8.41690073       8.12813889       58      -0.00035997       0.00049123      -0.00022687
I       23.31986012       5.58028521      13.27900388       59       0.00006155      -0.00047856      -0.00010462
Cs      16.95342659       9.74210594       1.32046681       60      -0.00009623      -0.00003623      -0.00005148
Cs      25.73703991      14.83074682       4.97757039       61      -0.00004541      -0.00007868       0.00008519
K       21.34527623      12.28571705       3.14819632       62      -0.00024499       0.00005712       0.00012756
In      12.85080819       7.39640916      -0.36110328       63      -0.00047683      -0.00049215       0.00029100
I       21.61013776       9.05853910       1.71759264       64       0.00002405       0.00045126       0.00038601
I       21.07882300      15.51241400       4.58034576       65      -0.00003085      -0.00051509      -0.00009557
I        6.51555586      13.53855839       1.24682505       66      -0.00005649       0.00012344      -0.00000763
I       18.72505653      11.58415834       5.41859796       67       0.00055292      -0.00004332       0.00004646
I       19.38033853      13.70397422       0.57281268       68       0.00012707      -0.00009522      -0.00002518
I       23.30890063      10.86675667       5.72397661       69      -0.00033859       0.00003353      -0.00023660
Cs      21.08993743      12.12416981       8.69893316       70       0.00011071       0.00016589      -0.00003876
Cs      29.87240363      17.21492027      12.35646150       71       0.00020471      -0.00001794      -0.00007009
K       25.48117917      14.66917962      10.52919437       72       0.00020519       0.00000036      -0.00011982
In      16.98787366       9.77948970       7.01896072       73      -0.00042229      -0.00015744       0.00012891
I       25.74749749      11.44318683       9.09604922       74       0.00007244       0.00038723      -0.00000206
I       25.21633566      17.89634112      11.95977921       75      -0.00003382       0.00006485       0.00010614
I       10.65285260      15.92287736       8.62840123       76      -0.00018815      -0.00013457       0.00021339
I       22.86252538      13.96794771      12.80052873       77       0.00020121       0.00028760       0.00002993
I       23.51835795      16.08840049       7.95235951       78      -0.00030617      -0.00017581       0.00004578
I       27.44589268      13.25085883      13.10500720       79      -0.00032013       0.00000566      -0.00015021
