20
Lattice="20.6841485193753 0.43374320158152624 5.284235441806526 6.81078172549177 7.343226280450679 0.20216687208789505 1.572167356746431 5.087063496018002 6.039829395958949" Properties=species:S:1:pos:R:3:spacegroup_kinds:I:1:forces:R:3 spacegroup="P 1" unit_cell=conventional occupancy="_JSON {\"0\": {\"Cs\": 1.0}, \"1\": {\"Cs\": 1.0}, \"2\": {\"K\": 1.0}, \"3\": {\"In\": 1.0}, \"4\": {\"I\": 1.0}, \"5\": {\"I\": 1.0}, \"6\": {\"I\": 1.0}, \"7\": {\"I\": 1.0}, \"8\": {\"I\": 1.0}, \"9\": {\"I\": 1.0}, \"10\": {\"Cs\": 1.0}, \"11\": {\"Cs\": 1.0}, \"12\": {\"K\": 1.0}, \"13\": {\"In\": 1.0}, \"14\": {\"I\": 1.0}, \"15\": {\"I\": 1.0}, \"16\": {\"I\": 1.0}, \"17\": {\"I\": 1.0}, \"18\": {\"I\": 1.0}, \"19\": {\"I\": 1.0}}" energy=-50.89705691254589 free_energy=-50.89705691254589 stress="-1.786516910810943e-06 -5.425030772843378e-07 -1.3439732033224772e-06 -5.425030772843378e-07 4.411209124867099e-07 -3.074820822117206e-07 -1.3439732033224772e-06 -3.074820822117206e-07 -2.4087121915408913e-06" pbc="T T T"
Cs       4.22582569       3.05190079       2.34638352        0      -0.00007409      -0.00009417       0.00005641
Cs      14.49855556       9.59615157       6.53497472        1       0.00011485      -0.00024698       0.00032808
K        9.36324802       6.32374274       4.44106055        2      -0.00012227       0.00010981       0.00040076
In      -0.00025339      -0.00014252       0.00051118        3       0.00025776      -0.00034220      -0.00034865
I        6.26878825       6.34718339       2.92350550        4       0.00055402       0.00017204      -0.00012248
I       12.45604500       6.29978015       5.96186110        5       0.00030568      -0.00047001      -0.00045916
I       10.58826909       3.04154308       3.58577164        6       0.00017173       0.00051559       0.00000202
I        8.13660607       9.60540700       5.29863324        7       0.00012819       0.00005152       0.00012345
I        9.79712316       7.00304692       0.74131521        8      -0.00010380       0.00001541       0.00004734
I        8.92779910       5.64404580       8.14366620        9      -0.00017532      -0.00021383       0.00009430
Cs      14.56798239       3.26850554       4.98834208       10      -0.00031539       0.00054193       0.00028189
Cs      24.84070380       9.81289929       9.17720686       11      -0.00000509      -0.00009752       0.00030902
K       19.70566212       6.54036921       7.08380028       12      -0.00068198       0.00036483       0.00011538
In      10.34201559       0.21657095       2.64261431       13      -0.00007353       0.00007111      -0.00000113
I       16.61131313       6.56421563       5.56575956       14      -0.00024670      -0.00017014       0.00007864
I       22.79832466       6.51649385       8.60384075       15      -0.00026730      -0.00001661       0.00013889
I       20.93034173       3.25859798       6.22776096       16       0.00008883       0.00003239      -0.00004305
I       18.47862767       9.82224581       7.94100304       17       0.00035337      -0.00012015      -0.00011347
I       20.13928967       7.21983236       3.38402882       18       0.00002651      -0.00003571      -0.00057831
I       19.26968617       5.86077958      10.78616382       19       0.00006455      -0.00006731      -0.00030992
