10
Lattice="9.178225221390155 -0.01631237765136001 0.005508952482181681 4.585331336773545 8.001199584928683 -0.025389941644343942 4.573057636747246 2.6253553697638607 6.934536173741905" Properties=species:S:1:pos:R:3:spacegroup_kinds:I:1:forces:R:3 spacegroup="P 1" unit_cell=conventional occupancy="_JSON {\"0\": {\"Cs\": 1.0}, \"1\": {\"Cs\": 1.0}, \"2\": {\"K\": 1.0}, \"3\": {\"In\": 1.0}, \"4\": {\"I\": 1.0}, \"5\": {\"I\": 1.0}, \"6\": {\"I\": 1.0}, \"7\": {\"I\": 1.0}, \"8\": {\"I\": 1.0}, \"9\": {\"I\": 1.0}}" energy=-25.64894378801295 free_energy=-25.64894378801295 stress="2.061817963565727e-06 -4.798490021845587e-06 -1.9421330162468545e-06 -4.798490021845587e-06 -3.8431198327381295e-06 -1.2251050524932246e-07 -1.9421330162468545e-06 -1.2251050524932246e-07 4.485007174414806e-06" pbc="T T T"
Cs       4.59906252       2.63892048       1.91970349        0       0.00047482       0.00038646      -0.00042417
Cs      13.73678860       7.97101144       4.99536492        1       0.00046239       0.00008492       0.00025133
K        9.16787575       5.30459338       3.45785966        2       0.00051837       0.00056902      -0.00031344
In       9.17824334      -0.01619928       0.00550246        3      -0.00022107      -0.00012734       0.00003979
I        6.95603281       3.20732649       5.24843572        4       0.00007624       0.00005323       0.00035869
I       11.38061344       7.40249839       1.66582704        5      -0.00010574       0.00024332      -0.00026234
I        9.87176730       2.28987802       1.74776322        6      -0.00034517       0.00000547      -0.00024809
I        8.46527278       8.32068762       5.16659327        7      -0.00033306      -0.00019298       0.00032753
I        6.24505461       6.19733274       1.67028624        8      -0.00029268      -0.00026737       0.00019890
I       12.09227836       4.41372987       5.24412137        9      -0.00023410      -0.00075471       0.00007180
