20
Lattice="16.292476747382892 0.0 0.0 -6.90859541296831 5.505861109602837 0.0 -4.139303185655344 -7.4736998975884825 5.279341705912026" Properties=species:S:1:pos:R:3 pbc="T T T"
Cs      -1.37288898       3.67057457      -0.00001545
Cs       3.64538895       1.83528753      -0.00001545
K       -1.55222030      -3.73684946       2.63967306
In       0.51743443       0.00000049       0.00000981
I        0.01380772      -0.05160082       1.05622934
I       -1.88059815      -1.91623698       4.22312789
I       -1.17521902      -5.97845986       4.22312013
I        5.69958187      -1.49524622       1.05622552
I       -5.40786919       2.56698951       1.05622552
I       -5.12260175      -4.53482113       4.22312013
Cs       6.77334940       3.67057457      -0.00001545
Cs      11.79162733       1.83528753      -0.00001545
K        6.59401807      -3.73684946       2.63967306
In       8.66367280       0.00000049       0.00000981
I        8.16004610      -0.05160082       1.05622934
I        6.26564022      -1.91623698       4.22312789
I        6.97101936      -5.97845986       4.22312013
I       13.84582024      -1.49524622       1.05622552
I        2.73836919       2.56698951       1.05622552
I        3.02363663      -4.53482113       4.22312013
