20
Lattice="18.65200335725801 -1.474342387648706 3.5124364584296432 -8.505347407457249 8.07434196675899 -0.21077175511390034 -2.7135653389997816 -8.553577966502061 5.630800562172793" Properties=species:S:1:pos:R:3:spacegroup_kinds:I:1:forces:R:3 spacegroup="P 1" unit_cell=conventional occupancy="_JSON {\"0\": {\"Cs\": 1.0}, \"1\": {\"Cs\": 1.0}, \"2\": {\"K\": 1.0}, \"3\": {\"In\": 1.0}, \"4\": {\"I\": 1.0}, \"5\": {\"I\": 1.0}, \"6\": {\"I\": 1.0}, \"7\": {\"I\": 1.0}, \"8\": {\"I\": 1.0}, \"9\": {\"I\": 1.0}, \"10\": {\"Cs\": 1.0}, \"11\": {\"Cs\": 1.0}, \"12\": {\"K\": 1.0}, \"13\": {\"In\": 1.0}, \"14\": {\"I\": 1.0}, \"15\": {\"I\": 1.0}, \"16\": {\"I\": 1.0}, \"17\": {\"I\": 1.0}, \"18\": {\"I\": 1.0}, \"19\": {\"I\": 1.0}}" energy=-51.12446032983652 free_energy=-51.12446032983652 stress="-1.7696299401721454e-06 8.059085535853638e-07 -3.0363386889421804e-06 8.059085535853638e-07 -1.6709853702387484e-06 1.8194467471442603e-06 -3.0363386889421804e-06 1.8194467471442603e-06 -5.122157516151698e-07" pbc="T T T"
Cs      -4.90456621      -3.92350546       5.33747827        0       0.00008056       0.00011806       0.00022473
Cs       1.66662285      -7.75647340       8.93810500        1      -0.00004048      -0.00008356       0.00006944
K       -0.89291907      -2.76370945       1.30608106        2      -0.00014406       0.00019517      -0.00002131
In       1.40557465       1.55721341      -0.00248367        3       0.00025907       0.00010162       0.00008112
I       -1.49611212       0.61754363       0.22687718        4       0.00024181       0.00005003       0.00019195
I       -0.11605926      -1.53680661       4.59353798        5      -0.00014196      -0.00014656       0.00028181
I        1.46858925      -6.04352321       5.32853069        6      -0.00018776      -0.00008031      -0.00010981
I       -3.52446281       5.00400910       3.43994034        7       0.00001233      -0.00010957       0.00002006
I       -7.29550700       0.93565216       0.40773891        8       0.00006965       0.00007137      -0.00026003
I       -2.08667837      -5.85269690       3.15771128        9      -0.00024986      -0.00024343       0.00011256
Cs       2.93350923      -2.85782690       7.01097606       10      -0.00044159      -0.00017703       0.00027991
Cs      12.30673692      -9.01300761      12.60768540       11       0.00021069       0.00000509      -0.00009381
K        8.23253714      -2.40151884       4.61591751       12       0.00013684      -0.00013414       0.00001112
In      10.77565727       0.60239921       1.41966365       13       0.00000310      -0.00036412       0.00011474
I        7.88065915      -0.33515914       1.67785377       14      -0.00011611      -0.00004832       0.00009742
I        9.71598544      -3.04686865       9.21904457       15       0.00017336       0.00022767      -0.00006666
I       10.83798880      -6.97655984       6.80679520       16      -0.00008346       0.00000586       0.00017266
I        5.82684817       4.09638364       4.96916831       17       0.00033749       0.00038527      -0.00042919
I        1.07207840       3.00966281       2.38362687       18      -0.00020522       0.00001318      -0.00038132
I        6.99541854      -5.35373191       6.69270877       19       0.00008560       0.00021372      -0.00029540
