40
Lattice="21.12549496716091 -0.2951604365534413 -3.1212127205539626 16.931993865251872 16.011067249029374 -5.627302341646255 8.186512808210427 -4.034109544293094 5.543598552984635" Properties=species:S:1:pos:R:3:spacegroup_kinds:I:1:forces:R:3 spacegroup="P 1" unit_cell=conventional occupancy="_JSON {\"0\": {\"Cs\": 1.0}, \"1\": {\"Cs\": 1.0}, \"2\": {\"K\": 1.0}, \"3\": {\"In\": 1.0}, \"4\": {\"I\": 1.0}, \"5\": {\"I\": 1.0}, \"6\": {\"I\": 1.0}, \"7\": {\"I\": 1.0}, \"8\": {\"I\": 1.0}, \"9\": {\"I\": 1.0}, \"10\": {\"Cs\": 1.0}, \"11\": {\"Cs\": 1.0}, \"12\": {\"K\": 1.0}, \"13\": {\"In\": 1.0}, \"14\": {\"I\": 1.0}, \"15\": {\"I\": 1.0}, \"16\": {\"I\": 1.0}, \"17\": {\"I\": 1.0}, \"18\": {\"I\": 1.0}, \"19\": {\"I\": 1.0}, \"20\": {\"Cs\": 1.0}, \"21\": {\"Cs\": 1.0}, \"22\": {\"K\": 1.0}, \"23\": {\"In\": 1.0}, \"24\": {\"I\": 1.0}, \"25\": {\"I\": 1.0}, \"26\": {\"I\": 1.0}, \"27\": {\"I\": 1.0}, \"28\": {\"I\": 1.0}, \"29\": {\"I\": 1.0}, \"30\": {\"Cs\": 1.0}, \"31\": {\"Cs\": 1.0}, \"32\": {\"K\": 1.0}, \"33\": {\"In\": 1.0}, \"34\": {\"I\": 1.0}, \"35\": {\"I\": 1.0}, \"36\": {\"I\": 1.0}, \"37\": {\"I\": 1.0}, \"38\": {\"I\": 1.0}, \"39\": {\"I\": 1.0}}" energy=-102.88028932559874 free_energy=-102.88028932559874 stress="-9.951654805545914e-07 2.9887016079403137e-07 -9.637538134907235e-07 2.9887016079403137e-07 -1.080677580484344e-06 8.973137890980134e-07 -9.637538134907235e-07 8.973137890980134e-07 -1.0792430661494885e-06" pbc="T T T"
Cs       6.83730844      -0.78952466       1.85511963        0       0.00002146       0.00015888      -0.00027552
Cs      20.37869677       4.61253015      -0.68584211        1      -0.00009893       0.00031585      -0.00019862
K       13.60792418       1.91181568       0.58404221        2       0.00031474      -0.00019558       0.00022335
In      21.12549903      -0.29509977      -3.12114774        3      -0.00027355      -0.00029922       0.00009971
I       30.37475475      14.86778752      -6.76889924        4       0.00011741       0.00015822       0.00030370
I       34.89702797       4.67032699      -0.80978694        5       0.00028786       0.00034479       0.00024255
I       16.77963959       3.21458926      -0.12500363        6      -0.00006697      -0.00004937      -0.00007386
I       10.43550896       0.61159601       1.29371161        7       0.00009080      -0.00007595       0.00003449
I       19.79951974      -1.49914397       3.31880794        8      -0.00009000       0.00022305      -0.00006909
I        7.41799687       5.32184415      -2.15155201        9      -0.00036072       0.00005998       0.00000140
Cs      15.30291995       7.21664742      -0.95844482       10      -0.00003589      -0.00020378       0.00011800
Cs      28.84406065      12.61879883      -3.49950236       11      -0.00011264      -0.00022443       0.00023312
K       22.07332823       9.91750656      -2.22858257       12      -0.00007972       0.00033442      -0.00008610
In      29.59144461       7.71037130      -5.93485350       13      -0.00006204       0.00000324      -0.00008798
I       21.90989186       6.86397193      -3.95629917       14      -0.00055458      -0.00017770      -0.00006346
I       26.43209183      -3.33321128       2.00282508       15       0.00011899      -0.00026720      -0.00022051
I       25.24611717      11.21706319      -2.93772245       16      -0.00012702       0.00032853      -0.00026112
I       18.90196714       8.61455744      -1.51926031       17      -0.00020238       0.00009383       0.00002929
I       28.26288096       6.50790556       0.50757726       18       0.00006725      -0.00069576      -0.00026095
I       15.88117591      13.32890160      -4.96278254       19       0.00016633      -0.00006540       0.00014201
Cs      17.39999803      -0.93688945       0.29416368       20       0.00003543       0.00013933      -0.00015260
Cs      30.94125781       4.46500779      -2.24604141       21      -0.00001066       0.00031713      -0.00022738
K       24.17071628       1.76414743      -0.97644661       22       0.00020338      -0.00018701       0.00010880
In      10.56272585      -0.14743655      -1.56057020       23      -0.00003153      -0.00047208       0.00001475
I       19.81162096      15.01499982      -5.20760932       24       0.00033807       0.00014704       0.00025586
I       24.33426405       4.81773011       0.75112478       25       0.00021863       0.00045943       0.00015262
I       27.34242497       3.06708206      -1.68558972       26      -0.00019333      -0.00014010      -0.00011596
I       20.99776060       0.46503474      -0.26702520       27       0.00019771      -0.00049751      -0.00019420
I       30.36301351      -1.64725572       1.75768765       28      -0.00023310       0.00058354       0.00015971
I       17.98081577       5.17427665      -3.71230122       29      -0.00003772      -0.00005511       0.00025431
Cs      25.86553180       7.06919416      -2.51949908       30      -0.00004215      -0.00030113       0.00027073
Cs      39.40668663      12.47135115      -5.05979759       31      -0.00003633      -0.00021065       0.00017754
K       32.63615973       9.76989684      -3.78913551       32      -0.00033024       0.00018093      -0.00004474
In      19.02866769       7.85799105      -4.37430228       33       0.00040722       0.00033180       0.00012202
I       11.34654340       7.01138537      -2.39532572       34       0.00031695      -0.00035319      -0.00016167
I       15.86939098      -3.18600118       3.56390321       35      -0.00036167       0.00004773      -0.00027488
I       35.80870734      11.06981347      -4.49837976       36      -0.00001749       0.00040900      -0.00030691
I       29.46435969       8.46711386      -3.07994577       37       0.00000867       0.00038550       0.00030827
I       38.82590710       6.36009521      -1.05307218       38       0.00013001      -0.00023567      -0.00033604
I       26.44418462      13.18115020      -6.52368782       39       0.00031774      -0.00031535       0.00015939
