10
Lattice="10.702130925603532 0.0 0.0 -0.4571742096553218 8.92436733862753 0.0 -0.1300962861343195 1.9465416552663939 7.12151803860032" Properties=species:S:1:pos:R:3 pbc="T T T"
Cs       4.34196935       6.93661873      -0.00002520
Cs       8.06173773       3.96182962      -0.00002520
K       -0.06504814       0.97327083       3.56075902
In       1.07938753       0.98704737       0.00002750
I        3.73959181       3.71645476       1.42480332
I        8.53404563       9.12854208       5.69676115
I        3.78140869       2.54413121       5.69676088
I        8.94937497       1.37646670       1.42480305
I       -0.36333093       6.97383365       1.42478010
I       -0.22393956       3.89707535       5.69673793
