10
Lattice="18.51356047638954 -0.3440784072018902 2.019688791138154 -14.973203296709878 9.329171639797526 -0.813156941150981 9.43040986770453 16.81602434129741 6.67990919549646" Properties=species:S:1:pos:R:3:spacegroup_kinds:I:1:forces:R:3 spacegroup="P 1" unit_cell=conventional occupancy="_JSON {\"0\": {\"Cs\": 1.0}, \"1\": {\"Cs\": 1.0}, \"2\": {\"K\": 1.0}, \"3\": {\"In\": 1.0}, \"4\": {\"I\": 1.0}, \"5\": {\"I\": 1.0}, \"6\": {\"I\": 1.0}, \"7\": {\"I\": 1.0}, \"8\": {\"I\": 1.0}, \"9\": {\"I\": 1.0}}" energy=-24.47443203678937 free_energy=-24.47443203678937 stress="2.0311378387114282e-07 -4.949697265594571e-07 -2.2016029905102106e-07 -4.949697265594571e-07 -2.4423672017893305e-07 -1.7789571017195267e-07 -2.2016029905102106e-07 -1.7789571017195267e-07 -7.061291193860207e-07" pbc="T T T"
Cs       4.63865016      21.50129078       6.62206932        0       0.00002800      -0.00000845      -0.00000565
Cs      18.12495205      20.17689617      11.13304704        1       0.00000768       0.00000515      -0.00001649
K        3.24900303       8.06978944       2.77559197        2       0.00000728      -0.00001646       0.00000799
In       2.46527280       0.42246476      -4.00339090        3      -0.00001868      -0.00000737       0.00000709
I        2.18063759       6.49222014       5.77198689        4       0.00002098       0.00001235       0.00000268
I       11.31354825      20.16803285       0.30633986        5      -0.00000067      -0.00002811      -0.00000356
I        0.99533961      22.58604333       5.99626014        6      -0.00001859      -0.00001113      -0.00000216
I        1.11890934      10.74773738       1.85741157        7      -0.00000696      -0.00000679      -0.00000398
I       12.27121192      14.38907722       9.05269355        8      -0.00001134       0.00002811       0.00001092
I       21.01780846      13.52118601       4.18481453        9      -0.00000769       0.00003270       0.00000316
