80
Lattice="20.15162038047676 0.0 0.0 4.895582985749757 13.716180531378127 0.0 15.255689999106274 9.160245794206364 5.08141203182568" Properties=species:S:1:pos:R:3 pbc="T T T"
Cs       5.03782147       2.85954112       0.63517965
Cs      15.11362511       8.57867173       1.90552616
K       10.07572338       5.71910647       1.27035289
In       0.00000011       0.00000027       0.00000010
I        9.16119980       4.55006758       1.27784030
I       10.99024698       6.88814514       1.26286548
I       10.89539398       3.16182766       0.65250211
I        9.25605231       8.27638503       1.88820360
I        6.02204702       6.27295808       0.52835728
I       14.12940002       5.16525566       2.01234897
Cs      12.66566647       7.43966401       3.17588567
Cs      22.74147011      13.15879463       4.44623218
K       17.70356838      10.29922936       3.81105891
In       7.62784511       4.58012317       2.54070612
I       16.78904480       9.13019047       3.81854632
I       18.61809198      11.46826804       3.80357149
I       18.52323898       7.74195056       3.19320812
I       16.88389731      12.85650792       4.42890962
I       13.64989202      10.85308098       3.06906330
I       21.75724502       9.74537856       4.55305499
Cs       7.48561296       9.71763138       0.63517965
Cs      17.56141660      15.43676200       1.90552616
K       12.52351488      12.57719673       1.27035289
In       2.44779161       6.85809054       0.00000010
I       11.60899129      11.40815784       1.27784030
I       13.43803847      13.74623541       1.26286548
I       13.34318548      10.01991793       0.65250211
I       11.70384380      15.13447529       1.88820360
I        8.46983851      13.13104835       0.52835728
I       16.57719151      12.02334593       2.01234897
Cs      15.11345796      14.29775428       3.17588567
Cs      25.18926160      20.01688489       4.44623218
K       20.15135988      17.15731963       3.81105891
In      10.07563661      11.43821343       2.54070612
I       19.23683629      15.98828074       3.81854632
I       21.06588347      18.32635831       3.80357149
I       20.97103048      14.60004082       3.19320812
I       19.33168880      19.71459819       4.42890962
I       16.09768351      17.71117125       3.06906330
I       24.20503651      16.60346882       4.55305499
Cs      15.11363166       2.85954112       0.63517965
Cs      25.18943530       8.57867173       1.90552616
K       20.15153357       5.71910647       1.27035289
In      10.07581030       0.00000027       0.00000010
I       19.23700999       4.55006758       1.27784030
I       21.06605717       6.88814514       1.26286548
I       20.97120417       3.16182766       0.65250211
I       19.33186250       8.27638503       1.88820360
I       16.09785721       6.27295808       0.52835728
I       24.20521021       5.16525566       2.01234897
Cs      22.74147666       7.43966401       3.17588567
Cs      32.81728030      13.15879463       4.44623218
K       27.77937857      10.29922936       3.81105891
In      17.70365530       4.58012317       2.54070612
I       26.86485499       9.13019047       3.81854632
I       28.69390217      11.46826804       3.80357149
I       28.59904917       7.74195056       3.19320812
I       26.95970750      12.85650792       4.42890962
I       23.72570221      10.85308098       3.06906330
I       31.83305521       9.74537856       4.55305499
Cs      17.56142315       9.71763138       0.63517965
Cs      27.63722679      15.43676200       1.90552616
K       22.59932507      12.57719673       1.27035289
In      12.52360180       6.85809054       0.00000010
I       21.68480148      11.40815784       1.27784030
I       23.51384866      13.74623541       1.26286548
I       23.41899567      10.01991793       0.65250211
I       21.77965399      15.13447529       1.88820360
I       18.54564870      13.13104835       0.52835728
I       26.65300170      12.02334593       2.01234897
Cs      25.18926815      14.29775428       3.17588567
Cs      35.26507179      20.01688489       4.44623218
K       30.22717007      17.15731963       3.81105891
In      20.15144680      11.43821343       2.54070612
I       29.31264648      15.98828074       3.81854632
I       31.14169366      18.32635831       3.80357149
I       31.04684067      14.60004082       3.19320812
I       29.40749899      19.71459819       4.42890962
I       26.17349370      17.71117125       3.06906330
I       34.28084670      16.60346882       4.55305499
