40
Lattice="12.344844502306849 1.5058035677932882 2.042813255523995 -1.0497957999685377 12.297916536181695 -2.722243971662555 -2.9904240615733975 2.4023087755693306 12.005532177158816" Properties=species:S:1:pos:R:3:spacegroup_kinds:I:1:forces:R:3 spacegroup="P 1" unit_cell=conventional occupancy="_JSON {\"0\": {\"Cs\": 1.0}, \"1\": {\"Pb\": 1.0}, \"2\": {\"I\": 1.0}, \"3\": {\"I\": 1.0}, \"4\": {\"I\": 1.0}, \"5\": {\"Cs\": 1.0}, \"6\": {\"Pb\": 1.0}, \"7\": {\"I\": 1.0}, \"8\": {\"I\": 1.0}, \"9\": {\"I\": 1.0}, \"10\": {\"Cs\": 1.0}, \"11\": {\"Pb\": 1.0}, \"12\": {\"I\": 1.0}, \"13\": {\"I\": 1.0}, \"14\": {\"I\": 1.0}, \"15\": {\"Cs\": 1.0}, \"16\": {\"Pb\": 1.0}, \"17\": {\"I\": 1.0}, \"18\": {\"I\": 1.0}, \"19\": {\"I\": 1.0}, \"20\": {\"Cs\": 1.0}, \"21\": {\"Pb\": 1.0}, \"22\": {\"I\": 1.0}, \"23\": {\"I\": 1.0}, \"24\": {\"I\": 1.0}, \"25\": {\"Cs\": 1.0}, \"26\": {\"Pb\": 1.0}, \"27\": {\"I\": 1.0}, \"28\": {\"I\": 1.0}, \"29\": {\"I\": 1.0}, \"30\": {\"Cs\": 1.0}, \"31\": {\"Pb\": 1.0}, \"32\": {\"I\": 1.0}, \"33\": {\"I\": 1.0}, \"34\": {\"I\": 1.0}, \"35\": {\"Cs\": 1.0}, \"36\": {\"Pb\": 1.0}, \"37\": {\"I\": 1.0}, \"38\": {\"I\": 1.0}, \"39\": {\"I\": 1.0}}" energy=-113.01605690557625 free_energy=-113.01605690557625 stress="-1.8959129964113112e-06 -1.6058683574445934e-07 -7.117889667731535e-07 -1.6058683574445934e-07 2.6316596904463057e-07 3.0045011990545215e-07 -7.117889667731535e-07 3.0045011990545215e-07 5.270162906149646e-07" pbc="T T T"
Cs       1.35128193       4.03408272       3.02800757        0       0.00031597      -0.00029339      -0.00041794
Pb       0.00055484      -0.00066859       0.00062954        1      -0.00043673       0.00015966       0.00029642
I       -1.44763646       1.02375902       2.74669008        2       0.00017943       0.00047043      -0.00046343
I        2.91441292       1.02281176       1.05128776        3       0.00021686      -0.00012222      -0.00016808
I       11.75806877       4.40963366       0.72072093        4      -0.00012170       0.00025198      -0.00015600
Cs       0.11268355       5.33982776       9.41534602        5      -0.00007551       0.00047401      -0.00010128
Pb      -1.49516647       1.20180007       6.00362161        6       0.00019944      -0.00007912      -0.00019983
I       -1.54120658       1.37683891       9.26118739        7      -0.00015012       0.00011809       0.00016503
I        1.76297986       0.93263549       5.97552723        8      -0.00019988      -0.00002403      -0.00022925
I       11.05616658       5.94307804       7.91406283        9      -0.00014425       0.00003584       0.00019911
Cs       2.27430215      10.21981481       1.27502536       10       0.00037575      -0.00006424      -0.00003170
Pb      -0.52528908       6.14791017      -1.36111557       11       0.00026274       0.00027500      -0.00007235
I       -1.88546203       6.14911299       1.61106140       12      -0.00025918       0.00012276      -0.00010758
I        2.47691458       6.14613569      -0.08537567       13       0.00013353       0.00005919       0.00026110
I       11.88091531      10.89811448       0.64339742       14       0.00021946       0.00017022      -0.00026803
Cs       0.52507453      11.31196893       6.89263729       15       0.00001805       0.00014201       0.00024982
Pb      10.32450866       8.85599457       6.68439504       16      -0.00001476      -0.00023622       0.00012844
I       -2.15538702       8.55027321       7.67202006       17       0.00009993      -0.00014371      -0.00003045
I        1.14988243       8.10505106       4.38627278       18       0.00046849      -0.00004138      -0.00022916
I       -2.74978020      10.26353254       3.41319018       19      -0.00031720      -0.00010232       0.00028379
Cs       7.78065012       4.89117756       4.43104406       20      -0.00023155       0.00019162       0.00012539
Pb       6.17227287       0.75352206       1.02180615       21       0.00021837      -0.00032858      -0.00043510
I        6.12620342       0.92976858       4.27900945       22      -0.00016562      -0.00027099      -0.00020543
I        9.42972273       0.48389970       0.99411418       23       0.00007847      -0.00015963      -0.00013184
I        6.37820217       3.98912061       0.88757512       24      -0.00022206      -0.00008640       0.00009601
Cs       6.02903898       5.98790141      10.05030154       25      -0.00023585       0.00000749       0.00009357
Pb       4.67760714       1.95386362       7.02448947       26       0.00004356       0.00055384       0.00018652
I        3.22991179       2.97928173       9.76985686       27      -0.00007428      -0.00005711       0.00023469
I        7.59291121       2.97719692       8.07376297       28      -0.00009824      -0.00041627       0.00028427
I        4.09163699       4.85901619       5.70152706       29      -0.00010216      -0.00018555      -0.00001931
Cs       8.19243249      10.86523867       1.91269614       30      -0.00015980      -0.00029013       0.00013817
Pb       5.64696708       6.90253078      -0.34098646       31      -0.00019608      -0.00008337       0.00001054
I        5.51241686       8.10255934       2.69003578       32      -0.00007695      -0.00006278      -0.00001372
I        8.81716906       7.65684540      -0.59540434       33      -0.00026793       0.00005723       0.00004933
I        4.91430777       9.81563666      -1.56854498       34       0.00050368      -0.00034083      -0.00011941
Cs       6.95335671      12.17372240       8.29934294       35       0.00000542       0.00001363      -0.00023451
Pb       4.15240514       8.10270827       5.66194123       36      -0.00005756       0.00006562       0.00038039
I        2.79040257       8.10424697       8.63431146       37       0.00039122      -0.00012991      -0.00020763
I        7.15512818       8.09961640       6.93729481       38      -0.00035309       0.00041302       0.00057093
I        4.21447489      11.34740199       5.62421935       39       0.00023012      -0.00006349       0.00008853
