40
Lattice="12.243030809419238 -3.66078155647056 0.7459130219039822 3.5182829157235083 12.283912348891135 -0.9807661610777686 -0.42865004919783173 1.136403387376894 12.73273621878452" Properties=species:S:1:pos:R:3:spacegroup_kinds:I:1:forces:R:3 spacegroup="P 1" unit_cell=conventional occupancy="_JSON {\"0\": {\"Cs\": 1.0}, \"1\": {\"Pb\": 1.0}, \"2\": {\"I\": 1.0}, \"3\": {\"I\": 1.0}, \"4\": {\"I\": 1.0}, \"5\": {\"Cs\": 1.0}, \"6\": {\"Pb\": 1.0}, \"7\": {\"I\": 1.0}, \"8\": {\"I\": 1.0}, \"9\": {\"I\": 1.0}, \"10\": {\"Cs\": 1.0}, \"11\": {\"Pb\": 1.0}, \"12\": {\"I\": 1.0}, \"13\": {\"I\": 1.0}, \"14\": {\"I\": 1.0}, \"15\": {\"Cs\": 1.0}, \"16\": {\"Pb\": 1.0}, \"17\": {\"I\": 1.0}, \"18\": {\"I\": 1.0}, \"19\": {\"I\": 1.0}, \"20\": {\"Cs\": 1.0}, \"21\": {\"Pb\": 1.0}, \"22\": {\"I\": 1.0}, \"23\": {\"I\": 1.0}, \"24\": {\"I\": 1.0}, \"25\": {\"Cs\": 1.0}, \"26\": {\"Pb\": 1.0}, \"27\": {\"I\": 1.0}, \"28\": {\"I\": 1.0}, \"29\": {\"I\": 1.0}, \"30\": {\"Cs\": 1.0}, \"31\": {\"Pb\": 1.0}, \"32\": {\"I\": 1.0}, \"33\": {\"I\": 1.0}, \"34\": {\"I\": 1.0}, \"35\": {\"Cs\": 1.0}, \"36\": {\"Pb\": 1.0}, \"37\": {\"I\": 1.0}, \"38\": {\"I\": 1.0}, \"39\": {\"I\": 1.0}}" energy=-111.87497826110518 free_energy=-111.87497826110518 stress="-4.806976962687519e-06 1.4570026242710361e-06 5.0576840791252036e-06 1.4570026242710361e-06 6.250736475950745e-06 -6.920675154598084e-06 5.0576840791252036e-06 -6.920675154598084e-06 1.0642308047872554e-05" pbc="T T T"
Cs       3.95762656       2.09612081       3.16199070        0      -0.00043966      -0.00060348       0.00014533
Pb      12.24015948      -3.65821368       0.74623743        1       0.00035754      -0.00017656      -0.00002547
I       12.12433780      -3.26516209       3.91865738        2       0.00062807       0.00047933      -0.00040474
I        3.06881839      -0.76672262       0.17522488        3       0.00022483       0.00025952      -0.00030661
I        0.76150859       3.15209057      -0.26131323        4      -0.00051093       0.00012155       0.00046287
Cs       3.74330511       2.66431407       9.52837092        5      -0.00042957      -0.00058001       0.00008637
Pb      12.02591730      -3.09010794       7.11268629        6       0.00015663       0.00012862      -0.00037504
I       11.90999764      -2.69693921      10.28491989        7       0.00061656       0.00051909       0.00018841
I        2.85446536      -0.19849761       6.54158259        8       0.00031212       0.00022223      -0.00027885
I        0.54719487       3.72026457       6.10506124        9      -0.00047674       0.00023880       0.00046215
Cs       5.71677106       8.23806824       2.67161608       10      -0.00042507      -0.00056332       0.00010282
Pb       1.75625909       6.14454953      -0.49003822       11       0.00034156      -0.00030983      -0.00017303
I        1.64044512       6.53757217       2.68236441       12       0.00065303       0.00050418      -0.00041322
I        4.82797115       5.37522330      -0.31515801       13       0.00019362       0.00028291      -0.00029608
I        2.52063135       9.29410019      -0.75171055       14      -0.00058763      -0.00016116       0.00048720
Cs       5.50244138       8.80627743       9.03797961       15      -0.00042547      -0.00058730       0.00012880
Pb       1.54193931       6.71278468       5.87631998       16       0.00013449      -0.00050605      -0.00012869
I        1.42610906       7.10579276       9.04862622       17       0.00063944       0.00054816       0.00016414
I        4.61366476       5.94340958       6.05121463       18       0.00013820       0.00031972      -0.00030638
I        2.30629962       9.86232112       5.61465078       19      -0.00061507      -0.00029701       0.00051165
Cs      10.07913825       0.26573326       3.53494257       20      -0.00042930      -0.00060461       0.00017787
Pb       6.11876986      -1.82792519       0.37332081       21      -0.00027012       0.00007165      -0.00013112
I        6.00281796      -1.43476708       3.54568996       22       0.00066783       0.00047538      -0.00035984
I        9.19032805      -2.59710871       0.54818111       23       0.00033612       0.00023237      -0.00029982
I        6.88301131       1.32171890       0.11163698       24      -0.00047494       0.00004591       0.00047347
Cs       9.86482062       0.83392336       9.90133000       25      -0.00043007      -0.00058139       0.00005583
Pb       5.90444892      -1.25975480       6.73974237       26      -0.00008886       0.00022192      -0.00036696
I        5.78847487      -0.86654425       9.91196520       27       0.00065774       0.00051123       0.00018297
I        8.97596340      -2.02887509       6.91453707       28       0.00044396       0.00018589      -0.00027031
I        6.66870486       1.88988135       6.47801509       29      -0.00045651       0.00021043       0.00046088
Cs      11.83828274       6.40768034       3.04456812       30      -0.00041484      -0.00056409       0.00013536
Pb       7.87790100       4.31405538      -0.11704078       31      -0.00029044      -0.00005662      -0.00028312
I        7.76195558       4.70718582       3.05531001       32       0.00069312       0.00049999      -0.00036754
I       10.94947981       3.54483777       0.05779791       33       0.00031035       0.00025456      -0.00028894
I        8.64213353       7.46372894      -0.37876057       34      -0.00055162      -0.00023727       0.00049790
Cs      11.62395699       6.97588624       9.41093873       35      -0.00042631      -0.00058809       0.00009816
Pb       7.66350147       4.88235565       6.24928850       36      -0.00010984      -0.00041047      -0.00011727
I        7.54761668       5.27540650       9.42158440       37       0.00068078       0.00053989       0.00015828
I       10.73516378       4.11303106       6.42416953       38       0.00026322       0.00028615      -0.00029840
I        8.42780840       8.03193959       5.98760425       39      -0.00059618      -0.00033219       0.00051095
