10
Lattice="12.774120739070614 0.0 0.0 0.0 6.387060369535306 0.0 0.0 0.0 6.387060369535306" Properties=species:S:1:pos:R:3:spacegroup_kinds:I:1:forces:R:3 spacegroup="P 1" unit_cell=conventional occupancy="_JSON {\"0\": {\"Cs\": 1.0}, \"1\": {\"Pb\": 1.0}, \"2\": {\"I\": 1.0}, \"3\": {\"I\": 1.0}, \"4\": {\"I\": 1.0}, \"5\": {\"Cs\": 1.0}, \"6\": {\"Pb\": 1.0}, \"7\": {\"I\": 1.0}, \"8\": {\"I\": 1.0}, \"9\": {\"I\": 1.0}}" energy=-27.961484857250333 free_energy=-27.961484857250333 stress="-1.7499722770112286e-07 -1.0429972999779127e-11 2.8201221278996007e-18 -1.0429972999779127e-11 -1.7499722919938687e-07 8.399041409601199e-19 2.8201221278996007e-18 8.399041409601199e-19 -1.7495903762395512e-07" pbc="T T T"
Cs       3.19371861       3.19334175       3.19353018        0       0.00000745      -0.00000745      -0.00000000
Pb       0.00000000       0.00000000       0.00000000        1       0.00000769      -0.00000769      -0.00000000
I        0.00000000       0.00000000       3.19353018        2      -0.00001202       0.00001202      -0.00000000
I        3.19353018       0.00000000       0.00000000        3       0.00000891       0.00001202       0.00000000
I        0.00000000       3.19353018       0.00000000        4      -0.00001202      -0.00000891       0.00000000
Cs       9.58077898       3.19334175       3.19353018        5       0.00000745      -0.00000745      -0.00000000
Pb       6.38706037       0.00000000       0.00000000        6       0.00000769      -0.00000769      -0.00000000
I        6.38706037       0.00000000       3.19353018        7      -0.00001202       0.00001202      -0.00000000
I        9.58059055       0.00000000       0.00000000        8       0.00000891       0.00001202       0.00000000
I        6.38706037       3.19353018       0.00000000        9      -0.00001202      -0.00000891       0.00000000
