10
Lattice="8.008836715716223 0.0 0.0 -4.354914612927511 7.542933372214605 0.0 0.0 -4.3553545274701895 7.608377729335268" Properties=species:S:1:pos:R:3 pbc="T T T"
Cs       4.54466155      -2.14551814       7.60120220
Cs       0.42341111       4.71596061       0.00712618
K        0.65707710      -2.48624573       3.80418767
In       0.65708232      -0.30857115       0.00001030
I        6.56555656      -1.17454595       1.52191987
I       -1.59748844       3.74496908       6.08645786
I        1.61952586       0.79554243       1.52192701
I        3.34856214       1.77490849       6.08646500
I        5.44890794       4.38259701       1.52192281
I       -0.48083467      -1.81214969       6.08646080
