10
Lattice="9.292712622639144 0.3233826434412108 0.07574743218662 -4.931484224943369 7.595291281447945 2.1092654090639353 0.011011635944396669 -2.354554635249101 8.50890081081019" Properties=species:S:1:pos:R:3:spacegroup_kinds:I:1:forces:R:3 spacegroup="P 1" unit_cell=conventional occupancy="_JSON {\"0\": {\"Cs\": 1.0}, \"1\": {\"Cs\": 1.0}, \"2\": {\"K\": 1.0}, \"3\": {\"In\": 1.0}, \"4\": {\"I\": 1.0}, \"5\": {\"I\": 1.0}, \"6\": {\"I\": 1.0}, \"7\": {\"I\": 1.0}, \"8\": {\"I\": 1.0}, \"9\": {\"I\": 1.0}}" energy=-25.793816424448003 free_energy=-25.793816424448003 stress="8.799780255810339e-08 4.271524645406089e-06 -3.568887843890557e-07 4.271524645406089e-06 2.2896008565722938e-06 1.1840592757596833e-06 -3.568887843890557e-07 1.1840592757596833e-06 1.1214860641435169e-06" pbc="T T T"
Cs       5.31904101       0.10275735       9.17708092        0       0.00051647      -0.00015817      -0.00003301
Cs       0.56727501       4.87870020       1.35262432        1       0.00045576       0.00017047       0.00015424
K       -4.16772010       6.12671569       6.28212114        2      -0.00059948       0.00013790      -0.00022015
In      -4.17423364       7.30371235       2.02778929        3      -0.00007078       0.00067422      -0.00018925
I        2.68396842       7.07381252       3.78619672        4       0.00059125      -0.00007287       0.00013502
I       -1.72887006       5.50294491       8.85356324        5       0.00048961      -0.00007966       0.00012162
I        1.90567308       1.31238203       2.19328240        6      -0.00076648      -0.00022888      -0.00003381
I        3.98223290       3.66904525       8.33713360        7      -0.00056490      -0.00004007      -0.00005601
I       -2.88033461       4.83987515       3.17656801        8      -0.00012040       0.00001743       0.00013045
I       -0.52534124      -0.18198858       7.27819894        9       0.00006896      -0.00042039      -0.00000909
