20
Lattice="16.607227451210758 -0.36742201034654487 -0.9458374352761926 5.155423015308812 9.323733995862643 -0.6936619442992723 7.3488747354191295 5.0163681087271765 5.745260558645807" Properties=species:S:1:pos:R:3:spacegroup_kinds:I:1:forces:R:3 spacegroup="P 1" unit_cell=conventional occupancy="_JSON {\"0\": {\"Cs\": 1.0}, \"1\": {\"Cs\": 1.0}, \"2\": {\"K\": 1.0}, \"3\": {\"In\": 1.0}, \"4\": {\"I\": 1.0}, \"5\": {\"I\": 1.0}, \"6\": {\"I\": 1.0}, \"7\": {\"I\": 1.0}, \"8\": {\"I\": 1.0}, \"9\": {\"I\": 1.0}, \"10\": {\"Cs\": 1.0}, \"11\": {\"Cs\": 1.0}, \"12\": {\"K\": 1.0}, \"13\": {\"In\": 1.0}, \"14\": {\"I\": 1.0}, \"15\": {\"I\": 1.0}, \"16\": {\"I\": 1.0}, \"17\": {\"I\": 1.0}, \"18\": {\"I\": 1.0}, \"19\": {\"I\": 1.0}}" energy=-50.89705717778699 free_energy=-50.89705717778699 stress="-4.72156117847456e-07 -1.4867160807228867e-06 1.4939404604296673e-08 -1.4867160807228867e-06 8.142991584054722e-07 3.749908219164873e-06 1.4939404604296673e-08 3.749908219164873e-06 -1.2361697786786925e-06" pbc="T T T"
Cs       5.28369601       3.97896253       1.33171128        0       0.00020171       0.00019211       0.00005181
Cs      15.52343609      10.17717552       3.24721580        1      -0.00010042       0.00004524      -0.00005219
K       10.40398111       7.07893352       2.29094395        2      -0.00012968      -0.00052251      -0.00045905
In      16.60745500      -0.36776612      -0.94606018        3      -0.00044781      -0.00005137       0.00019164
I        8.61052899       4.27512383       3.18620193        4       0.00014214       0.00018456      -0.00003130
I       12.19723639       9.88110885       1.39169299        5       0.00032556       0.00007155       0.00031452
I       10.08342533       2.29604300      -0.38622111        6       0.00035053      -0.00008281       0.00004981
I       10.72424051      11.86036899       4.96480902        7       0.00020697       0.00003297      -0.00001688
I        7.23890602       7.66670644       0.66456093        8      -0.00028725       0.00029687       0.00007909
I       13.56993329       6.48967581       3.91334458        9      -0.00035265      -0.00010416       0.00004413
Cs      13.58730801       3.79525272       0.85879223       10       0.00022416       0.00018217       0.00005567
Cs      23.82705155       9.99346330       2.77429742       11      -0.00012288       0.00005526      -0.00005609
K       18.70759478       6.89522246       1.81802527       12      -0.00012932      -0.00052224      -0.00045914
In       8.30382276      -0.18404379      -0.47309579       13      -0.00026487      -0.00017835      -0.00015256
I       16.91415094       4.09140803       2.71325869       14       0.00006621       0.00024248       0.00015303
I       20.50084210       9.69740272       0.91879806       15       0.00040060       0.00001354       0.00013296
I       18.38703805       2.11233240      -0.85913753       16       0.00036061      -0.00008787       0.00003287
I       19.02785514      11.67665740       4.49188807       17       0.00019756       0.00003877      -0.00000007
I       15.54252135       7.48299317       0.19164409       18      -0.00030846       0.00031482       0.00006510
I       21.87354559       6.30596680       3.44042436       19      -0.00033274      -0.00012103       0.00005666
