20
Lattice="16.221595921609072 0.0 0.0 3.974002113572747 9.081460861219355 0.0 4.427561663099352 -0.6116127674548064 7.577284920853311" Properties=species:S:1:pos:R:3 pbc="T T T"
Cs       4.12798683       2.11743131       1.89434241
Cs      12.38437473       6.35241595       5.68294195
K        8.25618075       4.23492349       3.78864213
In       0.00000020       0.00000056       0.00000024
I        7.22901350       0.19580303       4.21999298
I        9.28334799       8.27404355       3.35729129
I       10.61762673       2.64169616       2.61946700
I        5.89473315       5.82815059       4.95781680
I        6.36057116       6.05721706       0.90230152
I       10.15179083       2.41263275       6.67498450
Cs      12.23878479       2.11743131       1.89434241
Cs      20.49517269       6.35241595       5.68294195
K       16.36697871       4.23492349       3.78864213
In       8.11079816       0.00000056       0.00000024
I       15.33981146       0.19580303       4.21999298
I       17.39414595       8.27404355       3.35729129
I       18.72842469       2.64169616       2.61946700
I       14.00553111       5.82815059       4.95781680
I       14.47136912       6.05721706       0.90230152
I       18.26258879       2.41263275       6.67498450
