10
Lattice="9.234611055823807 0.05711783046057209 0.1619545099829291 4.5147683194805746 7.469535036208308 -0.013120915784884718 4.4251639932102975 2.993708342923061 7.464679248839439" Properties=species:S:1:pos:R:3:spacegroup_kinds:I:1:forces:R:3 spacegroup="P 1" unit_cell=conventional occupancy="_JSON {\"0\": {\"Cs\": 1.0}, \"1\": {\"Cs\": 1.0}, \"2\": {\"K\": 1.0}, \"3\": {\"In\": 1.0}, \"4\": {\"I\": 1.0}, \"5\": {\"I\": 1.0}, \"6\": {\"I\": 1.0}, \"7\": {\"I\": 1.0}, \"8\": {\"I\": 1.0}, \"9\": {\"I\": 1.0}}" energy=-25.648946309733635 free_energy=-25.648946309733635 stress="-5.882429548483921e-06 3.657418426848073e-07 -2.6084064453382565e-06 3.657418426848073e-07 -6.299386395958352e-06 -3.532382772350092e-07 -2.6084064453382565e-06 -3.532382772350092e-07 -5.106391139585066e-06" pbc="T T T"
Cs       4.52667624       2.80368015       1.82633542        0      -0.00004985      -0.00015188      -0.00010475
Cs      13.64764783       7.71704604       5.78703536        1       0.00010029      -0.00010185       0.00006137
K        9.08723841       5.25963019       3.80724701        2       0.00003858       0.00029817      -0.00030412
In       9.23470100       0.05701712       0.16199606        3      -0.00018753       0.00000981       0.00010619
I        6.11147471       3.97292000       5.22086469        4       0.00025160       0.00046297      -0.00013608
I       12.06287501       6.54693772       2.39239089        5       0.00006779      -0.00006134       0.00011911
I        9.86734263       2.50506522       1.73184928        6       0.00003731       0.00022001       0.00011399
I        8.30715790       8.01548144       5.88123538        7      -0.00002533      -0.00035101       0.00016783
I        6.89707958       6.11875559       1.16254350        8      -0.00006087      -0.00041397       0.00013362
I       11.27786244       4.40220855       6.45126406        9      -0.00017198       0.00008908      -0.00015715
