40
Lattice="18.178446627267792 1.6440272378216103 -3.562157143956678 -10.643449520193714 15.20056472397031 1.2468551778133548 1.6561794636602583 0.4485652015481368 8.66042275233288" Properties=species:S:1:pos:R:3:spacegroup_kinds:I:1:forces:R:3 spacegroup="P 1" unit_cell=conventional occupancy="_JSON {\"0\": {\"Cs\": 1.0}, \"1\": {\"Cs\": 1.0}, \"2\": {\"K\": 1.0}, \"3\": {\"In\": 1.0}, \"4\": {\"I\": 1.0}, \"5\": {\"I\": 1.0}, \"6\": {\"I\": 1.0}, \"7\": {\"I\": 1.0}, \"8\": {\"I\": 1.0}, \"9\": {\"I\": 1.0}, \"10\": {\"Cs\": 1.0}, \"11\": {\"Cs\": 1.0}, \"12\": {\"K\": 1.0}, \"13\": {\"In\": 1.0}, \"14\": {\"I\": 1.0}, \"15\": {\"I\": 1.0}, \"16\": {\"I\": 1.0}, \"17\": {\"I\": 1.0}, \"18\": {\"I\": 1.0}, \"19\": {\"I\": 1.0}, \"20\": {\"Cs\": 1.0}, \"21\": {\"Cs\": 1.0}, \"22\": {\"K\": 1.0}, \"23\": {\"In\": 1.0}, \"24\": {\"I\": 1.0}, \"25\": {\"I\": 1.0}, \"26\": {\"I\": 1.0}, \"27\": {\"I\": 1.0}, \"28\": {\"I\": 1.0}, \"29\": {\"I\": 1.0}, \"30\": {\"Cs\": 1.0}, \"31\": {\"Cs\": 1.0}, \"32\": {\"K\": 1.0}, \"33\": {\"In\": 1.0}, \"34\": {\"I\": 1.0}, \"35\": {\"I\": 1.0}, \"36\": {\"I\": 1.0}, \"37\": {\"I\": 1.0}, \"38\": {\"I\": 1.0}, \"39\": {\"I\": 1.0}}" energy=-103.17526049017515 free_energy=-103.17526049017515 stress="-1.0500304593058771e-06 -1.1721529848801823e-06 2.9290173095914275e-07 -1.1721529848801823e-06 3.691558762850283e-08 -1.1572816544120011e-06 2.9290173095914275e-07 -1.1572816544120011e-06 5.798549108140449e-07" pbc="T T T"
Cs       3.29904233       7.23611592       7.97510622        0      -0.00031348      -0.00005578      -0.00026214
Cs       8.10840459       4.97825355       7.20973290        1       0.00006892       0.00026515      -0.00021354
K        2.98995727       1.67063292       3.84169887        2       0.00039754       0.00036885       0.00039891
In       2.16319283       1.44726690      -0.48824432        3      -0.00000976       0.00026134      -0.00037751
I        3.47184344       3.75042052       0.94249542        4       0.00000161      -0.00008291       0.00000884
I        6.27993337       8.01500858       5.58199500        5      -0.00048578       0.00000836       0.00030005
I        5.86961663       2.03296436       5.97153447        6       0.00011269       0.00039859       0.00012678
I        9.20173103       2.13364982      -0.07011305        7       0.00000579      -0.00035185       0.00004985
I       -1.42187178       7.15226569       1.70089455        8       0.00057895      -0.00017095       0.00002087
I        2.08355413       3.79212540       6.60461015        9       0.00014206      -0.00017639      -0.00012013
Cs      -2.02434626      14.83701843       8.59806260       10       0.00065456      -0.00013352       0.00053831
Cs       2.78724216      12.57997554       7.83284917       11      -0.00000033      -0.00020449       0.00022799
K       -2.32845507       9.27343556       4.46429601       12      -0.00021407      -0.00015343       0.00002639
In      -3.15758675       9.04872847       0.13416679       13      -0.00011709       0.00006022       0.00001568
I       -1.84909466      11.35204544       1.56508740       14       0.00017814       0.00009566      -0.00009021
I        0.95567299      15.61685183       6.20622926       15       0.00035042      -0.00004338       0.00024946
I        0.54976965       9.63497319       6.59472576       16      -0.00028039      -0.00036467      -0.00011895
I        3.88070100       9.73211641       0.55298314       17       0.00014329       0.00025230      -0.00010099
I       -6.74352793      14.75208228       2.32567981       18      -0.00033347       0.00013805       0.00004379
I       -3.23805430      11.39305819       7.22778747       19       0.00008650       0.00013594       0.00017799
Cs      12.38859114       8.05902911       6.19494255       20      -0.00012692      -0.00000821      -0.00026090
Cs      -0.98079353       4.15721877       8.98900324       21       0.00002005      -0.00035864       0.00034692
K       12.08018904       2.49556073       2.06036634       22       0.00019661      -0.00030438      -0.00023555
In      11.25273951       2.27033103      -2.26995032       23      -0.00035511      -0.00011345      -0.00067114
I       12.56244598       4.57323049      -0.83971777       24      -0.00006277      -0.00006150       0.00060761
I       -2.81038881       7.19447057       7.36327255       25       0.00005140       0.00003379       0.00022406
I       14.95948331       2.85466917       4.19026906       26       0.00050891       0.00048195      -0.00002697
I       18.29010564       2.95408250      -1.85095103       27       0.00037868       0.00022869       0.00026753
I        7.66786063       7.97373684      -0.08015315       28      -0.00009986      -0.00038128       0.00019585
I       11.17352407       4.61599149       4.82322399       29      -0.00014017      -0.00038872       0.00040523
Cs       7.06539082      15.65746994       6.81840741       30      -0.00012584       0.00025732       0.00012378
Cs      -6.30115201      11.75667472       9.61661999       31      -0.00021174       0.00040904      -0.00050439
K        6.76037755      10.09365855       2.68325561       32      -0.00029221       0.00012332       0.00005798
In       5.93159197       9.86983383      -1.64707559       33       0.00024946       0.00002838       0.00064328
I        7.24010636      12.17269244      -0.21502754       34      -0.00029417       0.00028113      -0.00054471
I       -8.13255657      14.79286150       7.98882217       35      -0.00014102      -0.00000945      -0.00087758
I        9.63913427      10.45698535       4.81376067       36      -0.00052909      -0.00042860       0.00006368
I       12.97074678      10.55525559      -1.22719001       37      -0.00033370      -0.00026256      -0.00026356
I        2.34477931      15.57456716       0.54435877       38      -0.00004230       0.00001522      -0.00019860
I        5.85110784      12.21405772       5.44665524       39       0.00038371       0.00021087      -0.00025399
