80
Lattice="19.585367605346633 2.3366820219159523 -1.406412328453168 -8.816775214733788 14.22796460732986 2.229572096450231 -2.9932305836064956 -4.473467089056856 16.711541703796822" Properties=species:S:1:pos:R:3:spacegroup_kinds:I:1:forces:R:3 spacegroup="P 1" unit_cell=conventional occupancy="_JSON {\"0\": {\"Cs\": 1.0}, \"1\": {\"Cs\": 1.0}, \"2\": {\"K\": 1.0}, \"3\": {\"In\": 1.0}, \"4\": {\"I\": 1.0}, \"5\": {\"I\": 1.0}, \"6\": {\"I\": 1.0}, \"7\": {\"I\": 1.0}, \"8\": {\"I\": 1.0}, \"9\": {\"I\": 1.0}, \"10\": {\"Cs\": 1.0}, \"11\": {\"Cs\": 1.0}, \"12\": {\"K\": 1.0}, \"13\": {\"In\": 1.0}, \"14\": {\"I\": 1.0}, \"15\": {\"I\": 1.0}, \"16\": {\"I\": 1.0}, \"17\": {\"I\": 1.0}, \"18\": {\"I\": 1.0}, \"19\": {\"I\": 1.0}, \"20\": {\"Cs\": 1.0}, \"21\": {\"Cs\": 1.0}, \"22\": {\"K\": 1.0}, \"23\": {\"In\": 1.0}, \"24\": {\"I\": 1.0}, \"25\": {\"I\": 1.0}, \"26\": {\"I\": 1.0}, \"27\": {\"I\": 1.0}, \"28\": {\"I\": 1.0}, \"29\": {\"I\": 1.0}, \"30\": {\"Cs\": 1.0}, \"31\": {\"Cs\": 1.0}, \"32\": {\"K\": 1.0}, \"33\": {\"In\": 1.0}, \"34\": {\"I\": 1.0}, \"35\": {\"I\": 1.0}, \"36\": {\"I\": 1.0}, \"37\": {\"I\": 1.0}, \"38\": {\"I\": 1.0}, \"39\": {\"I\": 1.0}, \"40\": {\"Cs\": 1.0}, \"41\": {\"Cs\": 1.0}, \"42\": {\"K\": 1.0}, \"43\": {\"In\": 1.0}, \"44\": {\"I\": 1.0}, \"45\": {\"I\": 1.0}, \"46\": {\"I\": 1.0}, \"47\": {\"I\": 1.0}, \"48\": {\"I\": 1.0}, \"49\": {\"I\": 1.0}, \"50\": {\"Cs\": 1.0}, \"51\": {\"Cs\": 1.0}, \"52\": {\"K\": 1.0}, \"53\": {\"In\": 1.0}, \"54\": {\"I\": 1.0}, \"55\": {\"I\": 1.0}, \"56\": {\"I\": 1.0}, \"57\": {\"I\": 1.0}, \"58\": {\"I\": 1.0}, \"59\": {\"I\": 1.0}, \"60\": {\"Cs\": 1.0}, \"61\": {\"Cs\": 1.0}, \"62\": {\"K\": 1.0}, \"63\": {\"In\": 1.0}, \"64\": {\"I\": 1.0}, \"65\": {\"I\": 1.0}, \"66\": {\"I\": 1.0}, \"67\": {\"I\": 1.0}, \"68\": {\"I\": 1.0}, \"69\": {\"I\": 1.0}, \"70\": {\"Cs\": 1.0}, \"71\": {\"Cs\": 1.0}, \"72\": {\"K\": 1.0}, \"73\": {\"In\": 1.0}, \"74\": {\"I\": 1.0}, \"75\": {\"I\": 1.0}, \"76\": {\"I\": 1.0}, \"77\": {\"I\": 1.0}, \"78\": {\"I\": 1.0}, \"79\": {\"I\": 1.0}}" energy=-205.50095765343139 free_energy=-205.50095765343139 stress="9.311378235749331e-09 -1.11033272204424e-07 9.520171299991518e-08 -1.11033272204424e-07 -1.8644188152331703e-07 2.9147108137744e-08 9.520171299991518e-08 2.9147108137744e-08 5.457331604697908e-07" pbc="T T T"
Cs      -1.78839093       1.62623610      16.57968995        0      -0.00008934       0.00000683      -0.00019738
Cs       3.90693229       0.03725217      17.26894501        1       0.00004683       0.00005179       0.00014779
K        0.61114156       0.04588498       4.18504989        2       0.00042041      -0.00012708      -0.00002664
In       1.36031927       1.16415756       0.00715114        3      -0.00011720      -0.00040024      -0.00022826
I        0.93912811       3.03866876       2.27649128        4      -0.00030136       0.00019881       0.00013936
I        5.66865684       5.33522407       6.50480263        5       0.00039873       0.00027776       0.00017275
I        2.25920107       0.57052008       7.35127180        6      -0.00009055      -0.00008593      -0.00016413
I        8.75732890       0.68973247       0.31559773        7      -0.00005258      -0.00013389      -0.00014908
I       -1.27737425       6.61548623       2.83709453        8       0.00014290      -0.00013326       0.00023962
I       -1.90734625       0.59003109       6.64815559        9       0.00025496      -0.00026610      -0.00006299
Cs      -0.29189972       3.86263416       8.22384994       10       0.00012262       0.00020982       0.00003006
Cs       5.40359066       2.27431643       8.91327583       11      -0.00013530      -0.00012837       0.00002297
K       -0.88552994      -2.19091395      12.54080609       12       0.00043831      -0.00016126      -0.00005029
In      -0.13613776      -1.07275131       8.36283181       13      -0.00003033       0.00034989       0.00033774
I       -0.55721145       0.80181425      10.63236769       14      -0.00045382       0.00014572      -0.00010831
I        4.17230298       3.09847855      14.86064538       15       0.00024740      -0.00025774      -0.00018764
I        0.76238897      -1.66619296      15.70687468       16       0.00011108       0.00005703       0.00005314
I        7.26069780      -1.54695725       8.67133432       17      -0.00015880      -0.00023111      -0.00014841
I       -2.77413408       4.37872182      11.19294227       18       0.00025632      -0.00022664       0.00006684
I       -3.40405166      -1.64679229      15.00374895       19       0.00017946      -0.00003537       0.00020759
Cs      -6.19691221       8.74016458      17.69454960       20      -0.00001997       0.00006836      -0.00013867
Cs      -0.50140414       7.15136159      18.38359223       21      -0.00002953      -0.00006350       0.00012041
K       -3.79718321       7.15977055       5.29987477       22       0.00041749      -0.00014211      -0.00014139
In      -3.04793985       8.27818757       1.12204009       23      -0.00022335      -0.00009383      -0.00057254
I       -3.46903617      10.15262872       3.39142327       24      -0.00042620       0.00020398       0.00006422
I        1.26036079      12.44905889       7.61958748       25       0.00029079       0.00041973       0.00033948
I       -2.14934786       7.68444887       8.46595460       26       0.00018662       0.00012545      -0.00001750
I        4.34898727       7.80360217       1.43031441       27       0.00007660      -0.00000629      -0.00007936
I       -5.68590739      13.72946341       3.95199057       28       0.00014252      -0.00011769      -0.00002509
I       -6.31575603       7.70395632       7.76279189       29       0.00019355      -0.00021026       0.00014529
Cs      -4.70017809      10.97674375       9.33852967       30       0.00001645       0.00013418       0.00006315
Cs       0.99508497       9.38815241      10.02816388       31      -0.00001150      -0.00005675      -0.00003281
K       -5.29401038       4.92324730      13.65555619       32       0.00045516      -0.00026358      -0.00005137
In      -4.54459754       6.04125413       9.47763334       33      -0.00026881       0.00023812       0.00023560
I       -4.96582287       7.91584813      11.74707143       34      -0.00031670       0.00017875      -0.00010266
I       -0.23636593      10.21246526      15.97526432       35       0.00040836      -0.00011214      -0.00005117
I       -3.64595023       5.44781066      16.82157934       36       0.00011165       0.00012421       0.00012677
I        2.85221989       5.56706132       9.78595572       37      -0.00001454      -0.00011172       0.00001399
I       -7.18245071      11.49267961      12.30779959       38       0.00024522      -0.00021385      -0.00015206
I       -7.81243178       5.46726231      16.11859220       39       0.00027997      -0.00015416       0.00041207
Cs       8.00434103       2.79471362      15.87572028       40      -0.00011765      -0.00000912       0.00004505
Cs      13.69946679       1.20583484      16.56661117       41       0.00005388      -0.00001529      -0.00012289
K       10.40551811       1.21405905       3.48155812       42      -0.00036345       0.00010702       0.00015152
In      11.15278547       2.33243653      -0.69643950       43       0.00030385       0.00031027       0.00051305
I       10.73158113       4.20719897       1.57298161       44       0.00024073      -0.00025756      -0.00023695
I       15.46236817       6.50337302       5.80203338       45      -0.00033597      -0.00015479      -0.00026010
I       12.05200480       1.73875615       6.64813014       46      -0.00000944      -0.00009579      -0.00015301
I       18.55012838       1.85744014      -0.38774598       47       0.00006520       0.00027458      -0.00002551
I        8.51550869       7.78379235       2.13321164       48      -0.00016820       0.00002948       0.00015786
I        7.88588094       1.75877004       5.94423727       49      -0.00018604      -0.00004885      -0.00009861
Cs       9.50084004       5.03162439       7.51983151       50      -0.00017981      -0.00005934       0.00007183
Cs      15.19610096       3.44232537       8.21088776       51       0.00017655       0.00010506       0.00001863
K        8.90874058      -1.02247323      11.83726351       52      -0.00030764       0.00000258       0.00020445
In       9.65614049       0.09586690       7.65950527       53       0.00023229      -0.00038538      -0.00047038
I        9.23469180       1.97048182       9.92869337       54       0.00039693       0.00023321       0.00022027
I       13.96568872       4.26683191      14.15779661       55      -0.00028280      -0.00009066       0.00000890
I       10.55551500      -0.49810770      15.00370002       56      -0.00012861      -0.00004558      -0.00006443
I       17.05361522      -0.37914521       7.96790981       57      -0.00024235      -0.00004779      -0.00002367
I        7.01877730       5.54704333      10.48900566       58      -0.00007323       0.00008057       0.00013928
I        6.38927074      -0.47801313      14.30001621       59      -0.00029991       0.00006551      -0.00008867
Cs       3.59582595       9.90898457      16.99033576       60      -0.00015339      -0.00017973       0.00006504
Cs       9.29109832       8.31947801      17.68150902       61       0.00009384       0.00018740      -0.00013619
K        5.99709330       8.32825549       4.59634241       62      -0.00034668       0.00000744       0.00012650
In       6.74447725       9.44645962       0.41843090       63       0.00001710       0.00044040       0.00013835
I        6.32302109      11.32131763       2.68768185       64       0.00032910      -0.00033762      -0.00024580
I       11.05401863      13.61736019       6.91669138       65      -0.00032982       0.00006652      -0.00000210
I        7.64374472       8.85264117       7.76288349       66      -0.00009056       0.00004110      -0.00010160
I       14.14181730       8.97147094       0.72699945       67       0.00002241       0.00024184       0.00008383
I        4.10709777      14.89766783       3.24800384       68      -0.00028153       0.00014536      -0.00015106
I        3.47749353       8.87282778       7.05899890       69      -0.00011629      -0.00008667       0.00011737
Cs       5.09245712      12.14549901       8.63454131       70      -0.00015774       0.00001581       0.00019773
Cs      10.78770088      10.55657567       9.32569660       71       0.00013391      -0.00006766      -0.00009103
K        4.50025470       6.09139831      12.95204059       72      -0.00025523       0.00000614       0.00008919
In       5.24779019       7.20989520       8.77433362       73       0.00001168      -0.00017374      -0.00058718
I        4.82639122       9.08449544      11.04357681       74       0.00032832       0.00009394       0.00001523
I        9.55726053      11.38062777      15.27258293       75      -0.00029732       0.00007063       0.00014880
I        6.14698164       6.61592971      16.11844832       76       0.00010360       0.00008525       0.00000620
I       12.64519879       6.73467441       9.08266644       77      -0.00012404       0.00016329       0.00001875
I        2.61038011      12.66100196      11.60387147       78      -0.00005367       0.00014323      -0.00010973
I        1.98089200       6.63585140      15.41463400       79      -0.00031156       0.00008139       0.00017998
