20
Lattice="8.600633258769829 0.015351843549403341 1.0319548407594563 -0.06065747736518501 9.146804316298024 0.3622622376114962 -1.5022320552648083 -0.5066743941133384 12.540026210288802" Properties=species:S:1:pos:R:3:spacegroup_kinds:I:1:forces:R:3 spacegroup="P 1" unit_cell=conventional occupancy="_JSON {\"0\": {\"Cs\": 1.0}, \"1\": {\"Cs\": 1.0}, \"2\": {\"Cs\": 1.0}, \"3\": {\"Cs\": 1.0}, \"4\": {\"Pb\": 1.0}, \"5\": {\"Pb\": 1.0}, \"6\": {\"Pb\": 1.0}, \"7\": {\"Pb\": 1.0}, \"8\": {\"I\": 1.0}, \"9\": {\"I\": 1.0}, \"10\": {\"I\": 1.0}, \"11\": {\"I\": 1.0}, \"12\": {\"I\": 1.0}, \"13\": {\"I\": 1.0}, \"14\": {\"I\": 1.0}, \"15\": {\"I\": 1.0}, \"16\": {\"I\": 1.0}, \"17\": {\"I\": 1.0}, \"18\": {\"I\": 1.0}, \"19\": {\"I\": 1.0}}" energy=-56.50802965616688 free_energy=-56.50802965616688 stress="1.2701137145366626e-06 -4.410588128546959e-06 2.631735080083007e-06 -4.410588128546959e-06 -1.6115612214503545e-06 -5.738063971372299e-07 2.631735080083007e-06 -5.738063971372299e-07 5.7769717418945005e-06" pbc="T T T"
Cs       4.14143039       8.44031056       4.02345039        0       0.00000761      -0.00012440      -0.00027584
Cs       0.34166700       3.85933371       3.38179845        1       0.00022004       0.00021217       0.00003959
Cs       3.91215068       0.46442584      10.04359725        2      -0.00011135      -0.00008511       0.00012763
Cs      -0.88892447       5.02875281       9.65102130        3       0.00012319       0.00003664       0.00033192
Pb       0.50795761       0.12384862       0.06589714        4       0.00005358       0.00015198       0.00036590
Pb       4.77804680       4.70510180       0.76361440        5       0.00004622      -0.00003703      -0.00039774
Pb      -0.24312016      -0.12860537       6.33615627        6       0.00019929      -0.00057142      -0.00056982
Pb       4.02681809       4.45266288       7.03343556        7      -0.00089090       0.00008098      -0.00010376
I        2.06668016       6.49796858       1.04097888        8       0.00006999       0.00016782      -0.00007139
I        3.07079252       1.92594660       0.97650529        9      -0.00008347       0.00018470       0.00003759
I        8.00411189       0.09707978       4.14897357       10       0.00005616      -0.00002567      -0.00014503
I        5.98763391       2.40576811      13.02557942       11      -0.00012462      -0.00003050      -0.00003457
I        4.98401134       6.97713200      13.08883101       12      -0.00018282       0.00011178       0.00024679
I        5.13029003       4.66645656       3.98935101       13       0.00004440      -0.00005084      -0.00076994
I        1.44009053       6.28704278       6.26654204       14      -0.00004459       0.00022307       0.00009995
I        2.44364601       1.71600005       6.20202601       15       0.00026780      -0.00003329       0.00010621
I        0.11006718      -0.34011207       9.55481707       16       0.00020661      -0.00000278       0.00007698
I        6.61295165       2.61730408       7.79842968       17       0.00021879      -0.00029899       0.00048909
I        5.60906931       7.18900364       7.86402333       18      -0.00006664       0.00010829       0.00010911
I        2.92350282       4.23820633      10.07762486       19      -0.00000929      -0.00001741       0.00033732
