20
Lattice="19.861447723840993 0.0 0.0 1.4210105792812626 9.384604966006343 0.0 6.15586015406555 4.406912325997217 7.327578796822131" Properties=species:S:1:pos:R:3 pbc="T T T"
Cs       4.37677632       3.44784258       1.83191864
Cs      13.13081807      10.34367372       5.49565951
K        8.75379716       6.89575805       3.66378899
In       0.00000022       0.00000067       0.00000028
I        8.56878202       3.85894527       3.72882571
I        8.93881226       9.93257031       3.59875230
I       12.23154333       4.05667765       2.65182093
I        5.27604910       9.73483812       4.67575656
I        5.26725871       7.37499801       0.75385049
I       12.24033618       6.41652132       6.57372953
Cs      14.30750018       3.44784258       1.83191864
Cs      23.06154193      10.34367372       5.49565951
K       18.68452102       6.89575805       3.66378899
In       9.93072408       0.00000067       0.00000028
I       18.49950588       3.85894527       3.72882571
I       18.86953612       9.93257031       3.59875230
I       22.16226719       4.05667765       2.65182093
I       15.20677296       9.73483812       4.67575656
I       15.19798258       7.37499801       0.75385049
I       22.17106004       6.41652132       6.57372953
