5
Lattice="6.3746333815066505 0.148221489018955 -0.5341781269852398 -0.30390592547273126 6.3634904367797525 -0.7307022344583489 0.5104449659775654 0.754469636495451 6.328658715906265" Properties=species:S:1:pos:R:3:spacegroup_kinds:I:1:forces:R:3 spacegroup="P 1" unit_cell=conventional occupancy="_JSON {\"0\": {\"Cs\": 1.0}, \"1\": {\"Pb\": 1.0}, \"2\": {\"I\": 1.0}, \"3\": {\"I\": 1.0}, \"4\": {\"I\": 1.0}}" energy=-13.9844174496767 free_energy=-13.9844174496767 stress="-8.941763207619705e-07 -4.454198223163501e-06 -6.065090833723852e-06 -4.454198223163501e-06 -4.4265324118999545e-06 7.4245463970044786e-06 -6.065090833723852e-06 7.4245463970044786e-06 -2.761448819009506e-06" pbc="T T T"
Cs       3.39532903       3.38730037       2.54952593        0       0.00007227       0.00049057       0.00009651
Pb      -0.08907379       0.07986861      -0.00222683        1       0.00004972      -0.00031990      -0.00018564
I        6.52572064       0.74050924       2.61348028        2       0.00002652       0.00010314       0.00013050
I        3.06805149       0.30082295      -0.28277443        3       0.00000513      -0.00025096      -0.00008320
I       -0.36974170       3.30819607      -0.36167265        4      -0.00015364      -0.00002285       0.00004183
