20
Lattice="7.9085802130780145 0.0 0.0 -1.5266000843447776 10.82910300938197 0.0 -4.634963735067548 4.622487148770668 8.713453459736296" Properties=species:S:1:pos:R:3 pbc="T T T"
Cs       1.81999149      11.74284732       2.17836331
Cs      -0.93865125       6.32850490       2.17836331
Cs       1.22377886       4.91066357       6.53509004
Cs       3.98251186      10.32542416       6.53509004
Pb       0.64836764       0.60110729      -0.00000425
Pb       3.83938483       6.01555114      -0.00001011
Pb      -2.31748187       2.31124357       4.35672673
Pb       1.52190296       8.32679471       4.35673672
I        0.91928162       8.36124008       0.36201534
I        2.57603878       2.94667180       0.36221280
I        6.71395130       1.85891555       2.17836331
I        2.12451504       8.29247609       8.35115251
I        0.46776488      13.70701082       8.35134997
I        3.33607958       7.27325299       2.17836331
I       -1.01291332      10.28823386       3.99471127
I        0.64384384       4.87366557       3.99451381
I       -3.67021160      14.79501932       6.53509004
I        4.05670998       6.36548232       4.71902756
I        2.39995982      11.78001704       4.71883010
I       -0.29231653       9.38025375       6.53509004
