5
Lattice="6.139305316060835 1.2823379390586638 -1.3367947997761012 -1.3804139878107098 6.190012253720177 -0.8472832284820391 1.1145497599957084 1.0952166805057972 6.200106635061276" Properties=species:S:1:pos:R:3:spacegroup_kinds:I:1:forces:R:3 spacegroup="P 1" unit_cell=conventional occupancy="_JSON {\"0\": {\"Cs\": 1.0}, \"1\": {\"Pb\": 1.0}, \"2\": {\"I\": 1.0}, \"3\": {\"I\": 1.0}, \"4\": {\"I\": 1.0}}" energy=-13.984414384184696 free_energy=-13.984414384184696 stress="-4.317430909259267e-06 -3.5445071333956517e-06 -1.4254173494277107e-05 -3.5445071333956517e-06 -1.4944964206573245e-05 -9.460437414588118e-07 -1.4254173494277107e-05 -9.460437414588118e-07 1.2776395220659958e-06" pbc="T T T"
Cs       2.94076329       3.89624245       2.07024561        0      -0.00050975      -0.00025390       0.00016067
Pb      -0.27319380      -0.62822610       0.15902703        1       0.00040715       0.00006875       0.00036832
I        4.91543669       7.35537396       1.10635629        2       0.00003063       0.00037086       0.00022328
I        2.77790085      -0.12122933      -0.47518367        3      -0.00031105       0.00002307      -0.00053806
I       -1.10075481       2.41442975      -0.22708772        4       0.00038302      -0.00020878      -0.00021421
