10
Lattice="12.774120739070614 0.0 0.0 0.0 6.387060369535306 0.0 0.0 0.0 6.387060369535306" Properties=species:S:1:pos:R:3:spacegroup_kinds:I:1:forces:R:3 spacegroup="P 1" unit_cell=conventional occupancy="_JSON {\"0\": {\"Cs\": 1.0}, \"1\": {\"Pb\": 1.0}, \"2\": {\"I\": 1.0}, \"3\": {\"I\": 1.0}, \"4\": {\"I\": 1.0}, \"5\": {\"Cs\": 1.0}, \"6\": {\"Pb\": 1.0}, \"7\": {\"I\": 1.0}, \"8\": {\"I\": 1.0}, \"9\": {\"I\": 1.0}}" energy=-27.96148486331843 free_energy=-27.96148486331843 stress="-1.7509769494658041e-07 -3.297962516516104e-11 -9.114168004985901e-21 -3.297962516516104e-11 -1.750976996329751e-07 2.0955786174152505e-19 -9.114168004985901e-21 2.0955786174152505e-19 -1.7497692669499354e-07" pbc="T T T"
Cs       3.19386526       3.19319510       3.19353018        0       0.00001324      -0.00001324      -0.00000000
Pb       0.00000000       0.00000000       0.00000000        1       0.00001367      -0.00001367      -0.00000000
I        0.00000000       0.00000000       3.19353018        2      -0.00002138       0.00002138      -0.00000000
I        3.19353018       0.00000000       0.00000000        3       0.00001584       0.00002138       0.00000000
I        0.00000000       3.19353018       0.00000000        4      -0.00002138      -0.00001584       0.00000000
Cs       9.58092563       3.19319510       3.19353018        5       0.00001324      -0.00001324      -0.00000000
Pb       6.38706037       0.00000000       0.00000000        6       0.00001367      -0.00001367      -0.00000000
I        6.38706037       0.00000000       3.19353018        7      -0.00002138       0.00002138      -0.00000000
I        9.58059055       0.00000000       0.00000000        8       0.00001584       0.00002138       0.00000000
I        6.38706037       3.19353018       0.00000000        9      -0.00002138      -0.00001584       0.00000000
