20
Lattice="8.408728626498487 1.3096866383210177 1.5936342629785174 -1.577963638754578 8.969889057369723 0.9521316193033912 -2.079229003228028 -1.676377576554112 12.354780303010712" Properties=species:S:1:pos:R:3:spacegroup_kinds:I:1:forces:R:3 spacegroup="P 1" unit_cell=conventional occupancy="_JSON {\"0\": {\"Cs\": 1.0}, \"1\": {\"Cs\": 1.0}, \"2\": {\"Cs\": 1.0}, \"3\": {\"Cs\": 1.0}, \"4\": {\"Pb\": 1.0}, \"5\": {\"Pb\": 1.0}, \"6\": {\"Pb\": 1.0}, \"7\": {\"Pb\": 1.0}, \"8\": {\"I\": 1.0}, \"9\": {\"I\": 1.0}, \"10\": {\"I\": 1.0}, \"11\": {\"I\": 1.0}, \"12\": {\"I\": 1.0}, \"13\": {\"I\": 1.0}, \"14\": {\"I\": 1.0}, \"15\": {\"I\": 1.0}, \"16\": {\"I\": 1.0}, \"17\": {\"I\": 1.0}, \"18\": {\"I\": 1.0}, \"19\": {\"I\": 1.0}}" energy=-56.50802269357615 free_energy=-56.50802269357615 stress="-8.845979271426118e-06 -7.504487291533133e-06 -4.297479887956657e-07 -7.504487291533133e-06 6.939081356515855e-06 9.576887726499558e-07 -4.297479887956657e-07 9.576887726499558e-07 1.6122944554080688e-06" pbc="T T T"
Cs       2.51092976       8.93482700       4.87045989        0       0.00018358       0.00012963      -0.00020270
Cs      -0.44072873       3.86763808       3.68236657        1      -0.00019481       0.00031454       0.00014562
Cs       3.26560076       0.59787673      10.33146165        2       0.00003311       0.00020860       0.00035014
Cs      -2.19018964       4.35686830       9.92025524        3       0.00016457      -0.00019432       0.00040994
Pb      -1.56454555      -1.21093503      12.50450553        4      -0.00042735       0.00016516      -0.00009940
Pb       3.93004646       5.60532522       1.42317646        5      -0.00015979      -0.00024636      -0.00023651
Pb      -0.52808117      -0.37251380       6.32661953        6       0.00015576       0.00023887      -0.00018858
Pb       2.88689006       4.76710782       7.60011008        7       0.00045126      -0.00040466       0.00018815
I        0.95074418       6.91730108       1.63714786        8      -0.00015867      -0.00039996       0.00024327
I        2.69400668       2.57993197       1.34226169        9      -0.00030841      -0.00030490       0.00006315
I        7.67485796       1.32941363       4.70560085       10       0.00010696      -0.00003777       0.00011426
I        4.83033789       2.61748605      13.56193520       11      -0.00046070       0.00046848       0.00018517
I        3.08681690       6.95361223      13.85872171       12      -0.00000182       0.00000931      -0.00041883
I        4.10575980       5.38022267       4.65536758       13       0.00004569       0.00053456      -0.00011256
I        0.08041346       6.21716061       6.78533595       14       0.00052247      -0.00016664       0.00004771
I        1.82438545       1.88164892       6.49074880       15      -0.00009008       0.00001959      -0.00007323
I       -0.31961329      -0.76563817       9.54114276       16       0.00003923       0.00008382       0.00021968
I        5.69381645       3.31580401       8.41359162       17      -0.00029186      -0.00002755      -0.00029902
I        3.94973764       7.65299323       8.70876923       18       0.00018057      -0.00033853      -0.00016120
I        1.67111734       4.15248826      10.54505681       19       0.00021030      -0.00005187      -0.00017505
