20
Lattice="18.35870779139224 -0.030088019494459026 0.010358463182364809 4.587204634832308 8.00147289476472 -0.023233527319134962 4.575086519575607 2.627483953337521 6.934293078097878" Properties=species:S:1:pos:R:3:spacegroup_kinds:I:1:forces:R:3 spacegroup="P 1" unit_cell=conventional occupancy="_JSON {\"0\": {\"Cs\": 1.0}, \"1\": {\"Cs\": 1.0}, \"2\": {\"K\": 1.0}, \"3\": {\"In\": 1.0}, \"4\": {\"I\": 1.0}, \"5\": {\"I\": 1.0}, \"6\": {\"I\": 1.0}, \"7\": {\"I\": 1.0}, \"8\": {\"I\": 1.0}, \"9\": {\"I\": 1.0}, \"10\": {\"Cs\": 1.0}, \"11\": {\"Cs\": 1.0}, \"12\": {\"K\": 1.0}, \"13\": {\"In\": 1.0}, \"14\": {\"I\": 1.0}, \"15\": {\"I\": 1.0}, \"16\": {\"I\": 1.0}, \"17\": {\"I\": 1.0}, \"18\": {\"I\": 1.0}, \"19\": {\"I\": 1.0}}" energy=-51.29789214702237 free_energy=-51.29789214702237 stress="6.632355367730251e-07 4.4991515506242505e-07 -5.497493042154295e-08 4.4991515506242505e-07 1.5241382395355562e-07 -1.0292746337009886e-06 -5.497493042154295e-08 -1.0292746337009886e-06 1.7664070326009492e-06" pbc="T T T"
Cs       4.60024404       2.64085960       1.91836563        0      -0.00035917       0.00035718       0.00015225
Cs      13.74231689       7.97213093       4.99682914        1      -0.00026353       0.00027520       0.00022762
K        9.17078034       5.30717255       3.45838378        2      -0.00005717      -0.00005650      -0.00029357
In      18.35868158      -0.02980755       0.01045647        3       0.00014435      -0.00036634       0.00008444
I        6.95820457       3.20831625       5.24821944        4      -0.00022253      -0.00025775       0.00035220
I       11.38335961       7.40600899       1.66804212        5       0.00006437      -0.00054717       0.00013628
I        9.87290249       2.29299039       1.74578015        6      -0.00010316      -0.00027135      -0.00005414
I        8.46913221       8.32157385       5.17043984        7      -0.00005559      -0.00036658      -0.00019258
I        6.24563538       6.19852629       1.67432637        8       0.00049572       0.00022592      -0.00013023
I       12.09502729       4.41512062       5.24255121        9       0.00002443       0.00030449      -0.00022109
Cs      13.77960912       2.62584121       1.92352423       10      -0.00038197       0.00024050       0.00017907
Cs      22.92181936       7.95706112       5.00202706       11      -0.00051834       0.00034124       0.00024386
K       18.35020045       5.29220282       3.46357333       12      -0.00027240      -0.00026476      -0.00027307
In       9.17926235      -0.01495811       0.00535439       13       0.00007899       0.00009354      -0.00013794
I       16.13712385       3.19325742       5.25349014       14       0.00078216      -0.00025642      -0.00016769
I       20.56272232       7.39076281       1.67332115       15       0.00019341      -0.00020424      -0.00004427
I       19.05220102       2.27775994       1.75101212       16       0.00002229       0.00015457       0.00001647
I       17.64850826       8.30632301       5.17535516       17      -0.00021030       0.00007824       0.00042432
I       15.42509008       6.18349007       1.67949461       18       0.00027365       0.00014224      -0.00013454
I       21.27423186       4.40005512       5.24775371       19       0.00036479       0.00037801      -0.00016740
