20
Lattice="17.046365958917526 0.0 0.0 4.261591489765251 7.381292981293879 0.0 4.261591489834154 2.4604309938181133 6.959149952369048" Properties=species:S:1:pos:R:3 pbc="T T T"
Cs       4.26157324       2.46042552       1.73978785
Cs      12.78479266       7.38129831       5.21936201
K        8.52318303       4.92086196       3.47957499
In       0.00000009       0.00000015       0.00000005
I        6.42362215       3.34773895       5.02804581
I       10.62274394       6.49398488       1.93110414
I        8.88557354       2.54350060       1.61730174
I        8.16079234       7.29822319       5.34184818
I        6.24246235       6.23770649       1.61730556
I       10.80390387       3.60401779       5.34184458
Cs      12.78475622       2.46042552       1.73978785
Cs      21.30797564       7.38129831       5.21936201
K       17.04636601       4.92086196       3.47957499
In       8.52318307       0.00000015       0.00000005
I       14.94680513       3.34773895       5.02804581
I       19.14592692       6.49398488       1.93110414
I       17.40875652       2.54350060       1.61730174
I       16.68397532       7.29822319       5.34184818
I       14.76564533       6.23770649       1.61730556
I       19.32708685       3.60401779       5.34184458
