10
Lattice="10.228514026343014 0.0 0.0 -4.355429524262572 7.543825224808322 0.0 0.0 0.0 9.711480156908229" Properties=species:S:1:pos:R:3 pbc="T T T"
Cs       4.44714380       2.52631742       0.03087863
Cs      -0.41417072       5.04092583       9.68051197
K       -0.92004106       0.01172538       4.85573663
In      -0.92006038       0.01171569       0.00003108
I       -2.04401024       1.99810987       1.94270691
I        6.07697544       5.56919863       7.76877628
I        0.63612534       1.98117682       7.76879624
I        3.39683557       5.58601438       1.94272688
I       -2.59534248       7.53866033       1.94271501
I        6.62832562       0.02858390       7.76878438
